 C  H  O Mg 
 1.0000000000000000
    15.2259346732869041    0.0050373306177292    0.0186555174857414
    -7.0913762758806689   13.4745115715249604    0.0182226035629158
    -7.0916724110859466  -11.7516324991570080    6.5928931085496609
 C   H   O   Mg 
  24   6  18   6
Cartesian
  7.6010319249619984  2.6358474415416278  1.2152800526193805
  7.6329249500531962  1.3032679074842164  0.5561000950926236
 -6.3988869047606913  2.8615589348790760  5.7507374654006016
 -6.4213275154908773  1.5510833060986524  5.2566124963681604
 -5.0523893790787318  5.9298305710041452  2.3468615349975002
 -4.3229757930483688  6.3503194825968787  1.1211060786143747
  3.2561511706835899 -5.5176927115383307  6.4160427406264118
  4.0650754878381852 -5.1166828132318987  5.3451362091388122
 -1.2107416583893418 -6.3487828863255915  4.9428099757360444
 -2.4045691506216906 -6.1530602335767215  4.0780664306118339
  5.5138920200130279  6.5852831174684523  2.9065197296292289
  4.3649536633097163  6.8945626961215236  2.1673952977031306
 -6.5578602611537509 -0.9073180682392685  5.4144360930271471
 -6.5896898351359301  0.4252775916489746  6.0736274118257283
  7.4421203162942948 -1.1330054236003129  0.8789988596562888
  7.4645057808987634  0.1774756795901640  1.3731124013905232
  6.0951498026709690 -4.2012828987611357  4.2829452735804834
  5.3656550639592409 -4.6216684757503614  5.5087012596823008
 -2.2135100471573548  7.2464147671987424  0.2137774128274467
 -3.0224055380744441  6.8453357794315703  1.2846794049951487
  2.2534615926890949  8.0770066791515891  1.6870262056203602
  3.4473750674597339  7.8813198852072217  2.5516648736229159
 -4.4710785563298439 -4.8570145817851103  3.7232205042974771
 -3.3221071110481457 -5.1662623421665987  4.4622933978497628
 -6.3019118133961918  1.4012595120716496  4.1839632233512551
  3.6618449051264168 -5.1940673599442997  4.3358267609562899
  4.1767437722076650  6.3397489884463205  1.2486746564036570
  7.3449307564982584  0.3273544876797336  2.4457370525678832
 -2.6191857697290994  6.9226203414795373  2.2940019558514351
 -3.1338412008952168 -4.6114100455998468  5.3809763951580258
  7.7752529688130583  3.6820301892073179  0.4756451580443489
  7.4115882547401881  2.7487541629714185  2.4668451163579554
 -6.2474289771840805  3.8853020845617721  4.8803650166195673
 -6.2608644976753167  5.4901819448454319  2.2119716999652557
 -4.5107353893008710  6.0009036748943361  3.4942990346396856
  2.0191964598369632 -5.9982240650718923  6.1560836410070072
 -0.3663188208928334 -7.2699129669899953  4.6105442637972889
 -1.0225801521152480 -5.6375281677858409  5.9790367243707259
  6.3490117579231757  5.6269775750211339  2.4452505937943423
 -6.7320546134235828 -1.9535198482315703  6.1540651326423061
 -6.3685220962539173 -1.0202064157010975  4.1628484936226133
  7.2906312520486969 -2.1567484897072702  1.7493661023593563
  7.3036987612170536 -3.7617978506262482  4.4178363460560011
  5.5535275915982929 -4.2722855917767086  3.1354872304768273
 -0.9765879265341881  7.7270438578253149  0.4737114459654551
  1.4092284546102998  8.9983420712731306  2.0192002143071672
  2.0650549659905124  7.3655486980034537  0.6509781411241239
 -5.3062189195955503 -3.8987786925565526  4.1845871430694457
  1.5183126117653414 -7.7070990887273219  5.2024448104409196
  7.4901624216340128  5.6619034910562469  0.7788485617500703
 -7.5259750942584045  4.5017044144347267  3.4430278702435300
 -0.4753653363436718  9.4357541887432479  1.4273342808836444
 -6.4474306964086416 -3.9335322185363122  5.8510119595764856
  8.5689605707143510 -2.7732927702556007  3.1868345910518143
