 vasp.6.2.1 16May21 (build Aug 03 2024 02:50:01) gamma-only                     
  
 executed on             LinuxIFC date 2024.10.30  03:32:17
 running on   35 total cores
 distrk:  each k-point on   35 cores,    1 groups
 distr:  one band on NCORE=   1 cores,   35 groups


--------------------------------------------------------------------------------------------------------


 INCAR:
   SYSTEM = MOFCO2
   ISMEAR = 0
   SIGMA = 0.1
   ENCUT = 420.
   PREC = Accurate
   ISYM = -1
   NELM = 1
   IBRION = -1
   NSW = 0
   ALGO = sub
   NBANDS = 350
   NBANDSHIGH = 350
   NBANDSLOW = 131
   TIME = 0.05
   LHFCALC = .TRUE.
   AEXX = 1
   LASPH = .TRUE.
   PRECFOCK = Normal
   LWAVE = .TRUE.
   LCHARG = .TRUE.
   NWRITE = 1
   LORBIT = 11

 POTCAR:    PAW_PBE C_GW 28Sep2005                
 POTCAR:    PAW_PBE H_GW 21Apr2008                
 POTCAR:    PAW_PBE O_GW 28Sep2005                
 POTCAR:    PAW_PBE Fe_sv_GW 05Dec2013            
 -----------------------------------------------------------------------------
|                                                                             |
|           W    W    AA    RRRRR   N    N  II  N    N   GGGG   !!!           |
|           W    W   A  A   R    R  NN   N  II  NN   N  G    G  !!!           |
|           W    W  A    A  R    R  N N  N  II  N N  N  G       !!!           |
|           W WW W  AAAAAA  RRRRR   N  N N  II  N  N N  G  GGG   !            |
|           WW  WW  A    A  R   R   N   NN  II  N   NN  G    G                |
|           W    W  A    A  R    R  N    N  II  N    N   GGGG   !!!           |
|                                                                             |
|     For optimal performance we recommend to set                             |
|       NCORE = 2 up to number-of-cores-per-socket                            |
|     NCORE specifies how many cores store one orbital (NPAR=cpu/NCORE).      |
|     This setting can greatly improve the performance of VASP for DFT.       |
|     The default, NCORE=1 might be grossly inefficient on modern             |
|     multi-core architectures or massively parallel machines. Do your        |
|     own testing! More info at https://www.vasp.at/wiki/index.php/NCORE      |
|     Unfortunately you need to use the default for GW and RPA                |
|     calculations (for HF NCORE is supported but not extensively tested      |
|     yet).                                                                   |
|                                                                             |
 -----------------------------------------------------------------------------

 POTCAR:    PAW_PBE C_GW 28Sep2005                
  local pseudopotential read in
  kinetic energy density of atom read in
  atomic valenz-charges read in
  non local Contribution for L=           0  read in
    real space projection operators read in
  non local Contribution for L=           0  read in
    real space projection operators read in
  non local Contribution for L=           1  read in
    real space projection operators read in
  non local Contribution for L=           1  read in
    real space projection operators read in
    PAW grid and wavefunctions read in
 
   number of l-projection  operators is LMAX  =           4
   number of lm-projection operators is LMMAX =           8
 
 POTCAR:    PAW_PBE H_GW 21Apr2008                
  local pseudopotential read in
  kinetic energy density of atom read in
  atomic valenz-charges read in
  non local Contribution for L=           0  read in
    real space projection operators read in
  non local Contribution for L=           0  read in
    real space projection operators read in
  non local Contribution for L=           1  read in
    real space projection operators read in
  non local Contribution for L=           1  read in
    real space projection operators read in
  non local Contribution for L=           2  read in
    real space projection operators read in
    PAW grid and wavefunctions read in
 
   number of l-projection  operators is LMAX  =           5
   number of lm-projection operators is LMMAX =          13
 
 POTCAR:    PAW_PBE O_GW 28Sep2005                
  local pseudopotential read in
  kinetic energy density of atom read in
  atomic valenz-charges read in
  non local Contribution for L=           0  read in
    real space projection operators read in
  non local Contribution for L=           0  read in
    real space projection operators read in
  non local Contribution for L=           1  read in
    real space projection operators read in
  non local Contribution for L=           1  read in
    real space projection operators read in
    PAW grid and wavefunctions read in
 
   number of l-projection  operators is LMAX  =           4
   number of lm-projection operators is LMMAX =           8
 
 POTCAR:    PAW_PBE Fe_sv_GW 05Dec2013            
  local pseudopotential read in
  partial core-charges read in
  partial kinetic energy density read in
  kinetic energy density of atom read in
  atomic valenz-charges read in
  non local Contribution for L=           0  read in
    real space projection operators read in
  non local Contribution for L=           0  read in
    real space projection operators read in
  non local Contribution for L=           0  read in
    real space projection operators read in
  non local Contribution for L=           1  read in
    real space projection operators read in
  non local Contribution for L=           1  read in
    real space projection operators read in
  non local Contribution for L=           1  read in
    real space projection operators read in
  non local Contribution for L=           2  read in
    real space projection operators read in
  non local Contribution for L=           2  read in
    real space projection operators read in
  non local Contribution for L=           2  read in
    real space projection operators read in
  non local Contribution for L=           3  read in
    real space projection operators read in
  non local Contribution for L=           3  read in
    real space projection operators read in
    PAW grid and wavefunctions read in
 
   number of l-projection  operators is LMAX  =          11
   number of lm-projection operators is LMMAX =          41
 
 -----------------------------------------------------------------------------
|                                                                             |
|               ----> ADVICE to this user running VASP <----                  |
|                                                                             |
|     You have a (more or less) 'large supercell' and for larger cells it     |
|     might be more efficient to use real-space projection operators.         |
|     Therefore, try LREAL= Auto in the INCAR file.                           |
|     Mind: For very accurate calculation, you might also keep the            |
|     reciprocal projection scheme (i.e. LREAL=.FALSE.).                      |
|                                                                             |
 -----------------------------------------------------------------------------

  PAW_PBE C_GW 28Sep2005                :
 energy of atom  1       EATOM= -147.1560
 kinetic energy error for atom=    0.0192 (will be added to EATOM!!)
  PAW_PBE H_GW 21Apr2008                :
 energy of atom  2       EATOM=  -12.4884
 kinetic energy error for atom=    0.0256 (will be added to EATOM!!)
  PAW_PBE O_GW 28Sep2005                :
 energy of atom  3       EATOM= -432.3788
 kinetic energy error for atom=    0.0724 (will be added to EATOM!!)
  PAW_PBE Fe_sv_GW 05Dec2013            :
 energy of atom  4       EATOM=-3376.4015
 kinetic energy error for atom=    0.1308 (will be added to EATOM!!)
 
 
 POSCAR:  C  H  O Fe
  positions in direct lattice
  No initial velocities read in
 exchange correlation table for  LEXCH =        8
   RHO(1)=    0.500       N(1)  =     2000
   RHO(2)=  100.500       N(2)  =     4000
 


--------------------------------------------------------------------------------------------------------


 ion  position               nearest neighbor table
   1  0.295  0.941  0.220-  32 1.17  33 1.18
   2  0.032  0.132  0.567-  35 1.36   7 1.40  22 1.43
   3  0.081  0.617  0.166-   8 1.40  23 1.43   6 1.49
   4  0.131  0.566  0.032-  37 1.36   8 1.40  24 1.43
   5  0.166  0.081  0.617-   7 1.40  25 1.43  11 1.49
   6  0.179  0.747  0.349-  41 1.27  34 1.29   3 1.49
   7  0.192  0.205  0.678-  27 1.09   2 1.40   5 1.40
   8  0.205  0.677  0.192-  28 1.09   4 1.40   3 1.40
   9  0.253  0.651  0.822-  36 1.27  38 1.29  12 1.49
  10  0.322  0.808  0.795-  26 1.09  13 1.40  12 1.40
  11  0.349  0.179  0.747-  43 1.27  39 1.29   5 1.49
  12  0.383  0.834  0.919-  10 1.40  14 1.43   9 1.49
  13  0.433  0.968  0.868-  40 1.36  10 1.40  15 1.43
  14  0.567  0.032  0.132-  45 1.36  17 1.40  12 1.43
  15  0.617  0.166  0.081-  17 1.40  13 1.43  18 1.49
  16  0.651  0.821  0.253-  42 1.27  46 1.29  22 1.49
  17  0.678  0.192  0.205-  31 1.09  14 1.40  15 1.40
  18  0.747  0.349  0.178-  49 1.27  47 1.29  15 1.49
  19  0.795  0.323  0.808-  29 1.09  23 1.40  24 1.40
  20  0.808  0.795  0.322-  30 1.09  25 1.40  22 1.40
  21  0.821  0.253  0.651-  44 1.27  51 1.29  24 1.49
  22  0.834  0.919  0.383-  20 1.40   2 1.43  16 1.49
  23  0.869  0.434  0.968-  48 1.36  19 1.40   3 1.43
  24  0.919  0.383  0.834-  19 1.40   4 1.43  21 1.49
  25  0.968  0.868  0.433-  50 1.36  20 1.40   5 1.43
  26  0.182  0.656  0.634-  10 1.09
  27  0.344  0.366  0.818-   7 1.09
  28  0.366  0.817  0.344-   8 1.09
  29  0.634  0.183  0.656-  19 1.09
  30  0.656  0.634  0.182-  20 1.09
  31  0.818  0.344  0.366-  17 1.09
  32  0.310  0.006  0.317-   1 1.17
  33  0.278  0.875  0.120-   1 1.18
  34  0.067  0.696  0.328-   6 1.29  54 2.11  52 2.12
  35  0.073  0.264  0.640-   2 1.36  57 2.06  55 2.07
  36  0.098  0.479  0.633-   9 1.27  57 2.07
  37  0.264  0.638  0.074-   4 1.36  55 2.05  56 2.09
  38  0.303  0.671  0.933-   9 1.29  56 2.10  55 2.12
  39  0.328  0.067  0.696-  11 1.29  52 2.10  53 2.12
  40  0.361  0.926  0.736-  13 1.36  53 2.06  52 2.08
  41  0.367  0.903  0.521-   6 1.27  53 2.07
  42  0.479  0.633  0.098-  16 1.27  55 2.07
  43  0.521  0.367  0.902-  11 1.27  54 2.07
  44  0.633  0.097  0.479-  21 1.27  56 2.07
  45  0.639  0.074  0.264-  14 1.36  56 2.06  57 2.08
  46  0.672  0.933  0.304-  16 1.29  57 2.10  56 2.12
  47  0.697  0.329  0.067-  18 1.29  53 2.10  54 2.12
  48  0.736  0.362  0.926-  23 1.36  54 2.05  53 2.09
  49  0.902  0.521  0.367-  18 1.27  52 2.07
  50  0.927  0.736  0.360-  25 1.36  52 2.06  54 2.07
  51  0.933  0.304  0.672-  21 1.29  55 2.11  57 2.12
  52  0.107  0.783  0.515-  50 2.06  49 2.07  40 2.08  39 2.10  34 2.12
  53  0.515  0.107  0.783-  40 2.06  41 2.07  48 2.09  47 2.10  39 2.12
  54  0.783  0.516  0.106-  48 2.05  50 2.07  43 2.07  34 2.11  47 2.12
  55  0.217  0.484  0.894-  37 2.05  35 2.07  42 2.07  51 2.11  38 2.12
  56  0.485  0.893  0.217-  45 2.06  44 2.07  37 2.09  38 2.10  46 2.12
  57  0.893  0.217  0.485-  35 2.06  36 2.07  45 2.08  46 2.10  51 2.12
 

IMPORTANT INFORMATION: All symmetrisations will be switched off!
NOSYMM: (Re-)initialisation of all symmetry stuff for point group C_1.


----------------------------------------------------------------------------------------

                                     Primitive cell                                     

  volume of cell :    1403.0148

  direct lattice vectors                    reciprocal lattice vectors
    15.439217752  0.004465832 -0.038376892     0.065085042  0.034326685  0.130688713
    -7.186282924 13.630928377 -0.001416099     0.000303919  0.073536393  0.130825479
    -7.182834812-11.890639092  6.700359279     0.000372844  0.000212151  0.150021909

  length of vectors
    15.439266094 15.409246337 15.423204220     0.149979744  0.150076646  0.150022522

  position of ions in fractional coordinates (direct lattice)
     0.295019501  0.941160170  0.219875959
     0.032140205  0.131596472  0.567243074
     0.080939400  0.617136620  0.166081282
     0.131311660  0.566131401  0.032072370
     0.166052468  0.080890174  0.616656951
     0.178934143  0.747136406  0.349358741
     0.192223384  0.205099135  0.677753253
     0.204817095  0.677208988  0.192172431
     0.252895436  0.650728993  0.821583851
     0.322307724  0.807597299  0.795016362
     0.349319458  0.178891109  0.746556755
     0.382922059  0.833947320  0.919292900
     0.433306216  0.967704379  0.868314174
     0.566693754  0.032295640  0.131685826
     0.617077941  0.166052695  0.080707123
     0.650680572  0.821108876  0.253443275
     0.677692276  0.192402701  0.204983653
     0.747104594  0.349271007  0.178416179
     0.795182905  0.322791042  0.807827584
     0.807776602  0.794900865  0.322246747
     0.821065842  0.252863594  0.650641229
     0.833947517  0.919109811  0.383343020
     0.868688340  0.433868599  0.967927620
     0.919060577  0.382863380  0.833918703
     0.967859819  0.868403528  0.432756926
     0.182479428  0.655565764  0.633945057
     0.344103209  0.366270524  0.817662957
     0.365791429  0.816735938  0.344089651
     0.634208571  0.183264047  0.655910379
     0.655896791  0.633729476  0.182337028
     0.817520572  0.344434206  0.366054943
     0.309634406  0.006275347  0.316899865
     0.277845133  0.874684412  0.119782242
     0.067421933  0.696011040  0.328229224
     0.073185170  0.264301200  0.639867354
     0.097668867  0.478758507  0.633498145
     0.264148327  0.637872795  0.073659183
     0.302715318  0.671496338  0.932846989
     0.328490557  0.067484104  0.696479021
     0.361353031  0.926373201  0.735541372
     0.367302190  0.903369468  0.521413749
     0.478945773  0.633023796  0.098161017
     0.521054227  0.366976174  0.901838960
     0.632697810  0.096630539  0.478586221
     0.638646969  0.073626784  0.264458628
     0.671509473  0.932515918  0.303521008
     0.697284712  0.328503632  0.067153018
     0.735851673  0.362127205  0.926340817
     0.902331148  0.521241523  0.366501884
     0.926814852  0.735698800  0.360132676
     0.932578089  0.303988990  0.671770806
     0.107174485  0.783307327  0.515334558
     0.515337162  0.106795323  0.782801462
     0.783372319  0.515771295  0.106356464
     0.216627696  0.484228705  0.893643529
     0.484662838  0.893204670  0.217198508
     0.892825508  0.216692673  0.484665412

  ion indices of the primitive-cell ions
   primitive index   ion index
                 1           1
                 2           2
                 3           3
                 4           4
                 5           5
                 6           6
                 7           7
                 8           8
                 9           9
                10          10
                11          11
                12          12
                13          13
                14          14
                15          15
                16          16
                17          17
                18          18
                19          19
                20          20
                21          21
                22          22
                23          23
                24          24
                25          25
                26          26
                27          27
                28          28
                29          29
                30          30
                31          31
                32          32
                33          33
                34          34
                35          35
                36          36
                37          37
                38          38
                39          39
                40          40
                41          41
                42          42
                43          43
                44          44
                45          45
                46          46
                47          47
                48          48
                49          49
                50          50
                51          51
                52          52
                53          53
                54          54
                55          55
                56          56
                57          57

----------------------------------------------------------------------------------------

 
 
 KPOINTS: KPOINTS                                 

Automatic generation of k-mesh.
 Grid dimensions read from file:
 generate k-points for:    1    1    1

 Generating k-lattice:

  Cartesian coordinates                     Fractional coordinates (reciprocal lattice)
     0.065085042  0.034326685  0.130688713     1.000000000  0.000000000 -0.000000000
     0.000303919  0.073536393  0.130825479     0.000000000  1.000000000  0.000000000
     0.000372844  0.000212151  0.150021909    -0.000000000  0.000000000  1.000000000

  Length of vectors
     0.149979744  0.150076646  0.150022522

  Shift w.r.t. Gamma in fractional coordinates (k-lattice)
     0.000000000  0.000000000  0.000000000

 
 Subroutine IBZKPT returns following result:
 ===========================================
 
 Found      1 irreducible k-points:
 
 Following reciprocal coordinates:
            Coordinates               Weight
  0.000000  0.000000  0.000000      1.000000
 
 Following cartesian coordinates:
            Coordinates               Weight
  0.000000  0.000000  0.000000      1.000000
 
 WARNING: full set of k-points will be restricted to regular points only.

 
 Subroutine IBZKPT_HF returns following result:
 ==============================================
 
 Found      1 k-points in 1st BZ
 the following      1 k-points will be used (e.g. in the exchange kernel)
 Following reciprocal coordinates:   # in IRBZ
  0.000000  0.000000  0.000000    1.00000000   1 t-inv F


--------------------------------------------------------------------------------------------------------




 Dimension of arrays:
   k-points           NKPTS =      1   k-points in BZ     NKDIM =      1   number of bands    NBANDS=    350
   number of dos      NEDOS =    301   number of ions     NIONS =     57
   non local maximal  LDIM  =     11   non local SUM 2l+1 LMDIM =     41
   total plane-waves  NPLWV = ******
   max r-space proj   IRMAX =      1   max aug-charges    IRDMAX=  22306
   dimension x,y,z NGX =   108 NGY =  108 NGZ =  108
   dimension x,y,z NGXF=   216 NGYF=  216 NGZF=  216
   support grid    NGXF=   216 NGYF=  216 NGZF=  216
   ions per type =              25   6  20   6
   lowest and highest band optimized NBANDSLOW=     131 NBANDSHIGH=     350
   NGX,Y,Z   is equivalent  to a cutoff of  11.63, 11.65, 11.64 a.u.
   NGXF,Y,Z  is equivalent  to a cutoff of  23.26, 23.30, 23.28 a.u.

 SYSTEM =  MOFCO2                                  
 POSCAR =   C  H  O Fe                             

 Startparameter for this run:
   NWRITE =      1    write-flag & timer
   PREC   = accura    normal or accurate (medium, high low for compatibility)
   ISTART =      1    job   : 0-new  1-cont  2-samecut
   ICHARG =      0    charge: 1-file 2-atom 10-const
   ISPIN  =      1    spin polarized calculation?
   LNONCOLLINEAR =      F non collinear calculations
   LSORBIT =      F    spin-orbit coupling
   INIWAV =      1    electr: 0-lowe 1-rand  2-diag
   LASPH  =      T    aspherical Exc in radial PAW
 Electronic Relaxation 1
   ENCUT  =  420.0 eV  30.87 Ry    5.56 a.u.  25.80 25.75 25.77*2*pi/ulx,y,z
   ENINI  =  420.0     initial cutoff
   ENAUG  =  963.7 eV  augmentation charge cutoff
   NELM   =      1;   NELMIN=  2; NELMDL=  0     # of ELM steps 
   EDIFF  = 0.1E-03   stopping-criterion for ELM
   LREAL  =      F    real-space projection
   NLSPLINE    = F    spline interpolate recip. space projectors
   LCOMPAT=      F    compatible to vasp.4.4
   GGA_COMPAT  = T    GGA compatible to vasp.4.4-vasp.4.6
   LMAXPAW     = -100 max onsite density
   LMAXMIX     =    2 max onsite mixed and CHGCAR
   VOSKOWN=      0    Vosko Wilk Nusair interpolation
   ROPT   =    0.00000   0.00000   0.00000   0.00000
 Ionic relaxation
   EDIFFG = 0.1E-02   stopping-criterion for IOM
   NSW    =      0    number of steps for IOM
   NBLOCK =      1;   KBLOCK =      1    inner block; outer block 
   IBRION =     -1    ionic relax: 0-MD 1-quasi-New 2-CG
   NFREE  =      0    steps in history (QN), initial steepest desc. (CG)
   ISIF   =      0    stress and relaxation
   IWAVPR =     10    prediction:  0-non 1-charg 2-wave 3-comb
   ISYM   =     -1    0-nonsym 1-usesym 2-fastsym
   LCORR  =      T    Harris-Foulkes like correction to forces

   POTIM  = 0.5000    time-step for ionic-motion
   TEIN   =    0.0    initial temperature
   TEBEG  =    0.0;   TEEND  =   0.0 temperature during run
   SMASS  =  -3.00    Nose mass-parameter (am)
   estimated Nose-frequenzy (Omega)   =  0.10E-29 period in steps = 0.13E+47 mass=  -0.545E-26a.u.
   SCALEE = 1.0000    scale energy and forces
   NPACO  =    256;   APACO  = 16.0  distance and # of slots for P.C.
   PSTRESS=    0.0 pullay stress

  Mass of Ions in am
   POMASS =  12.01  1.00 16.00 55.85
  Ionic Valenz
   ZVAL   =   4.00  1.00  6.00 16.00
  Atomic Wigner-Seitz radii
   RWIGS  =  -1.00 -1.00 -1.00 -1.00
  virtual crystal weights 
   VCA    =   1.00  1.00  1.00  1.00
   NELECT =     322.0000    total number of electrons
   NUPDOWN=      -1.0000    fix difference up-down

 DOS related values:
   EMIN   =  10.00;   EMAX   =-10.00  energy-range for DOS
   EFERMI =   0.00
   ISMEAR =     0;   SIGMA  =   0.10  broadening in eV -4-tet -1-fermi 0-gaus

 Electronic relaxation 2 (details)
   IALGO  =      4    algorithm
   LDIAG  =      T    sub-space diagonalisation (order eigenvalues)
   LSUBROT=      F    optimize rotation matrix (better conditioning)
   TURBO    =      0    0=normal 1=particle mesh
   IRESTART =      0    0=no restart 2=restart with 2 vectors
   NREBOOT  =      0    no. of reboots
   NMIN     =      0    reboot dimension
   EREF     =   0.00    reference energy to select bands
   IMIX   =      1    mixing-type and parameters
     AMIX     =   0.40;   BMIX     =  1.00
     AMIX_MAG =   1.60;   BMIX_MAG =  1.00
     AMIN     =   0.10
     WC   =   100.;   INIMIX=   1;  MIXPRE=   1;  MAXMIX= -45

 Intra band minimization:
   WEIMIN = 0.0000     energy-eigenvalue tresh-hold
   EBREAK =  0.71E-07  absolut break condition
   DEPER  =   0.30     relativ break condition  

   TIME   =   0.05     timestep for ELM

  volume/ion in A,a.u.               =      24.61       166.11
  Fermi-wavevector in a.u.,A,eV,Ry     =   1.002319  1.894109 13.669007  1.004644
  Thomas-Fermi vector in A             =   2.134799
 
 Write flags
   LWAVE        =      T    write WAVECAR
   LDOWNSAMPLE  =      F    k-point downsampling of WAVECAR
   LCHARG       =      T    write CHGCAR
   LVTOT        =      F    write LOCPOT, total local potential
   LVHAR        =      F    write LOCPOT, Hartree potential only
   LELF         =      F    write electronic localiz. function (ELF)
   LORBIT       =     11    0 simple, 1 ext, 2 COOP (PROOUT), +10 PAW based schemes


 Dipole corrections
   LMONO  =      F    monopole corrections only (constant potential shift)
   LDIPOL =      F    correct potential (dipole corrections)
   IDIPOL =      0    1-x, 2-y, 3-z, 4-all directions 
   EPSILON=  1.0000000 bulk dielectric constant

 Exchange correlation treatment:
   GGA     =    --    GGA type
   LEXCH   =     8    internal setting for exchange type
   VOSKOWN=      0    Vosko Wilk Nusair interpolation
   EXXOEP  =     0    0=HF, 1=EXX-LHF (local Hartree Fock) 2=EXX OEP
   LHFCALC =     T    Hartree Fock is set to
   LSYMGRAD=     F    symmetrize gradient (conserves proper symmetry)
   PRECFOCK=normal    Normal, Fast or Accurate (Low or Medium for compatibility)
   LRHFCALC=     F    long range Hartree Fock
   LRSCOR  =     F    long range correlation only (use DFT for short range part)
   LTHOMAS =     F    Thomas Fermi screening in HF
   LMODELHF=     F    short range full HF, long range fraction AEXX
   LFOCKACE=     T    use Adeptively-Compressed-Exchange operator
   ENCUT4O =  -1.0   cutoff for four orbital integrals eV
   LMAXFOCK=     4    L truncation for augmentation on plane wave grid
   LMAXFOCKAE=  -1    L truncation for all-electron charge restoration on plane wave grid
   NMAXFOCKAE=   1    number of basis functions for all-electron charge restoration
   LFOCKAEDFT=     F  apply the AE augmentation even for DFT
   NKREDX  =     1    reduce k-point grid by
   NKREDY  =     1    reduce k-point grid by
   NKREDZ  =     1    reduce k-point grid by
   SHIFTRED=     F    shift reduced grid of Gamma
   HFKIDENT=     F    idential grid for each k-point
   ODDONLY =     F    use only odd q-grid points
   EVENONLY=     F    use only even q-grid points
   HFALPHA =   -1.0000 decay constant for conv. correction
   MCALPHA =    0.0000 extent of test-charge in conv. correction in multipole expansion
   AEXX    =    1.0000 exact exchange contribution
   HFSCREEN=    0.0000 screening length (either q_TF or 0.3 A-1)
   HFSCREENC=   0.0000 screening length for correlation (either q_TF or 0.3 A-1)
   HFRCUT  =    0.0000 spherical cutoff for potential kernel
   ALDAX   =    0.0000 LDA exchange part
   AGGAX   =    0.0000 GGA exchange part
   ALDAC   =    0.0000 LDA correlation
   AGGAC   =    0.0000 GGA correlation
   ENCUTFOCK=  -1.0 apply spherical cutoff to Coloumb kernel
   NBANDSGWLOW=     1    first orbital included in HF term
   NBLOCK_FOCK=    64    blocking factor in FOCK_ACC
 Linear response parameters
   LEPSILON=     F    determine dielectric tensor
   LRPA    =     F    only Hartree local field effects (RPA)
   LNABLA  =     F    use nabla operator in PAW spheres
   LVEL    =     F    velocity operator in full k-point grid
   CSHIFT  =0.1000    complex shift for real part using Kramers Kronig
   OMEGAMAX=  -1.0    maximum frequency
   DEG_THRESHOLD= 0.2000000E-02 threshold for treating states as degnerate
   RTIME   =   -0.100 relaxation time in fs
  (WPLASMAI=    0.000 imaginary part of plasma frequency in eV, 0.658/RTIME)
   DFIELD  = 0.0000000 0.0000000 0.0000000 field for delta impulse in time
 
  Optional k-point grid parameters
   LKPOINTS_OPT  =     F    use optional k-point grid
   KPOINTS_OPT_MODE=     1    mode for optional k-point grid
 
 Orbital magnetization related:
   ORBITALMAG=     F  switch on orbital magnetization
   LCHIMAG   =     F  perturbation theory with respect to B field
   DQ        =  0.001000  dq finite difference perturbation B field
   LLRAUG    =     F  two centre corrections for induced B field



--------------------------------------------------------------------------------------------------------


 Static calculation
 charge density and potential will be updated during run
 non-spin polarized calculation
 Subrot: only subspace diagonalization (rotation)
    band-by band algorithm
 perform sub-space diagonalisation
    before iterative eigenvector-optimisation
 Kerker-like  mixing scheme
 using additional bands          189
 reciprocal scheme for non local part
 use partial core corrections
 calculate Harris-corrections to forces 
   (improved forces if not selfconsistent)
 use gradient corrections 
 use of overlap-Matrix (Vanderbilt PP)
 Gauss-broadening in eV      SIGMA  =   0.10


--------------------------------------------------------------------------------------------------------


  energy-cutoff  :      420.00
  volume of cell :     1403.01
      direct lattice vectors                 reciprocal lattice vectors
    15.439217752  0.004465832 -0.038376892     0.065085042  0.034326685  0.130688713
    -7.186282924 13.630928377 -0.001416099     0.000303919  0.073536393  0.130825479
    -7.182834812-11.890639092  6.700359279     0.000372844  0.000212151  0.150021909

  length of vectors
    15.439266094 15.409246337 15.423204220     0.149979744  0.150076646  0.150022522


 
 old parameters found on file WAVECAR:
  energy-cutoff  :      420.00
  volume of cell :     1403.01
      direct lattice vectors                 reciprocal lattice vectors
    15.439217752  0.004465832 -0.038376892     0.065085042  0.034326685  0.130688713
    -7.186282924 13.630928377 -0.001416099     0.000303919  0.073536393  0.130825479
    -7.182834812-11.890639092  6.700359279     0.000372844  0.000212151  0.150021909

  length of vectors

 
 k-points in units of 2pi/SCALE and weight: KPOINTS                                 
   0.00000000  0.00000000  0.00000000       1.000
 
 k-points in reciprocal lattice and weights: KPOINTS                                 
   0.00000000  0.00000000  0.00000000       1.000
 
 position of ions in fractional coordinates (direct lattice) 
   0.29501950  0.94116017  0.21987596
   0.03214020  0.13159647  0.56724307
   0.08093940  0.61713662  0.16608128
   0.13131166  0.56613140  0.03207237
   0.16605247  0.08089017  0.61665695
   0.17893414  0.74713641  0.34935874
   0.19222338  0.20509913  0.67775325
   0.20481709  0.67720899  0.19217243
   0.25289544  0.65072899  0.82158385
   0.32230772  0.80759730  0.79501636
   0.34931946  0.17889111  0.74655676
   0.38292206  0.83394732  0.91929290
   0.43330622  0.96770438  0.86831417
   0.56669375  0.03229564  0.13168583
   0.61707794  0.16605269  0.08070712
   0.65068057  0.82110888  0.25344327
   0.67769228  0.19240270  0.20498365
   0.74710459  0.34927101  0.17841618
   0.79518291  0.32279104  0.80782758
   0.80777660  0.79490087  0.32224675
   0.82106584  0.25286359  0.65064123
   0.83394752  0.91910981  0.38334302
   0.86868834  0.43386860  0.96792762
   0.91906058  0.38286338  0.83391870
   0.96785982  0.86840353  0.43275693
   0.18247943  0.65556576  0.63394506
   0.34410321  0.36627052  0.81766296
   0.36579143  0.81673594  0.34408965
   0.63420857  0.18326405  0.65591038
   0.65589679  0.63372948  0.18233703
   0.81752057  0.34443421  0.36605494
   0.30963441  0.00627535  0.31689987
   0.27784513  0.87468441  0.11978224
   0.06742193  0.69601104  0.32822922
   0.07318517  0.26430120  0.63986735
   0.09766887  0.47875851  0.63349814
   0.26414833  0.63787280  0.07365918
   0.30271532  0.67149634  0.93284699
   0.32849056  0.06748410  0.69647902
   0.36135303  0.92637320  0.73554137
   0.36730219  0.90336947  0.52141375
   0.47894577  0.63302380  0.09816102
   0.52105423  0.36697617  0.90183896
   0.63269781  0.09663054  0.47858622
   0.63864697  0.07362678  0.26445863
   0.67150947  0.93251592  0.30352101
   0.69728471  0.32850363  0.06715302
   0.73585167  0.36212720  0.92634082
   0.90233115  0.52124152  0.36650188
   0.92681485  0.73569880  0.36013268
   0.93257809  0.30398899  0.67177081
   0.10717448  0.78330733  0.51533456
   0.51533716  0.10679532  0.78280146
   0.78337232  0.51577130  0.10635646
   0.21662770  0.48422870  0.89364353
   0.48466284  0.89320467  0.21719851
   0.89282551  0.21669267  0.48466541
 
 position of ions in cartesian coordinates  (Angst):
  -3.78790563 10.21573870  1.46059321
  -4.52388317 -4.95095705  3.79931260
  -4.37821175  6.43769394  1.10882413
  -2.27140164  7.33612202  0.20905537
  -2.44692449 -6.22909552  4.12533600
  -5.11591652  6.03086322  2.33290413
  -3.37431139 -5.26236927  4.53352292
  -3.08474249  6.94684887  1.27880509
  -6.67311603 -0.89798737  5.49428014
  -6.53791475  1.55648768  5.31338245
  -1.25473680 -6.43702504  4.98853936
  -6.68409337  0.43820617  6.14371640
  -6.50124571  2.86783369  5.80001762
   7.57134513 -1.12307831  0.86054867
   7.75419311  1.30654888  0.51685004
   2.32483717  8.18177960  1.67202713
   7.60801466  0.18826726  1.34718394
   7.74321629  2.64274213  1.16628635
   4.15484218 -5.20209353  5.38176130
   4.44441119  7.00712439  2.12704337
   6.18601652 -4.28610774  4.32766196
   3.51702459  7.97385078  2.53523010
   3.34150173 -5.59136678  6.45151085
   5.44831152 -4.69293864  5.55174206
   5.59398355  6.69571217  2.86125369
  -6.44726406  1.39877301  4.23972831
  -3.19257720 -4.72839114  5.46491130
  -2.69330113  7.04305679  2.29032977
   3.76340103 -5.29830223  4.37023672
   4.26267732  6.47314643  1.19565489
   7.51736429  0.34598169  2.42083798
   2.45917722 -3.68122035  2.11145126
  -2.85639420 10.49971397  0.79068259
  -6.31840665  5.58472248  2.19568066
  -5.36548293 -4.00543421  4.28415826
  -6.48287571 -1.00633871  4.24023897
  -1.03477259  7.82012327  0.48250251
  -6.85236078 -1.93767650  6.23784180
  -0.41601639 -7.36024271  4.65395766
  -6.36144396  3.88288350  4.91321202
  -4.56623892  6.11546212  3.47828427
   2.14038562  7.46364369  0.63843721
  -1.07028522 -5.71888870  6.02212893
   5.63633910 -4.37070655  3.18228181
   7.43154408 -2.13812859  1.74735427
   1.48611650  9.10499778  2.00660882
   7.92246143  3.68243113  0.42272453
   2.10487260 -6.07536816  6.17806378
   7.55297553  2.75109390  2.42032751
   6.43558307  5.75018897  2.37640822
   7.38850658 -3.83996731  4.46488582
  -7.67594086  4.55002746  3.44770442
   1.56620766 -7.84998885  5.22512277
   7.62423645  5.76929366  0.68183275
  -6.55413615 -4.02453846  5.97873350
  -0.49610738  9.59474423  1.43544332
   8.74604099 -2.80527198  3.21286166
 


--------------------------------------------------------------------------------------------------------


 use serial FFT for orbitals x direction half grid
 k-point   1 :   0.0000 0.0000 0.0000  plane waves:   13714

 maximum and minimum number of plane-waves per node :     13714    13714

 maximum number of plane-waves:     13714
 maximum index in each direction: 
   IXMAX=   25   IYMAX=   22   IZMAX=   22
   IXMIN=    0   IYMIN=  -25   IZMIN=  -25


 serial   3D FFT for wavefunctions
 parallel 3D FFT for charge:
    minimum data exchange during FFTs selected (reduces bandwidth)


 FFT grid for exact exchange (Hartree Fock) 
  NGX = 80; NGY = 80; NGZ = 80

 use serial FFT for orbitals x direction half grid
 
 Radii for the augmentation spheres in the non-local exchange
 for species   1 augmentation radius   0.874 (default was   0.699)
       energy cutoff for augmentation   1680.0
 for species   2 augmentation radius   0.735 (default was   0.588)
       energy cutoff for augmentation   1680.0
 for species   3 augmentation radius   0.902 (default was   0.722)
       energy cutoff for augmentation   1680.0
 for species   4 augmentation radius   1.117 (default was   0.893)
       energy cutoff for augmentation   1680.0
 Maximum index for augmentation-charges in exchange         2121
  SETUP_FOCK is finished

 total amount of memory used by VASP MPI-rank0   163967. kBytes
=======================================================================

   base      :      30000. kBytes
   nonl-proj :      30513. kBytes
   fftplans  :      15900. kBytes
   grid      :      74259. kBytes
   one-center:       2299. kBytes
   HF        :       1344. kBytes
   nonlr-proj:       7401. kBytes
   wavefun   :       2251. kBytes
 
     INWAV:  cpu time      0.2965: real time      0.3359
 charge density for first step will be calculated from the start-wavefunctions


--------------------------------------------------------------------------------------------------------


 Maximum index for augmentation-charges          905 (set IRDMAX)


--------------------------------------------------------------------------------------------------------


 initial charge from wavefunction
    FEWALD:  cpu time      0.0019: real time      0.0019


--------------------------------------- Iteration      1(   1)  ---------------------------------------


    POTLOK:  cpu time      0.2581: real time      0.2985
    SETDIJ:  cpu time      0.4344: real time      0.4354
    EDDIAG:  cpu time     98.9975: real time     99.3893
       DOS:  cpu time      0.0012: real time      0.0012
    --------------------------------------------
      LOOP:  cpu time     99.6912: real time    100.1245

 eigenvalue-minimisations  :     0
 total energy-change (2. order) :-0.9077352E+03  ( 0.0000000E+00)
 number of electron     321.9999974 magnetization 
 augmentation part       50.9123299 magnetization 

 Free energy of the ion-electron system (eV)
  ---------------------------------------------------
  alpha Z        PSCENC =       379.72439301
  Ewald energy   TEWEN  =     18509.04670523
  -Hartree energ DENC   =    -47242.98312443
  -exchange      EXHF   =      4567.28354152
  -V(xc)+E(xc)   XCENC  =         0.00000000
  PAW double counting   =     32033.94060285   -32278.68469462
  entropy T*S    EENTRO =        -0.00000000
  eigenvalues    EBANDS =     -8561.68974887
  atomic energy  EATOM  =     31685.62717035
  Solvation  Ediel_sol  =         0.00000000
  ---------------------------------------------------
  free energy    TOTEN  =      -907.73515496 eV

  energy without entropy =     -907.73515496  energy(sigma->0) =     -907.73515496
  exchange ACFDT corr.  =      -831.35932887  see jH, gK, PRB 81, 115126


--------------------------------------------------------------------------------------------------------




 average (electrostatic) potential at core
  the test charge radii are     0.6991  0.5883  0.7215  0.8933
  (the norm of the test charge is              1.0000)
       1 -45.3610       2 -40.4847       3 -39.3256       4 -40.5740       5 -39.2264
       6 -43.0846       7 -38.6955       8 -38.7679       9 -42.9486      10 -38.6451
      11 -43.0341      12 -39.1609      13 -40.4463      14 -40.4226      15 -39.1803
      16 -43.0161      17 -38.6432      18 -43.0126      19 -38.8157      20 -38.6955
      21 -43.1184      22 -39.2227      23 -40.5744      24 -39.3099      25 -40.4888
      26 -18.6401      27 -18.6851      28 -18.8022      29 -18.7989      30 -18.6878
      31 -18.6382      32 -53.0216      33 -53.0834      34 -50.5521      35 -49.4468
      36 -50.1399      37 -49.4396      38 -50.4027      39 -50.5161      40 -49.4389
      41 -50.2646      42 -50.2052      43 -50.2201      44 -50.3201      45 -49.3499
      46 -50.4845      47 -50.5069      48 -49.5043      49 -50.1960      50 -49.4622
      51 -50.5600      52 -57.0575      53 -57.0838      54 -57.0714      55 -57.0400
      56 -56.9066      57 -57.0191
 
 
 
 E-fermi :  -6.9811     XC(G=0):   0.0000     alpha+bet : -3.7365

 Fermi energy:        -6.9810816138

 k-point     1 :       0.0000    0.0000    0.0000
  band No.  band energies     occupation 
      1     -96.0556      2.00000
      2     -93.2380      2.00000
      3     -93.1873      2.00000
      4     -92.9004      2.00000
      5     -92.4457      2.00000
      6     -87.3122      2.00000
      7     -86.8795      2.00000
      8     -84.9013      2.00000
      9     -84.2610      2.00000
     10     -81.7176      2.00000
     11     -74.3248      2.00000
     12     -73.5780      2.00000
     13     -73.3757      2.00000
     14     -72.5210      2.00000
     15     -71.7891      2.00000
     16     -71.3788      2.00000
     17     -71.3507      2.00000
     18     -71.0811      2.00000
     19     -70.9753      2.00000
     20     -70.7477      2.00000
     21     -31.3759      2.00000
     22     -31.3670      2.00000
     23     -31.3533      2.00000
     24     -31.3158      2.00000
     25     -31.2590      2.00000
     26     -31.1858      2.00000
     27     -31.1780      2.00000
     28     -31.1071      2.00000
     29     -31.0974      2.00000
     30     -31.0688      2.00000
     31     -27.7716      2.00000
     32     -27.7342      2.00000
     33     -27.7225      2.00000
     34     -27.7221      2.00000
     35     -19.9524      2.00000
     36     -19.9496      2.00000
     37     -19.8455      2.00000
     38     -19.8438      2.00000
     39     -19.7969      2.00000
     40     -19.7815      2.00000
     41     -19.6740      2.00000
     42     -19.6710      2.00000
     43     -19.6585      2.00000
     44     -19.6486      2.00000
     45     -19.6454      2.00000
     46     -19.6414      2.00000
     47     -19.5662      2.00000
     48     -19.5645      2.00000
     49     -19.5633      2.00000
     50     -19.5570      2.00000
     51     -19.5514      2.00000
     52     -19.5473      2.00000
     53     -19.5470      2.00000
     54     -19.5173      2.00000
     55     -19.5055      2.00000
     56     -19.5045      2.00000
     57     -19.4995      2.00000
     58     -19.4737      2.00000
     59     -17.4586      2.00000
     60     -17.4562      2.00000
     61     -17.4525      2.00000
     62     -17.4164      2.00000
     63     -17.3369      2.00000
     64     -17.0654      2.00000
     65     -17.0377      2.00000
     66     -17.0281      2.00000
     67     -16.9871      2.00000
     68     -16.9516      2.00000
     69     -16.8460      2.00000
     70     -16.8421      2.00000
     71     -16.8060      2.00000
     72     -16.6663      2.00000
     73     -15.8788      2.00000
     74     -15.8728      2.00000
     75     -15.6967      2.00000
     76     -15.6279      2.00000
     77     -15.5774      2.00000
     78     -15.5322      2.00000
     79     -15.5290      2.00000
     80     -15.4109      2.00000
     81     -15.4086      2.00000
     82     -15.3626      2.00000
     83     -15.3605      2.00000
     84     -14.9375      2.00000
     85     -14.6742      2.00000
     86     -14.5511      2.00000
     87     -14.4841      2.00000
     88     -13.4109      2.00000
     89     -13.3043      2.00000
     90     -13.2780      2.00000
     91     -13.2772      2.00000
     92     -13.2553      2.00000
     93     -12.2719      2.00000
     94     -12.2415      2.00000
     95     -12.2406      2.00000
     96     -12.2211      2.00000
     97     -12.2131      2.00000
     98     -12.1934      2.00000
     99     -12.1931      2.00000
    100     -12.1692      2.00000
    101     -12.1443      2.00000
    102     -12.1330      2.00000
    103     -12.0771      2.00000
    104     -12.0682      2.00000
    105     -12.0471      2.00000
    106     -12.0091      2.00000
    107     -11.9855      2.00000
    108     -11.9852      2.00000
    109     -11.9846      2.00000
    110     -11.9588      2.00000
    111     -11.9516      2.00000
    112     -11.9397      2.00000
    113     -11.6869      2.00000
    114     -11.6411      2.00000
    115     -11.6176      2.00000
    116     -11.6051      2.00000
    117     -11.5649      2.00000
    118     -10.9680      2.00000
    119     -10.9614      2.00000
    120     -10.8909      2.00000
    121     -10.6980      2.00000
    122      -8.8425      2.00000
    123      -8.6527      2.00000
    124      -8.5867      2.00000
    125      -8.5782      2.00000
    126      -8.5707      2.00000
    127      -8.5412      2.00000
    128      -7.8369      2.00000
    129      -7.6850      2.00000
    130      -7.6239      2.00000
    131    -111.2593      2.00000
    132     -70.9524      2.00000
    133     -70.9259      2.00000
    134     -70.9163      2.00000
    135     -38.8283      2.00000
    136     -37.4039      2.00000
    137     -34.3270      2.00000
    138     -34.2579      2.00000
    139     -32.5263      2.00000
    140     -32.4097      2.00000
    141     -19.1398      2.00000
    142     -17.4331      2.00000
    143     -17.2880      2.00000
    144     -16.9461      2.00000
    145     -16.5818      2.00000
    146     -16.1819      2.00000
    147     -15.5352      2.00000
    148     -15.4187      2.00000
    149     -12.9383      2.00000
    150     -12.5392      2.00000
    151     -12.3564      2.00000
    152     -12.2730      2.00000
    153     -12.0398      2.00000
    154     -11.9103      2.00000
    155     -11.7170      2.00000
    156     -11.2682      2.00000
    157     -10.9884      2.00000
    158     -10.8358      2.00000
    159     -10.7525      2.00000
    160      -9.9772      2.00000
    161      -9.7716      2.00000
    162       8.7999      0.00000
    163       9.0865      0.00000
    164       9.6697      0.00000
    165      10.3460      0.00000
    166      11.3621      0.00000
    167      11.7275      0.00000
    168      12.7986      0.00000
    169      13.7791      0.00000
    170      15.7098      0.00000
    171      16.2764      0.00000
    172      16.5369      0.00000
    173      17.1094      0.00000
    174      17.8923      0.00000
    175      18.7678      0.00000
    176      19.4334      0.00000
    177      20.1349      0.00000
    178      20.2939      0.00000
    179      20.6433      0.00000
    180      20.8757      0.00000
    181      21.1775      0.00000
    182      21.5291      0.00000
    183      21.7468      0.00000
    184      22.1824      0.00000
    185      22.6666      0.00000
    186      22.9821      0.00000
    187      23.0559      0.00000
    188      23.4679      0.00000
    189      24.1619      0.00000
    190      24.4838      0.00000
    191      24.9847      0.00000
    192      25.1356      0.00000
    193      25.3954      0.00000
    194      25.7846      0.00000
    195      26.2736      0.00000
    196      27.2027      0.00000
    197      27.8443      0.00000
    198      28.0029      0.00000
    199      28.2502      0.00000
    200      28.8683      0.00000
    201      29.3300      0.00000
    202      29.8128      0.00000
    203      29.8342      0.00000
    204      30.9622      0.00000
    205      31.4709      0.00000
    206      32.2905      0.00000
    207      33.0458      0.00000
    208      33.9396      0.00000
    209      34.7072      0.00000
    210      35.0753      0.00000
    211      35.5485      0.00000
    212      36.2778      0.00000
    213      38.4181      0.00000
    214      38.5270      0.00000
    215      39.2675      0.00000
    216      39.9034      0.00000
    217      41.2976      0.00000
    218      42.0620      0.00000
    219      43.1122      0.00000
    220      44.3601      0.00000
    221      44.4600      0.00000
    222      45.6087      0.00000
    223      47.7473      0.00000
    224      48.2660      0.00000
    225      49.0120      0.00000
    226      50.1470      0.00000
    227      51.5454      0.00000
    228      52.6564      0.00000
    229      53.8149      0.00000
    230      54.5560      0.00000
    231      56.0777      0.00000
    232      57.0955      0.00000
    233      60.4590      0.00000
    234      60.6752      0.00000
    235      65.2799      0.00000
    236      67.2800      0.00000
    237      70.7456      0.00000
    238      71.8061      0.00000
    239      73.0930      0.00000
    240      74.8234      0.00000
    241      75.5935      0.00000
    242      77.3511      0.00000
    243      78.0742      0.00000
    244      79.2133      0.00000
    245      79.4587      0.00000
    246      80.4760      0.00000
    247      81.0856      0.00000
    248      81.4132      0.00000
    249      82.5386      0.00000
    250      82.9204      0.00000
    251      83.5016      0.00000
    252      83.8175      0.00000
    253      84.1227      0.00000
    254      85.1506      0.00000
    255      85.5935      0.00000
    256      86.6062      0.00000
    257      87.1226      0.00000
    258      88.0369      0.00000
    259      88.4072      0.00000
    260      88.9603      0.00000
    261      89.3727      0.00000
    262      89.8283      0.00000
    263      90.4931      0.00000
    264      90.8743      0.00000
    265      91.2916      0.00000
    266      91.8221      0.00000
    267      92.6075      0.00000
    268      92.6683      0.00000
    269      93.8035      0.00000
    270      94.3150      0.00000
    271      94.5783      0.00000
    272      94.9071      0.00000
    273      95.3053      0.00000
    274      95.5612      0.00000
    275      96.0184      0.00000
    276      96.3463      0.00000
    277      97.2546      0.00000
    278      97.3732      0.00000
    279      97.8351      0.00000
    280      98.3478      0.00000
    281      99.1307      0.00000
    282      99.8281      0.00000
    283     100.4727      0.00000
    284     100.7130      0.00000
    285     101.0642      0.00000
    286     101.2567      0.00000
    287     101.5737      0.00000
    288     101.9193      0.00000
    289     102.0858      0.00000
    290     102.8033      0.00000
    291     103.0816      0.00000
    292     103.7303      0.00000
    293     104.3744      0.00000
    294     104.8442      0.00000
    295     105.0157      0.00000
    296     105.7604      0.00000
    297     106.0604      0.00000
    298     106.5779      0.00000
    299     106.8201      0.00000
    300     107.3256      0.00000
    301     107.4762      0.00000
    302     108.4296      0.00000
    303     109.3163      0.00000
    304     109.4709      0.00000
    305     110.6196      0.00000
    306     111.8467      0.00000
    307     112.4032      0.00000
    308     112.5213      0.00000
    309     113.0961      0.00000
    310     114.1711      0.00000
    311     114.4936      0.00000
    312     115.2123      0.00000
    313     116.0521      0.00000
    314     116.5458      0.00000
    315     117.3296      0.00000
    316     117.4917      0.00000
    317     118.5982      0.00000
    318     119.3837      0.00000
    319     120.2612      0.00000
    320     121.0066      0.00000
    321     121.4522      0.00000
    322     122.3089      0.00000
    323     122.6053      0.00000
    324     123.2269      0.00000
    325     123.4438      0.00000
    326     124.1067      0.00000
    327     124.8971      0.00000
    328     125.8058      0.00000
    329     126.2360      0.00000
    330     127.2466      0.00000
    331     128.2578      0.00000
    332     129.1605      0.00000
    333     130.2300      0.00000
    334     130.5891      0.00000
    335     133.1994      0.00000
    336     136.9138      0.00000
    337     139.5219      0.00000
    338     142.8756      0.00000
    339     144.1517      0.00000
    340     145.7749      0.00000
    341     150.7183      0.00000
    342     152.1090      0.00000
    343     153.2263      0.00000
    344     155.7980      0.00000
    345     157.0974      0.00000
    346     158.7247      0.00000
    347     159.6253      0.00000
    348     162.1904      0.00000
    349     164.2459      0.00000
    350     167.9328      0.00000


--------------------------------------------------------------------------------------------------------


 soft charge-density along one line, spin component           1
         0         1         2         3         4         5         6         7         8         9
 total charge-density along one line
 
 pseudopotential strength for first ion, spin component:           1
  9.401 -14.475   0.000  -0.001   0.001   0.002  -0.004   0.005
-14.475  25.174  -0.000   0.001  -0.001  -0.003   0.007  -0.009
  0.000  -0.000  -3.729  -0.003   0.005  -0.072   0.011  -0.019
 -0.001   0.001  -0.003  -3.722  -0.011   0.011  -0.096   0.043
  0.001  -0.001   0.005  -0.011  -3.714  -0.019   0.043  -0.129
  0.002  -0.003  -0.072   0.011  -0.019  50.291  -0.036   0.056
 -0.004   0.007   0.011  -0.096   0.043  -0.036  50.366  -0.133
  0.005  -0.009  -0.019   0.043  -0.129   0.056  -0.133  50.465
 total augmentation occupancy for first ion, spin component:           1
  1.762   0.062  -0.001   0.007  -0.015   0.000   0.000  -0.002
  0.062   0.003   0.000  -0.000  -0.001   0.000  -0.000  -0.000
 -0.001   0.000   0.880  -0.131   0.195   0.048  -0.012   0.018
  0.007  -0.000  -0.131   1.147  -0.467  -0.012   0.072  -0.042
 -0.015  -0.001   0.195  -0.467   1.488   0.017  -0.042   0.102
  0.000   0.000   0.048  -0.012   0.017   0.003  -0.001   0.002
  0.000  -0.000  -0.012   0.072  -0.042  -0.001   0.005  -0.004
 -0.002  -0.000   0.018  -0.042   0.102   0.002  -0.004   0.009


------------------------ aborting loop because EDIFF is reached ----------------------------------------





 total charge

# of ion       s       p       d       f       tot
--------------------------------------------------
    1        0.905   1.610   0.000   0.000   2.515
    2        0.824   1.624   0.000   0.000   2.448
    3        0.834   1.724   0.000   0.000   2.558
    4        0.824   1.623   0.000   0.000   2.447
    5        0.833   1.725   0.000   0.000   2.558
    6        0.839   1.546   0.000   0.000   2.385
    7        0.846   1.715   0.000   0.000   2.561
    8        0.846   1.719   0.000   0.000   2.565
    9        0.839   1.545   0.000   0.000   2.384
   10        0.846   1.715   0.000   0.000   2.561
   11        0.839   1.545   0.000   0.000   2.384
   12        0.833   1.725   0.000   0.000   2.558
   13        0.824   1.624   0.000   0.000   2.448
   14        0.824   1.623   0.000   0.000   2.447
   15        0.833   1.725   0.000   0.000   2.559
   16        0.839   1.546   0.000   0.000   2.385
   17        0.846   1.715   0.000   0.000   2.561
   18        0.839   1.545   0.000   0.000   2.385
   19        0.847   1.714   0.000   0.000   2.561
   20        0.846   1.715   0.000   0.000   2.561
   21        0.839   1.546   0.000   0.000   2.385
   22        0.833   1.725   0.000   0.000   2.558
   23        0.824   1.624   0.000   0.000   2.448
   24        0.833   1.726   0.000   0.000   2.559
   25        0.824   1.624   0.000   0.000   2.448
   26        0.664   0.048   0.000   0.000   0.712
   27        0.664   0.048   0.000   0.000   0.712
   28        0.664   0.048   0.000   0.000   0.712
   29        0.664   0.048   0.000   0.000   0.712
   30        0.664   0.048   0.000   0.000   0.712
   31        0.664   0.048   0.000   0.000   0.712
   32        1.591   3.559   0.000   0.000   5.150
   33        1.582   3.584   0.000   0.000   5.166
   34        1.542   3.669   0.000   0.000   5.211
   35        1.525   3.647   0.000   0.000   5.172
   36        1.554   3.621   0.000   0.000   5.175
   37        1.525   3.646   0.000   0.000   5.172
   38        1.541   3.670   0.000   0.000   5.211
   39        1.541   3.670   0.000   0.000   5.211
   40        1.525   3.647   0.000   0.000   5.172
   41        1.554   3.620   0.000   0.000   5.174
   42        1.554   3.620   0.000   0.000   5.174
   43        1.554   3.620   0.000   0.000   5.174
   44        1.554   3.626   0.000   0.000   5.180
   45        1.525   3.647   0.000   0.000   5.172
   46        1.542   3.669   0.000   0.000   5.211
   47        1.541   3.670   0.000   0.000   5.212
   48        1.525   3.646   0.000   0.000   5.171
   49        1.554   3.620   0.000   0.000   5.174
   50        1.525   3.648   0.000   0.000   5.173
   51        1.542   3.668   0.000   0.000   5.210
   52        2.071   6.276   5.722   0.014  14.082
   53        2.071   6.275   5.722   0.014  14.082
   54        2.071   6.276   5.722   0.014  14.083
   55        2.071   6.276   5.722   0.014  14.083
   56        2.070   6.276   5.721   0.014  14.081
   57        2.071   6.276   5.722   0.014  14.082
--------------------------------------------------
tot         68.269 151.973  34.332   0.085 254.660
 
    CHARGE:  cpu time      0.2110: real time      0.2120
    FORLOC:  cpu time      0.0741: real time      0.0743
    FORHF :  cpu time     19.4250: real time     19.4801
    FORNL :  cpu time      0.6495: real time      0.6514
    FORCOR:  cpu time      0.6243: real time      0.6262
    FORHAR:  cpu time      0.1229: real time      0.1235
    MIXING:  cpu time      0.0024: real time      0.0024
    OFIELD:  cpu time      0.0000: real time      0.0000

 VOLUME and BASIS-vectors are now :
 -----------------------------------------------------------------------------
  energy-cutoff  :      420.00
  volume of cell :     1403.01
      direct lattice vectors                 reciprocal lattice vectors
    15.439217752  0.004465832 -0.038376892     0.065085042  0.034326685  0.130688713
    -7.186282924 13.630928377 -0.001416099     0.000303919  0.073536393  0.130825479
    -7.182834812-11.890639092  6.700359279     0.000372844  0.000212151  0.150021909

  length of vectors
    15.439266094 15.409246337 15.423204220     0.149979744  0.150076646  0.150022522


 FORCES acting on ions
    electron-ion (+dipol)            ewald-force                    non-local-force                 convergence-correction
 -----------------------------------------------------------------------------------------------
   0.274E+03 -.251E+03 0.274E+02   -.274E+03 0.251E+03 -.270E+02   -.208E+00 0.157E+00 -.121E+00   -.812E-04 -.106E-04 0.482E-04
   -.193E+03 0.756E+02 0.239E+02   0.196E+03 -.789E+02 -.251E+02   -.366E+01 0.355E+01 0.127E+01   0.294E-06 0.302E-06 -.163E-05
   -.119E+03 0.121E+02 -.426E+01   0.120E+03 -.116E+02 0.199E+01   -.969E+00 -.232E+00 0.916E+00   -.370E-05 -.833E-06 0.232E-05
   0.118E+03 0.193E+03 -.365E+02   -.122E+03 -.194E+03 0.362E+02   0.406E+01 0.163E+01 0.222E+00   -.133E-04 -.246E-04 0.714E-05
   0.103E+03 -.851E+02 -.274E+02   -.105E+03 0.857E+02 0.257E+02   0.110E+01 -.556E+00 0.713E+00   0.669E-06 0.120E-05 -.609E-06
   -.249E+03 -.339E+02 0.988E+02   0.252E+03 0.354E+02 -.101E+03   -.390E+01 -.217E+01 0.511E+01   -.212E-05 0.197E-05 0.494E-06
   -.694E+02 -.762E+02 -.699E+02   0.697E+02 0.780E+02 0.716E+02   -.354E+00 -.173E+01 -.188E+01   0.796E-06 0.513E-06 -.629E-06
   -.549E+02 0.130E+03 -.113E+03   0.565E+02 -.130E+03 0.115E+03   -.140E+01 0.129E+00 -.215E+01   -.162E-05 -.677E-05 0.202E-05
   -.878E+02 -.293E+03 0.494E+02   0.880E+02 0.297E+03 -.487E+02   0.186E+00 -.579E+01 -.273E+01   0.823E-05 -.134E-04 0.764E-05
   -.837E+02 0.368E+02 0.106E+03   0.844E+02 -.367E+02 -.108E+03   -.669E+00 0.819E-01 0.247E+01   0.258E-05 0.670E-05 -.335E-06
   0.241E+03 -.164E+03 0.502E+02   -.245E+03 0.166E+03 -.518E+02   0.576E+01 -.143E+01 0.341E+01   0.526E-06 0.159E-05 -.799E-06
   -.470E+02 -.130E+03 0.759E+02   0.472E+02 0.133E+03 -.747E+02   -.175E+00 -.131E+01 -.371E+00   0.592E-05 0.144E-04 0.954E-05
   -.539E+02 0.184E+03 -.524E+02   0.534E+02 -.188E+03 0.551E+02   0.539E+00 0.441E+01 -.285E+01   0.121E-05 0.251E-05 0.898E-06
   0.755E+01 -.212E+03 0.627E+02   -.713E+01 0.216E+03 -.653E+02   -.433E+00 -.376E+01 0.237E+01   0.101E-04 -.999E-05 0.309E-04
   0.491E+01 0.103E+03 -.613E+02   -.516E+01 -.105E+03 0.601E+02   0.234E+00 0.141E+01 0.346E+00   0.119E-05 -.294E-06 0.162E-05
   -.241E+03 0.181E+03 -.564E+02   0.245E+03 -.183E+03 0.580E+02   -.573E+01 0.142E+01 -.341E+01   -.342E-05 0.218E-05 0.358E-06
   0.453E+02 -.675E+02 -.934E+02   -.461E+02 0.673E+02 0.958E+02   0.677E+00 0.224E-02 -.248E+01   0.388E-05 -.649E-05 0.396E-05
   0.481E+02 0.281E+03 -.349E+02   -.483E+02 -.285E+03 0.343E+02   -.662E-01 0.650E+01 0.228E+01   0.421E-06 0.534E-06 -.265E-06
   0.301E+02 -.110E+02 0.955E+02   -.315E+02 0.110E+02 -.975E+02   0.137E+01 0.208E-01 0.217E+01   -.660E-05 -.542E-05 0.287E-05
   0.789E+02 0.846E+02 0.661E+02   -.791E+02 -.864E+02 -.678E+02   0.362E+00 0.172E+01 0.189E+01   -.786E-07 0.110E-05 -.307E-06
   0.219E+03 0.106E+03 -.117E+03   -.222E+03 -.108E+03 0.120E+03   0.427E+01 0.220E+01 -.435E+01   0.660E-06 -.266E-05 -.280E-04
   -.956E+02 0.958E+02 0.228E+02   0.977E+02 -.965E+02 -.211E+02   -.108E+01 0.543E+00 -.710E+00   -.872E-06 0.101E-05 -.826E-06
   -.143E+03 -.850E+02 0.387E+02   0.147E+03 0.867E+02 -.383E+02   -.482E+01 -.187E+01 -.319E+00   -.437E-05 -.151E-05 0.199E-05
   0.988E+02 0.928E+02 0.183E+01   -.100E+03 -.934E+02 0.420E+00   0.899E+00 0.280E+00 -.975E+00   -.457E-05 -.106E-04 0.477E-05
   0.199E+03 -.657E+02 -.273E+02   -.203E+03 0.690E+02 0.285E+02   0.367E+01 -.355E+01 -.128E+01   0.393E-06 0.136E-05 -.424E-06
   -.396E+02 0.155E+02 0.583E+02   0.401E+02 -.163E+02 -.638E+02   -.468E+00 0.843E+00 0.567E+01   0.458E-06 0.102E-05 -.101E-05
   -.313E+02 -.475E+02 -.382E+02   0.323E+02 0.503E+02 0.431E+02   -.962E+00 -.281E+01 -.493E+01   0.225E-06 0.112E-06 -.407E-07
   -.340E+02 0.432E+02 -.619E+02   0.361E+02 -.428E+02 0.672E+02   -.206E+01 -.500E+00 -.535E+01   0.124E-06 -.116E-05 0.585E-06
   0.253E+02 -.131E+02 0.482E+02   -.274E+02 0.126E+02 -.534E+02   0.207E+01 0.523E+00 0.535E+01   -.235E-05 -.115E-05 0.810E-08
   0.335E+02 0.494E+02 0.374E+02   -.344E+02 -.522E+02 -.422E+02   0.963E+00 0.281E+01 0.493E+01   -.181E-07 0.284E-06 -.133E-07
   0.308E+02 -.226E+02 -.553E+02   -.313E+02 0.234E+02 0.609E+02   0.467E+00 -.838E+00 -.568E+01   0.888E-06 -.164E-05 -.116E-05
   0.476E+03 -.358E+03 -.776E+02   -.530E+03 0.342E+03 0.116E+03   0.291E+02 0.838E+01 -.203E+02   -.147E-03 -.143E-04 0.907E-04
   0.374E+03 -.442E+03 0.201E+03   -.325E+03 0.459E+03 -.239E+03   -.265E+02 -.918E+01 0.205E+02   0.399E-04 0.524E-04 -.509E-04
   -.257E+03 -.638E+02 0.527E+02   0.223E+03 0.503E+02 -.575E+02   0.242E+02 0.950E+01 0.232E+01   -.105E-05 0.312E-05 0.858E-07
   -.506E+03 0.402E+02 0.274E+02   0.492E+03 -.152E+02 -.144E+02   0.101E+02 -.155E+02 -.967E+01   0.235E-05 0.281E-06 -.735E-05
   -.280E+03 -.457E+03 0.223E+03   0.289E+03 0.464E+03 -.268E+03   -.509E+01 -.458E+01 0.294E+02   0.657E-05 -.857E-05 -.444E-04
   0.179E+03 0.450E+03 -.179E+03   -.150E+03 -.443E+03 0.191E+03   -.144E+02 -.384E+01 -.575E+01   0.101E-03 0.432E-04 -.386E-04
   -.993E+02 -.280E+03 0.113E+03   0.944E+02 0.250E+03 -.911E+02   0.277E+01 0.156E+02 -.120E+02   0.379E-04 -.639E-04 -.106E-04
   0.258E+03 -.166E+03 -.124E+02   -.234E+03 0.140E+03 0.202E+01   -.175E+02 0.181E+02 0.621E+01   0.234E-06 0.288E-05 -.115E-05
   -.222E+03 0.443E+03 -.348E+02   0.229E+03 -.423E+03 0.109E+02   -.318E+01 -.126E+02 0.163E+02   0.566E-06 0.245E-05 -.308E-06
   -.539E+03 0.391E+02 0.167E+02   0.568E+03 -.328E+02 0.191E+02   -.186E+02 -.436E+01 -.234E+02   -.334E-05 0.138E-05 -.477E-06
   -.301E+03 0.482E+03 -.214E+02   0.304E+03 -.514E+03 -.128E+02   -.176E+01 0.203E+02 0.224E+02   0.277E-06 0.224E-05 0.545E-05
   0.306E+03 -.456E+03 0.128E+02   -.309E+03 0.488E+03 0.214E+02   0.178E+01 -.203E+02 -.224E+02   0.624E-06 0.199E-05 -.967E-06
   0.448E+03 0.805E+02 -.947E+02   -.476E+03 -.867E+02 0.588E+02   0.147E+02 0.309E+01 0.199E+02   0.300E-05 -.556E-04 -.232E-04
   0.139E+03 -.462E+03 0.347E+02   -.147E+03 0.442E+03 -.109E+02   0.398E+01 0.101E+02 -.116E+02   0.464E-04 0.987E-05 -.649E-04
   -.281E+03 0.198E+03 0.215E+01   0.257E+03 -.172E+03 0.809E+01   0.176E+02 -.180E+02 -.605E+01   -.135E-04 0.192E-05 0.153E-05
   0.304E+02 0.295E+03 -.953E+02   -.259E+02 -.265E+03 0.737E+02   -.318E+01 -.215E+02 0.142E+02   -.487E-07 0.159E-05 -.325E-06
   -.229E+03 -.334E+03 0.172E+03   0.200E+03 0.327E+03 -.183E+03   0.183E+02 0.593E+01 0.808E+01   -.356E-05 0.111E-05 0.353E-07
   0.235E+03 0.437E+03 -.207E+03   -.243E+03 -.444E+03 0.252E+03   0.517E+01 0.466E+01 -.294E+02   0.617E-06 0.140E-05 -.161E-05
   0.501E+03 -.226E+02 -.300E+02   -.487E+03 -.243E+01 0.169E+02   -.103E+02 0.155E+02 0.940E+01   0.392E-06 0.249E-05 -.547E-06
   0.218E+03 0.130E+03 -.581E+02   -.184E+03 -.116E+03 0.630E+02   -.242E+02 -.955E+01 -.238E+01   0.138E-04 0.471E-05 -.273E-04
   0.679E+03 0.744E+03 -.334E+03   -.675E+03 -.740E+03 0.330E+03   0.226E+01 -.336E+02 0.883E+01   0.359E-06 0.694E-05 -.219E-05
   -.985E+03 0.294E+03 0.412E+02   0.978E+03 -.293E+03 -.421E+02   0.382E+02 0.236E+02 0.413E+01   -.300E-05 0.452E-05 -.169E-05
   0.397E+03 -.904E+03 0.148E+03   -.395E+03 0.897E+03 -.148E+03   -.306E+02 0.222E+02 0.611E+01   -.750E-06 0.675E-05 -.466E-06
   -.444E+03 0.103E+04 -.154E+03   0.443E+03 -.102E+04 0.154E+03   0.324E+02 -.109E+02 -.381E+01   0.111E-03 -.938E-05 -.317E-04
   0.663E+03 -.116E+03 -.990E+02   -.658E+03 0.116E+03 0.987E+02   -.188E+01 0.709E+01 -.135E+02   0.125E-03 -.369E-03 0.236E-03
   -.781E+03 -.723E+03 0.338E+03   0.777E+03 0.719E+03 -.335E+03   0.146E+02 0.276E+02 -.819E+01   -.723E-04 0.373E-04 -.786E-04
 -----------------------------------------------------------------------------------------------
   -.670E+01 0.272E+01 -.118E+01   0.000E+00 -.341E-12 0.114E-12   0.576E+02 0.294E+02 -.113E+01   0.158E-03 -.392E-03 0.361E-04
 
 
 POSITION                                       TOTAL-FORCE (eV/Angst)
 -----------------------------------------------------------------------------------
     -3.78791     10.21574      1.46059        -1.467346     -0.560227      0.279562
     -4.52388     -4.95096      3.79931        -1.850986      0.257643      0.145046
     -4.37821      6.43769      1.10882        -0.759635     -0.338573     -1.080653
     -2.27140      7.33612      0.20906        -0.399502     -0.364561     -0.133419
     -2.44692     -6.22910      4.12534        -1.689443     -0.582385     -0.802800
     -5.11592      6.03086      2.33290        -2.232192     -1.367331      2.655738
     -3.37431     -5.26237      4.53352        -1.101721     -0.636503     -0.293048
     -3.08474      6.94685      1.27881        -1.012311     -0.552113     -0.368889
     -6.67312     -0.89799      5.49428        -0.703799     -2.482478     -1.904831
     -6.53791      1.55649      5.31338        -1.006338     -0.372958      0.336554
     -1.25474     -6.43703      4.98854         1.373664     -0.634416      1.802886
     -6.68409      0.43821      6.14372        -1.017213      0.302098      0.747000
     -6.50125      2.86783      5.80002        -0.849240      0.486967     -0.449239
      7.57135     -1.12308      0.86055        -1.060928     -0.996237      0.035588
      7.75419      1.30655      0.51685        -0.926254     -1.260357     -0.750687
      2.32484      8.18178      1.67203        -3.360167     -0.320849     -1.793901
      7.60801      0.18827      1.34718        -0.960109     -0.616975     -0.324323
      7.74322      2.64274      1.16629        -1.196635      2.012513      1.542341
      4.15484     -5.20209      5.38176        -0.856640     -0.475578      0.314821
      4.44441      7.00712      2.12704        -0.853518     -0.364696      0.306541
      6.18602     -4.28611      4.32766         0.729882      0.423781     -1.652411
      3.51702      7.97385      2.53523        -0.262476     -0.413297      0.800160
      3.34150     -5.59137      6.45151        -2.129002     -0.949046      0.139924
      5.44831     -4.69294      5.55174        -1.276319     -0.708558      0.993708
      5.59398      6.69571      2.86125        -0.124633     -1.233010     -0.144213
     -6.44726      1.39877      4.23973        -1.002661     -0.355247      0.639919
     -3.19258     -4.72839      5.46491        -1.123696     -0.767377     -0.574279
     -2.69330      7.04306      2.29033        -1.145431     -0.586229     -0.615836
      3.76340     -5.29830      4.37024        -0.822266     -0.449813      0.655386
      4.26268      6.47315      1.19565        -0.839684     -0.230512      0.578322
      7.51736      0.34598      2.42084        -0.959215     -0.646484     -0.634179
      2.45918     -3.68122      2.11145         2.822090      0.669753     -2.639563
     -2.85639     10.49971      0.79068        -4.158729     -1.578119      2.435511
     -6.31841      5.58472      2.19568         6.841497      2.454217      0.282325
     -5.36548     -4.00543      4.28416         2.445041     -4.125659     -3.422935
     -6.48288     -1.00634      4.24024        -2.174934     -2.416940      8.278041
     -1.03477      7.82012      0.48250        -1.824164     -1.052842     -0.260849
     -6.85236     -1.93768      6.23784        -0.377753      0.873463     -1.747550
     -0.41602     -7.36024      4.65396        -6.813031      5.243803      1.453213
     -6.36144      3.88288      4.91321        -0.738297     -3.905575      4.851147
     -4.56624      6.11546      3.47828        -6.654272     -2.199588     -6.372740
      2.14039      7.46364      0.63844        -2.256293      5.328953      6.187148
     -1.07029     -5.71889      6.02213         0.305820     -6.317429     -6.211627
      5.63634     -4.37071      3.18228         1.135684     -0.085334      2.933583
      7.43154     -2.13813      1.74735        -0.489414      0.413315     -0.240081
      1.48612      9.10500      2.00661         4.943676     -6.226849     -1.319683
      7.92246      3.68243      0.42272        -2.069845     -7.664812      3.978192
      2.10487     -6.07537      6.17806         3.695025      2.181919      2.553937
      7.55298      2.75109      2.42033         0.281062      1.492027     -8.330425
      6.43558      5.75019      2.37641        -4.556183      3.160095      3.161948
      7.38851     -3.83997      4.46489        -8.817431     -3.482042     -0.325009
     -7.67594      4.55003      3.44770         6.131051    -40.537746      0.137739
      1.56621     -7.84999      5.22512        36.198496     28.092705     -6.855205
      7.62424      5.76929      0.68183       -39.665795     16.428439     -1.252007
     -6.55414     -4.02454      5.97873        39.550079     -6.239331      3.479340
     -0.49611      9.59474      1.43544        -1.655697      0.750879     -1.792306
      8.74604     -2.80527      3.21286         8.788135     33.525504      0.587067
 -----------------------------------------------------------------------------------
    total drift:                               55.948805     28.475534     -0.143632


--------------------------------------------------------------------------------------------------------



  FREE ENERGIE OF THE ION-ELECTRON SYSTEM (eV)
  ---------------------------------------------------
  free  energy   TOTEN  =      -907.73515496 eV

  energy  without entropy=     -907.73515496  energy(sigma->0) =     -907.73515496
 


--------------------------------------------------------------------------------------------------------


    POTLOK:  cpu time      0.6696: real time      0.6713


--------------------------------------------------------------------------------------------------------


 writing wavefunctions
     LOOP+:  cpu time    130.3130: real time    131.5846
    4ORBIT:  cpu time      0.0000: real time      0.0000



 total charge

# of ion       s       p       d       f       tot
--------------------------------------------------
    1        0.905   1.610   0.000   0.000   2.515
    2        0.824   1.624   0.000   0.000   2.448
    3        0.834   1.724   0.000   0.000   2.558
    4        0.824   1.623   0.000   0.000   2.447
    5        0.833   1.725   0.000   0.000   2.558
    6        0.839   1.546   0.000   0.000   2.385
    7        0.846   1.715   0.000   0.000   2.561
    8        0.846   1.719   0.000   0.000   2.565
    9        0.839   1.545   0.000   0.000   2.384
   10        0.846   1.715   0.000   0.000   2.561
   11        0.839   1.545   0.000   0.000   2.384
   12        0.833   1.725   0.000   0.000   2.558
   13        0.824   1.624   0.000   0.000   2.448
   14        0.824   1.623   0.000   0.000   2.447
   15        0.833   1.725   0.000   0.000   2.559
   16        0.839   1.546   0.000   0.000   2.385
   17        0.846   1.715   0.000   0.000   2.561
   18        0.839   1.545   0.000   0.000   2.385
   19        0.847   1.714   0.000   0.000   2.561
   20        0.846   1.715   0.000   0.000   2.561
   21        0.839   1.546   0.000   0.000   2.385
   22        0.833   1.725   0.000   0.000   2.558
   23        0.824   1.624   0.000   0.000   2.448
   24        0.833   1.726   0.000   0.000   2.559
   25        0.824   1.624   0.000   0.000   2.448
   26        0.664   0.048   0.000   0.000   0.712
   27        0.664   0.048   0.000   0.000   0.712
   28        0.664   0.048   0.000   0.000   0.712
   29        0.664   0.048   0.000   0.000   0.712
   30        0.664   0.048   0.000   0.000   0.712
   31        0.664   0.048   0.000   0.000   0.712
   32        1.591   3.559   0.000   0.000   5.150
   33        1.582   3.584   0.000   0.000   5.166
   34        1.542   3.669   0.000   0.000   5.211
   35        1.525   3.647   0.000   0.000   5.172
   36        1.554   3.621   0.000   0.000   5.175
   37        1.525   3.646   0.000   0.000   5.172
   38        1.541   3.670   0.000   0.000   5.211
   39        1.541   3.670   0.000   0.000   5.211
   40        1.525   3.647   0.000   0.000   5.172
   41        1.554   3.620   0.000   0.000   5.174
   42        1.554   3.620   0.000   0.000   5.174
   43        1.554   3.620   0.000   0.000   5.174
   44        1.554   3.626   0.000   0.000   5.180
   45        1.525   3.647   0.000   0.000   5.172
   46        1.542   3.669   0.000   0.000   5.211
   47        1.541   3.670   0.000   0.000   5.212
   48        1.525   3.646   0.000   0.000   5.171
   49        1.554   3.620   0.000   0.000   5.174
   50        1.525   3.648   0.000   0.000   5.173
   51        1.542   3.668   0.000   0.000   5.210
   52        2.071   6.276   5.722   0.014  14.082
   53        2.071   6.275   5.722   0.014  14.082
   54        2.071   6.276   5.722   0.014  14.083
   55        2.071   6.276   5.722   0.014  14.083
   56        2.070   6.276   5.721   0.014  14.081
   57        2.071   6.276   5.722   0.014  14.082
--------------------------------------------------
tot         68.269 151.973  34.332   0.085 254.660
 

 total amount of memory used by VASP MPI-rank0  1241358. kBytes
=======================================================================

   base      :      30000. kBytes
   nonl-proj :      30513. kBytes
   fftplans  :      15900. kBytes
   grid      :      74259. kBytes
   one-center:       2299. kBytes
   HF        :       1344. kBytes
   nonlr-proj:       7401. kBytes
   wavefun   :       2251. kBytes
   fock_wrk  :    1077391. kBytes
 
  
  
 General timing and accounting informations for this job:
 ========================================================
  
                  Total CPU time used (sec):      143.875
                            User time (sec):      130.953
                          System time (sec):       12.922
                         Elapsed time (sec):      146.052
  
                   Maximum memory used (kb):     4652532.
                   Average memory used (kb):          N/A
  
                          Minor page faults:       648282
                          Major page faults:            2
                 Voluntary context switches:         3673
