 vasp.6.2.1 16May21 (build Aug 03 2024 02:50:01) gamma-only                     
  
 executed on             LinuxIFC date 2024.10.13  02:34:38
 running on  200 total cores
 distrk:  each k-point on  200 cores,    1 groups
 distr:  one band on NCORE=   1 cores,  200 groups


--------------------------------------------------------------------------------------------------------


 INCAR:
   SYSTEM = MOFCO2
   ISMEAR = 0
   SIGMA = 0.1
   ENCUT = 420.
   PREC = Accurate
   ISYM = -1
   NELM = 1
   IBRION = -1
   NSW = 0
   ALGO = sub
   NBANDS = 27400
   NBANDSLOW = 131
   TIME = 0.05
   LHFCALC = .TRUE.
   AEXX = 1
   LASPH = .TRUE.
   PRECFOCK = Normal
   LWAVE = .TRUE.
   LCHARG = .TRUE.
   NWRITE = 1
   LORBIT = 11

 POTCAR:    PAW_PBE C_GW 28Sep2005                
 POTCAR:    PAW_PBE H_GW 21Apr2008                
 POTCAR:    PAW_PBE O_GW 28Sep2005                
 POTCAR:    PAW_PBE Fe_sv_GW 05Dec2013            
 -----------------------------------------------------------------------------
|                                                                             |
|           W    W    AA    RRRRR   N    N  II  N    N   GGGG   !!!           |
|           W    W   A  A   R    R  NN   N  II  NN   N  G    G  !!!           |
|           W    W  A    A  R    R  N N  N  II  N N  N  G       !!!           |
|           W WW W  AAAAAA  RRRRR   N  N N  II  N  N N  G  GGG   !            |
|           WW  WW  A    A  R   R   N   NN  II  N   NN  G    G                |
|           W    W  A    A  R    R  N    N  II  N    N   GGGG   !!!           |
|                                                                             |
|     For optimal performance we recommend to set                             |
|       NCORE = 2 up to number-of-cores-per-socket                            |
|     NCORE specifies how many cores store one orbital (NPAR=cpu/NCORE).      |
|     This setting can greatly improve the performance of VASP for DFT.       |
|     The default, NCORE=1 might be grossly inefficient on modern             |
|     multi-core architectures or massively parallel machines. Do your        |
|     own testing! More info at https://www.vasp.at/wiki/index.php/NCORE      |
|     Unfortunately you need to use the default for GW and RPA                |
|     calculations (for HF NCORE is supported but not extensively tested      |
|     yet).                                                                   |
|                                                                             |
 -----------------------------------------------------------------------------

 POTCAR:    PAW_PBE C_GW 28Sep2005                
  local pseudopotential read in
  kinetic energy density of atom read in
  atomic valenz-charges read in
  non local Contribution for L=           0  read in
    real space projection operators read in
  non local Contribution for L=           0  read in
    real space projection operators read in
  non local Contribution for L=           1  read in
    real space projection operators read in
  non local Contribution for L=           1  read in
    real space projection operators read in
    PAW grid and wavefunctions read in
 
   number of l-projection  operators is LMAX  =           4
   number of lm-projection operators is LMMAX =           8
 
 POTCAR:    PAW_PBE H_GW 21Apr2008                
  local pseudopotential read in
  kinetic energy density of atom read in
  atomic valenz-charges read in
  non local Contribution for L=           0  read in
    real space projection operators read in
  non local Contribution for L=           0  read in
    real space projection operators read in
  non local Contribution for L=           1  read in
    real space projection operators read in
  non local Contribution for L=           1  read in
    real space projection operators read in
  non local Contribution for L=           2  read in
    real space projection operators read in
    PAW grid and wavefunctions read in
 
   number of l-projection  operators is LMAX  =           5
   number of lm-projection operators is LMMAX =          13
 
 POTCAR:    PAW_PBE O_GW 28Sep2005                
  local pseudopotential read in
  kinetic energy density of atom read in
  atomic valenz-charges read in
  non local Contribution for L=           0  read in
    real space projection operators read in
  non local Contribution for L=           0  read in
    real space projection operators read in
  non local Contribution for L=           1  read in
    real space projection operators read in
  non local Contribution for L=           1  read in
    real space projection operators read in
    PAW grid and wavefunctions read in
 
   number of l-projection  operators is LMAX  =           4
   number of lm-projection operators is LMMAX =           8
 
 POTCAR:    PAW_PBE Fe_sv_GW 05Dec2013            
  local pseudopotential read in
  partial core-charges read in
  partial kinetic energy density read in
  kinetic energy density of atom read in
  atomic valenz-charges read in
  non local Contribution for L=           0  read in
    real space projection operators read in
  non local Contribution for L=           0  read in
    real space projection operators read in
  non local Contribution for L=           0  read in
    real space projection operators read in
  non local Contribution for L=           1  read in
    real space projection operators read in
  non local Contribution for L=           1  read in
    real space projection operators read in
  non local Contribution for L=           1  read in
    real space projection operators read in
  non local Contribution for L=           2  read in
    real space projection operators read in
  non local Contribution for L=           2  read in
    real space projection operators read in
  non local Contribution for L=           2  read in
    real space projection operators read in
  non local Contribution for L=           3  read in
    real space projection operators read in
  non local Contribution for L=           3  read in
    real space projection operators read in
    PAW grid and wavefunctions read in
 
   number of l-projection  operators is LMAX  =          11
   number of lm-projection operators is LMMAX =          41
 
 -----------------------------------------------------------------------------
|                                                                             |
|               ----> ADVICE to this user running VASP <----                  |
|                                                                             |
|     You have a (more or less) 'large supercell' and for larger cells it     |
|     might be more efficient to use real-space projection operators.         |
|     Therefore, try LREAL= Auto in the INCAR file.                           |
|     Mind: For very accurate calculation, you might also keep the            |
|     reciprocal projection scheme (i.e. LREAL=.FALSE.).                      |
|                                                                             |
 -----------------------------------------------------------------------------

  PAW_PBE C_GW 28Sep2005                :
 energy of atom  1       EATOM= -147.1560
 kinetic energy error for atom=    0.0192 (will be added to EATOM!!)
  PAW_PBE H_GW 21Apr2008                :
 energy of atom  2       EATOM=  -12.4884
 kinetic energy error for atom=    0.0256 (will be added to EATOM!!)
  PAW_PBE O_GW 28Sep2005                :
 energy of atom  3       EATOM= -432.3788
 kinetic energy error for atom=    0.0724 (will be added to EATOM!!)
  PAW_PBE Fe_sv_GW 05Dec2013            :
 energy of atom  4       EATOM=-3376.4015
 kinetic energy error for atom=    0.1308 (will be added to EATOM!!)
 
 
 POSCAR:  C  H  O Fe
  positions in direct lattice
  No initial velocities read in
 exchange correlation table for  LEXCH =        8
   RHO(1)=    0.500       N(1)  =     2000
   RHO(2)=  100.500       N(2)  =     4000
 


--------------------------------------------------------------------------------------------------------


 ion  position               nearest neighbor table
   1  0.295  0.941  0.220-  32 1.17  33 1.18
   2  0.032  0.132  0.567-  35 1.36   7 1.40  22 1.43
   3  0.081  0.617  0.166-   8 1.40  23 1.43   6 1.49
   4  0.131  0.566  0.032-  37 1.36   8 1.40  24 1.43
   5  0.166  0.081  0.617-   7 1.40  25 1.43  11 1.49
   6  0.179  0.747  0.349-  41 1.27  34 1.29   3 1.49
   7  0.192  0.205  0.678-  27 1.09   2 1.40   5 1.40
   8  0.205  0.677  0.192-  28 1.09   4 1.40   3 1.40
   9  0.253  0.651  0.822-  36 1.27  38 1.29  12 1.49
  10  0.322  0.808  0.795-  26 1.09  13 1.40  12 1.40
  11  0.349  0.179  0.747-  43 1.27  39 1.29   5 1.49
  12  0.383  0.834  0.919-  10 1.40  14 1.43   9 1.49
  13  0.433  0.968  0.868-  40 1.36  10 1.40  15 1.43
  14  0.567  0.032  0.132-  45 1.36  17 1.40  12 1.43
  15  0.617  0.166  0.081-  17 1.40  13 1.43  18 1.49
  16  0.651  0.821  0.253-  42 1.27  46 1.29  22 1.49
  17  0.678  0.192  0.205-  31 1.09  14 1.40  15 1.40
  18  0.747  0.349  0.178-  49 1.27  47 1.29  15 1.49
  19  0.795  0.323  0.808-  29 1.09  23 1.40  24 1.40
  20  0.808  0.795  0.322-  30 1.09  25 1.40  22 1.40
  21  0.821  0.253  0.651-  44 1.27  51 1.29  24 1.49
  22  0.834  0.919  0.383-  20 1.40   2 1.43  16 1.49
  23  0.869  0.434  0.968-  48 1.36  19 1.40   3 1.43
  24  0.919  0.383  0.834-  19 1.40   4 1.43  21 1.49
  25  0.968  0.868  0.433-  50 1.36  20 1.40   5 1.43
  26  0.182  0.656  0.634-  10 1.09
  27  0.344  0.366  0.818-   7 1.09
  28  0.366  0.817  0.344-   8 1.09
  29  0.634  0.183  0.656-  19 1.09
  30  0.656  0.634  0.182-  20 1.09
  31  0.818  0.344  0.366-  17 1.09
  32  0.310  0.006  0.317-   1 1.17
  33  0.278  0.875  0.120-   1 1.18
  34  0.067  0.696  0.328-   6 1.29  54 2.11  52 2.12
  35  0.073  0.264  0.640-   2 1.36  57 2.06  55 2.07
  36  0.098  0.479  0.633-   9 1.27  57 2.07
  37  0.264  0.638  0.074-   4 1.36  55 2.05  56 2.09
  38  0.303  0.671  0.933-   9 1.29  56 2.10  55 2.12
  39  0.328  0.067  0.696-  11 1.29  52 2.10  53 2.12
  40  0.361  0.926  0.736-  13 1.36  53 2.06  52 2.08
  41  0.367  0.903  0.521-   6 1.27  53 2.07
  42  0.479  0.633  0.098-  16 1.27  55 2.07
  43  0.521  0.367  0.902-  11 1.27  54 2.07
  44  0.633  0.097  0.479-  21 1.27  56 2.07
  45  0.639  0.074  0.264-  14 1.36  56 2.06  57 2.08
  46  0.672  0.933  0.304-  16 1.29  57 2.10  56 2.12
  47  0.697  0.329  0.067-  18 1.29  53 2.10  54 2.12
  48  0.736  0.362  0.926-  23 1.36  54 2.05  53 2.09
  49  0.902  0.521  0.367-  18 1.27  52 2.07
  50  0.927  0.736  0.360-  25 1.36  52 2.06  54 2.07
  51  0.933  0.304  0.672-  21 1.29  55 2.11  57 2.12
  52  0.107  0.783  0.515-  50 2.06  49 2.07  40 2.08  39 2.10  34 2.12
  53  0.515  0.107  0.783-  40 2.06  41 2.07  48 2.09  47 2.10  39 2.12
  54  0.783  0.516  0.106-  48 2.05  50 2.07  43 2.07  34 2.11  47 2.12
  55  0.217  0.484  0.894-  37 2.05  35 2.07  42 2.07  51 2.11  38 2.12
  56  0.485  0.893  0.217-  45 2.06  44 2.07  37 2.09  38 2.10  46 2.12
  57  0.893  0.217  0.485-  35 2.06  36 2.07  45 2.08  46 2.10  51 2.12
 

IMPORTANT INFORMATION: All symmetrisations will be switched off!
NOSYMM: (Re-)initialisation of all symmetry stuff for point group C_1.


----------------------------------------------------------------------------------------

                                     Primitive cell                                     

  volume of cell :    1403.0148

  direct lattice vectors                    reciprocal lattice vectors
    15.439217752  0.004465832 -0.038376892     0.065085042  0.034326685  0.130688713
    -7.186282924 13.630928377 -0.001416099     0.000303919  0.073536393  0.130825479
    -7.182834812-11.890639092  6.700359279     0.000372844  0.000212151  0.150021909

  length of vectors
    15.439266094 15.409246337 15.423204220     0.149979744  0.150076646  0.150022522

  position of ions in fractional coordinates (direct lattice)
     0.295019501  0.941160170  0.219875959
     0.032140205  0.131596472  0.567243074
     0.080939400  0.617136620  0.166081282
     0.131311660  0.566131401  0.032072370
     0.166052468  0.080890174  0.616656951
     0.178934143  0.747136406  0.349358741
     0.192223384  0.205099135  0.677753253
     0.204817095  0.677208988  0.192172431
     0.252895436  0.650728993  0.821583851
     0.322307724  0.807597299  0.795016362
     0.349319458  0.178891109  0.746556755
     0.382922059  0.833947320  0.919292900
     0.433306216  0.967704379  0.868314174
     0.566693754  0.032295640  0.131685826
     0.617077941  0.166052695  0.080707123
     0.650680572  0.821108876  0.253443275
     0.677692276  0.192402701  0.204983653
     0.747104594  0.349271007  0.178416179
     0.795182905  0.322791042  0.807827584
     0.807776602  0.794900865  0.322246747
     0.821065842  0.252863594  0.650641229
     0.833947517  0.919109811  0.383343020
     0.868688340  0.433868599  0.967927620
     0.919060577  0.382863380  0.833918703
     0.967859819  0.868403528  0.432756926
     0.182479428  0.655565764  0.633945057
     0.344103209  0.366270524  0.817662957
     0.365791429  0.816735938  0.344089651
     0.634208571  0.183264047  0.655910379
     0.655896791  0.633729476  0.182337028
     0.817520572  0.344434206  0.366054943
     0.309634406  0.006275347  0.316899865
     0.277845133  0.874684412  0.119782242
     0.067421933  0.696011040  0.328229224
     0.073185170  0.264301200  0.639867354
     0.097668867  0.478758507  0.633498145
     0.264148327  0.637872795  0.073659183
     0.302715318  0.671496338  0.932846989
     0.328490557  0.067484104  0.696479021
     0.361353031  0.926373201  0.735541372
     0.367302190  0.903369468  0.521413749
     0.478945773  0.633023796  0.098161017
     0.521054227  0.366976174  0.901838960
     0.632697810  0.096630539  0.478586221
     0.638646969  0.073626784  0.264458628
     0.671509473  0.932515918  0.303521008
     0.697284712  0.328503632  0.067153018
     0.735851673  0.362127205  0.926340817
     0.902331148  0.521241523  0.366501884
     0.926814852  0.735698800  0.360132676
     0.932578089  0.303988990  0.671770806
     0.107174485  0.783307327  0.515334558
     0.515337162  0.106795323  0.782801462
     0.783372319  0.515771295  0.106356464
     0.216627696  0.484228705  0.893643529
     0.484662838  0.893204670  0.217198508
     0.892825508  0.216692673  0.484665412

  ion indices of the primitive-cell ions
   primitive index   ion index
                 1           1
                 2           2
                 3           3
                 4           4
                 5           5
                 6           6
                 7           7
                 8           8
                 9           9
                10          10
                11          11
                12          12
                13          13
                14          14
                15          15
                16          16
                17          17
                18          18
                19          19
                20          20
                21          21
                22          22
                23          23
                24          24
                25          25
                26          26
                27          27
                28          28
                29          29
                30          30
                31          31
                32          32
                33          33
                34          34
                35          35
                36          36
                37          37
                38          38
                39          39
                40          40
                41          41
                42          42
                43          43
                44          44
                45          45
                46          46
                47          47
                48          48
                49          49
                50          50
                51          51
                52          52
                53          53
                54          54
                55          55
                56          56
                57          57

----------------------------------------------------------------------------------------

 
 
 KPOINTS: KPOINTS                                 

Automatic generation of k-mesh.
 Grid dimensions read from file:
 generate k-points for:    1    1    1

 Generating k-lattice:

  Cartesian coordinates                     Fractional coordinates (reciprocal lattice)
     0.065085042  0.034326685  0.130688713     1.000000000  0.000000000 -0.000000000
     0.000303919  0.073536393  0.130825479     0.000000000  1.000000000  0.000000000
     0.000372844  0.000212151  0.150021909    -0.000000000  0.000000000  1.000000000

  Length of vectors
     0.149979744  0.150076646  0.150022522

  Shift w.r.t. Gamma in fractional coordinates (k-lattice)
     0.000000000  0.000000000  0.000000000

 
 Subroutine IBZKPT returns following result:
 ===========================================
 
 Found      1 irreducible k-points:
 
 Following reciprocal coordinates:
            Coordinates               Weight
  0.000000  0.000000  0.000000      1.000000
 
 Following cartesian coordinates:
            Coordinates               Weight
  0.000000  0.000000  0.000000      1.000000
 
 WARNING: full set of k-points will be restricted to regular points only.

 
 Subroutine IBZKPT_HF returns following result:
 ==============================================
 
 Found      1 k-points in 1st BZ
 the following      1 k-points will be used (e.g. in the exchange kernel)
 Following reciprocal coordinates:   # in IRBZ
  0.000000  0.000000  0.000000    1.00000000   1 t-inv F


--------------------------------------------------------------------------------------------------------




 Dimension of arrays:
   k-points           NKPTS =      1   k-points in BZ     NKDIM =      1   number of bands    NBANDS=  27400
   number of dos      NEDOS =    301   number of ions     NIONS =     57
   non local maximal  LDIM  =     11   non local SUM 2l+1 LMDIM =     41
   total plane-waves  NPLWV = ******
   max r-space proj   IRMAX =      1   max aug-charges    IRDMAX=  22306
   dimension x,y,z NGX =   108 NGY =  108 NGZ =  108
   dimension x,y,z NGXF=   216 NGYF=  216 NGZF=  216
   support grid    NGXF=   216 NGYF=  216 NGZF=  216
   ions per type =              25   6  20   6
   lowest and highest band optimized NBANDSLOW=     131 NBANDSHIGH=      -1
   NGX,Y,Z   is equivalent  to a cutoff of  11.63, 11.65, 11.64 a.u.
   NGXF,Y,Z  is equivalent  to a cutoff of  23.26, 23.30, 23.28 a.u.

 SYSTEM =  MOFCO2                                  
 POSCAR =   C  H  O Fe                             

 Startparameter for this run:
   NWRITE =      1    write-flag & timer
   PREC   = accura    normal or accurate (medium, high low for compatibility)
   ISTART =      1    job   : 0-new  1-cont  2-samecut
   ICHARG =      0    charge: 1-file 2-atom 10-const
   ISPIN  =      1    spin polarized calculation?
   LNONCOLLINEAR =      F non collinear calculations
   LSORBIT =      F    spin-orbit coupling
   INIWAV =      1    electr: 0-lowe 1-rand  2-diag
   LASPH  =      T    aspherical Exc in radial PAW
 Electronic Relaxation 1
   ENCUT  =  420.0 eV  30.87 Ry    5.56 a.u.  25.80 25.75 25.77*2*pi/ulx,y,z
   ENINI  =  420.0     initial cutoff
   ENAUG  =  963.7 eV  augmentation charge cutoff
   NELM   =      1;   NELMIN=  2; NELMDL=  0     # of ELM steps 
   EDIFF  = 0.1E-03   stopping-criterion for ELM
   LREAL  =      F    real-space projection
   NLSPLINE    = F    spline interpolate recip. space projectors
   LCOMPAT=      F    compatible to vasp.4.4
   GGA_COMPAT  = T    GGA compatible to vasp.4.4-vasp.4.6
   LMAXPAW     = -100 max onsite density
   LMAXMIX     =    2 max onsite mixed and CHGCAR
   VOSKOWN=      0    Vosko Wilk Nusair interpolation
   ROPT   =    0.00000   0.00000   0.00000   0.00000
 Ionic relaxation
   EDIFFG = 0.1E-02   stopping-criterion for IOM
   NSW    =      0    number of steps for IOM
   NBLOCK =      1;   KBLOCK =      1    inner block; outer block 
   IBRION =     -1    ionic relax: 0-MD 1-quasi-New 2-CG
   NFREE  =      0    steps in history (QN), initial steepest desc. (CG)
   ISIF   =      0    stress and relaxation
   IWAVPR =     10    prediction:  0-non 1-charg 2-wave 3-comb
   ISYM   =     -1    0-nonsym 1-usesym 2-fastsym
   LCORR  =      T    Harris-Foulkes like correction to forces

   POTIM  = 0.5000    time-step for ionic-motion
   TEIN   =    0.0    initial temperature
   TEBEG  =    0.0;   TEEND  =   0.0 temperature during run
   SMASS  =  -3.00    Nose mass-parameter (am)
   estimated Nose-frequenzy (Omega)   =  0.10E-29 period in steps = 0.13E+47 mass=  -0.545E-26a.u.
   SCALEE = 1.0000    scale energy and forces
   NPACO  =    256;   APACO  = 16.0  distance and # of slots for P.C.
   PSTRESS=    0.0 pullay stress

  Mass of Ions in am
   POMASS =  12.01  1.00 16.00 55.85
  Ionic Valenz
   ZVAL   =   4.00  1.00  6.00 16.00
  Atomic Wigner-Seitz radii
   RWIGS  =  -1.00 -1.00 -1.00 -1.00
  virtual crystal weights 
   VCA    =   1.00  1.00  1.00  1.00
   NELECT =     322.0000    total number of electrons
   NUPDOWN=      -1.0000    fix difference up-down

 DOS related values:
   EMIN   =  10.00;   EMAX   =-10.00  energy-range for DOS
   EFERMI =   0.00
   ISMEAR =     0;   SIGMA  =   0.10  broadening in eV -4-tet -1-fermi 0-gaus

 Electronic relaxation 2 (details)
   IALGO  =      4    algorithm
   LDIAG  =      T    sub-space diagonalisation (order eigenvalues)
   LSUBROT=      F    optimize rotation matrix (better conditioning)
   TURBO    =      0    0=normal 1=particle mesh
   IRESTART =      0    0=no restart 2=restart with 2 vectors
   NREBOOT  =      0    no. of reboots
   NMIN     =      0    reboot dimension
   EREF     =   0.00    reference energy to select bands
   IMIX   =      1    mixing-type and parameters
     AMIX     =   0.40;   BMIX     =  1.00
     AMIX_MAG =   1.60;   BMIX_MAG =  1.00
     AMIN     =   0.10
     WC   =   100.;   INIMIX=   1;  MIXPRE=   1;  MAXMIX= -45

 Intra band minimization:
   WEIMIN = 0.0000     energy-eigenvalue tresh-hold
   EBREAK =  0.91E-09  absolut break condition
   DEPER  =   0.30     relativ break condition  

   TIME   =   0.05     timestep for ELM

  volume/ion in A,a.u.               =      24.61       166.11
  Fermi-wavevector in a.u.,A,eV,Ry     =   1.002319  1.894109 13.669007  1.004644
  Thomas-Fermi vector in A             =   2.134799
 
 Write flags
   LWAVE        =      T    write WAVECAR
   LDOWNSAMPLE  =      F    k-point downsampling of WAVECAR
   LCHARG       =      T    write CHGCAR
   LVTOT        =      F    write LOCPOT, total local potential
   LVHAR        =      F    write LOCPOT, Hartree potential only
   LELF         =      F    write electronic localiz. function (ELF)
   LORBIT       =     11    0 simple, 1 ext, 2 COOP (PROOUT), +10 PAW based schemes


 Dipole corrections
   LMONO  =      F    monopole corrections only (constant potential shift)
   LDIPOL =      F    correct potential (dipole corrections)
   IDIPOL =      0    1-x, 2-y, 3-z, 4-all directions 
   EPSILON=  1.0000000 bulk dielectric constant

 Exchange correlation treatment:
   GGA     =    --    GGA type
   LEXCH   =     8    internal setting for exchange type
   VOSKOWN=      0    Vosko Wilk Nusair interpolation
   EXXOEP  =     0    0=HF, 1=EXX-LHF (local Hartree Fock) 2=EXX OEP
   LHFCALC =     T    Hartree Fock is set to
   LSYMGRAD=     F    symmetrize gradient (conserves proper symmetry)
   PRECFOCK=normal    Normal, Fast or Accurate (Low or Medium for compatibility)
   LRHFCALC=     F    long range Hartree Fock
   LRSCOR  =     F    long range correlation only (use DFT for short range part)
   LTHOMAS =     F    Thomas Fermi screening in HF
   LMODELHF=     F    short range full HF, long range fraction AEXX
   LFOCKACE=     T    use Adeptively-Compressed-Exchange operator
   ENCUT4O =  -1.0   cutoff for four orbital integrals eV
   LMAXFOCK=     4    L truncation for augmentation on plane wave grid
   LMAXFOCKAE=  -1    L truncation for all-electron charge restoration on plane wave grid
   NMAXFOCKAE=   1    number of basis functions for all-electron charge restoration
   LFOCKAEDFT=     F  apply the AE augmentation even for DFT
   NKREDX  =     1    reduce k-point grid by
   NKREDY  =     1    reduce k-point grid by
   NKREDZ  =     1    reduce k-point grid by
   SHIFTRED=     F    shift reduced grid of Gamma
   HFKIDENT=     F    idential grid for each k-point
   ODDONLY =     F    use only odd q-grid points
   EVENONLY=     F    use only even q-grid points
   HFALPHA =   -1.0000 decay constant for conv. correction
   MCALPHA =    0.0000 extent of test-charge in conv. correction in multipole expansion
   AEXX    =    1.0000 exact exchange contribution
   HFSCREEN=    0.0000 screening length (either q_TF or 0.3 A-1)
   HFSCREENC=   0.0000 screening length for correlation (either q_TF or 0.3 A-1)
   HFRCUT  =    0.0000 spherical cutoff for potential kernel
   ALDAX   =    0.0000 LDA exchange part
   AGGAX   =    0.0000 GGA exchange part
   ALDAC   =    0.0000 LDA correlation
   AGGAC   =    0.0000 GGA correlation
   ENCUTFOCK=  -1.0 apply spherical cutoff to Coloumb kernel
   NBANDSGWLOW=     1    first orbital included in HF term
   NBLOCK_FOCK=    64    blocking factor in FOCK_ACC
 Linear response parameters
   LEPSILON=     F    determine dielectric tensor
   LRPA    =     F    only Hartree local field effects (RPA)
   LNABLA  =     F    use nabla operator in PAW spheres
   LVEL    =     F    velocity operator in full k-point grid
   CSHIFT  =0.1000    complex shift for real part using Kramers Kronig
   OMEGAMAX=  -1.0    maximum frequency
   DEG_THRESHOLD= 0.2000000E-02 threshold for treating states as degnerate
   RTIME   =   -0.100 relaxation time in fs
  (WPLASMAI=    0.000 imaginary part of plasma frequency in eV, 0.658/RTIME)
   DFIELD  = 0.0000000 0.0000000 0.0000000 field for delta impulse in time
 
  Optional k-point grid parameters
   LKPOINTS_OPT  =     F    use optional k-point grid
   KPOINTS_OPT_MODE=     1    mode for optional k-point grid
 
 Orbital magnetization related:
   ORBITALMAG=     F  switch on orbital magnetization
   LCHIMAG   =     F  perturbation theory with respect to B field
   DQ        =  0.001000  dq finite difference perturbation B field
   LLRAUG    =     F  two centre corrections for induced B field



--------------------------------------------------------------------------------------------------------


 Static calculation
 charge density and potential will be updated during run
 non-spin polarized calculation
 Subrot: only subspace diagonalization (rotation)
    band-by band algorithm
 perform sub-space diagonalisation
    before iterative eigenvector-optimisation
 Kerker-like  mixing scheme
 using additional bands        27239
 reciprocal scheme for non local part
 use partial core corrections
 calculate Harris-corrections to forces 
   (improved forces if not selfconsistent)
 use gradient corrections 
 use of overlap-Matrix (Vanderbilt PP)
 Gauss-broadening in eV      SIGMA  =   0.10


--------------------------------------------------------------------------------------------------------


  energy-cutoff  :      420.00
  volume of cell :     1403.01
      direct lattice vectors                 reciprocal lattice vectors
    15.439217752  0.004465832 -0.038376892     0.065085042  0.034326685  0.130688713
    -7.186282924 13.630928377 -0.001416099     0.000303919  0.073536393  0.130825479
    -7.182834812-11.890639092  6.700359279     0.000372844  0.000212151  0.150021909

  length of vectors
    15.439266094 15.409246337 15.423204220     0.149979744  0.150076646  0.150022522


 
 old parameters found on file WAVECAR:
  energy-cutoff  :      420.00
  volume of cell :     1403.01
      direct lattice vectors                 reciprocal lattice vectors
    15.439217752  0.004465832 -0.038376892     0.065085042  0.034326685  0.130688713
    -7.186282924 13.630928377 -0.001416099     0.000303919  0.073536393  0.130825479
    -7.182834812-11.890639092  6.700359279     0.000372844  0.000212151  0.150021909

  length of vectors

 
 k-points in units of 2pi/SCALE and weight: KPOINTS                                 
   0.00000000  0.00000000  0.00000000       1.000
 
 k-points in reciprocal lattice and weights: KPOINTS                                 
   0.00000000  0.00000000  0.00000000       1.000
 
 position of ions in fractional coordinates (direct lattice) 
   0.29501950  0.94116017  0.21987596
   0.03214020  0.13159647  0.56724307
   0.08093940  0.61713662  0.16608128
   0.13131166  0.56613140  0.03207237
   0.16605247  0.08089017  0.61665695
   0.17893414  0.74713641  0.34935874
   0.19222338  0.20509913  0.67775325
   0.20481709  0.67720899  0.19217243
   0.25289544  0.65072899  0.82158385
   0.32230772  0.80759730  0.79501636
   0.34931946  0.17889111  0.74655676
   0.38292206  0.83394732  0.91929290
   0.43330622  0.96770438  0.86831417
   0.56669375  0.03229564  0.13168583
   0.61707794  0.16605269  0.08070712
   0.65068057  0.82110888  0.25344327
   0.67769228  0.19240270  0.20498365
   0.74710459  0.34927101  0.17841618
   0.79518291  0.32279104  0.80782758
   0.80777660  0.79490087  0.32224675
   0.82106584  0.25286359  0.65064123
   0.83394752  0.91910981  0.38334302
   0.86868834  0.43386860  0.96792762
   0.91906058  0.38286338  0.83391870
   0.96785982  0.86840353  0.43275693
   0.18247943  0.65556576  0.63394506
   0.34410321  0.36627052  0.81766296
   0.36579143  0.81673594  0.34408965
   0.63420857  0.18326405  0.65591038
   0.65589679  0.63372948  0.18233703
   0.81752057  0.34443421  0.36605494
   0.30963441  0.00627535  0.31689987
   0.27784513  0.87468441  0.11978224
   0.06742193  0.69601104  0.32822922
   0.07318517  0.26430120  0.63986735
   0.09766887  0.47875851  0.63349814
   0.26414833  0.63787280  0.07365918
   0.30271532  0.67149634  0.93284699
   0.32849056  0.06748410  0.69647902
   0.36135303  0.92637320  0.73554137
   0.36730219  0.90336947  0.52141375
   0.47894577  0.63302380  0.09816102
   0.52105423  0.36697617  0.90183896
   0.63269781  0.09663054  0.47858622
   0.63864697  0.07362678  0.26445863
   0.67150947  0.93251592  0.30352101
   0.69728471  0.32850363  0.06715302
   0.73585167  0.36212720  0.92634082
   0.90233115  0.52124152  0.36650188
   0.92681485  0.73569880  0.36013268
   0.93257809  0.30398899  0.67177081
   0.10717448  0.78330733  0.51533456
   0.51533716  0.10679532  0.78280146
   0.78337232  0.51577130  0.10635646
   0.21662770  0.48422870  0.89364353
   0.48466284  0.89320467  0.21719851
   0.89282551  0.21669267  0.48466541
 
 position of ions in cartesian coordinates  (Angst):
  -3.78790563 10.21573870  1.46059321
  -4.52388317 -4.95095705  3.79931260
  -4.37821175  6.43769394  1.10882413
  -2.27140164  7.33612202  0.20905537
  -2.44692449 -6.22909552  4.12533600
  -5.11591652  6.03086322  2.33290413
  -3.37431139 -5.26236927  4.53352292
  -3.08474249  6.94684887  1.27880509
  -6.67311603 -0.89798737  5.49428014
  -6.53791475  1.55648768  5.31338245
  -1.25473680 -6.43702504  4.98853936
  -6.68409337  0.43820617  6.14371640
  -6.50124571  2.86783369  5.80001762
   7.57134513 -1.12307831  0.86054867
   7.75419311  1.30654888  0.51685004
   2.32483717  8.18177960  1.67202713
   7.60801466  0.18826726  1.34718394
   7.74321629  2.64274213  1.16628635
   4.15484218 -5.20209353  5.38176130
   4.44441119  7.00712439  2.12704337
   6.18601652 -4.28610774  4.32766196
   3.51702459  7.97385078  2.53523010
   3.34150173 -5.59136678  6.45151085
   5.44831152 -4.69293864  5.55174206
   5.59398355  6.69571217  2.86125369
  -6.44726406  1.39877301  4.23972831
  -3.19257720 -4.72839114  5.46491130
  -2.69330113  7.04305679  2.29032977
   3.76340103 -5.29830223  4.37023672
   4.26267732  6.47314643  1.19565489
   7.51736429  0.34598169  2.42083798
   2.45917722 -3.68122035  2.11145126
  -2.85639420 10.49971397  0.79068259
  -6.31840665  5.58472248  2.19568066
  -5.36548293 -4.00543421  4.28415826
  -6.48287571 -1.00633871  4.24023897
  -1.03477259  7.82012327  0.48250251
  -6.85236078 -1.93767650  6.23784180
  -0.41601639 -7.36024271  4.65395766
  -6.36144396  3.88288350  4.91321202
  -4.56623892  6.11546212  3.47828427
   2.14038562  7.46364369  0.63843721
  -1.07028522 -5.71888870  6.02212893
   5.63633910 -4.37070655  3.18228181
   7.43154408 -2.13812859  1.74735427
   1.48611650  9.10499778  2.00660882
   7.92246143  3.68243113  0.42272453
   2.10487260 -6.07536816  6.17806378
   7.55297553  2.75109390  2.42032751
   6.43558307  5.75018897  2.37640822
   7.38850658 -3.83996731  4.46488582
  -7.67594086  4.55002746  3.44770442
   1.56620766 -7.84998885  5.22512277
   7.62423645  5.76929366  0.68183275
  -6.55413615 -4.02453846  5.97873350
  -0.49610738  9.59474423  1.43544332
   8.74604099 -2.80527198  3.21286166
 


--------------------------------------------------------------------------------------------------------


 use serial FFT for orbitals x direction half grid
 k-point   1 :   0.0000 0.0000 0.0000  plane waves:   13714

 maximum and minimum number of plane-waves per node :     13714    13714

 maximum number of plane-waves:     13714
 maximum index in each direction: 
   IXMAX=   25   IYMAX=   22   IZMAX=   22
   IXMIN=    0   IYMIN=  -25   IZMIN=  -25


 serial   3D FFT for wavefunctions
 parallel 3D FFT for charge:
    minimum data exchange during FFTs selected (reduces bandwidth)


 FFT grid for exact exchange (Hartree Fock) 
  NGX = 80; NGY = 80; NGZ = 80

 use serial FFT for orbitals x direction half grid
 
 Radii for the augmentation spheres in the non-local exchange
 for species   1 augmentation radius   0.874 (default was   0.699)
       energy cutoff for augmentation   1680.0
 for species   2 augmentation radius   0.735 (default was   0.588)
       energy cutoff for augmentation   1680.0
 for species   3 augmentation radius   0.902 (default was   0.722)
       energy cutoff for augmentation   1680.0
 for species   4 augmentation radius   1.117 (default was   0.893)
       energy cutoff for augmentation   1680.0
 Maximum index for augmentation-charges in exchange         2121
  SETUP_FOCK is finished

 total amount of memory used by VASP MPI-rank0   168174. kBytes
=======================================================================

   base      :      30000. kBytes
   nonl-proj :      30691. kBytes
   fftplans  :       7972. kBytes
   grid      :      57341. kBytes
   one-center:       2299. kBytes
   HF        :       1344. kBytes
   nonlr-proj:       7401. kBytes
   wavefun   :      31126. kBytes
 
     INWAV:  cpu time     19.5173: real time     19.6149
 charge density for first step will be calculated from the start-wavefunctions


--------------------------------------------------------------------------------------------------------


 Maximum index for augmentation-charges          724 (set IRDMAX)


--------------------------------------------------------------------------------------------------------


 initial charge from wavefunction
    FEWALD:  cpu time      0.0021: real time      0.0021


--------------------------------------- Iteration      1(   1)  ---------------------------------------


    POTLOK:  cpu time      0.0993: real time      0.1169
    SETDIJ:  cpu time      0.3894: real time      0.3905
    EDDIAG:  cpu time   3496.5294: real time   3538.7697
       DOS:  cpu time      0.0031: real time      0.0031
    --------------------------------------------
      LOOP:  cpu time   3497.0212: real time   3539.2802

 eigenvalue-minimisations  :     0
 total energy-change (2. order) :-0.9077352E+03  ( 0.0000000E+00)
 number of electron     321.9999974 magnetization 
 augmentation part       50.9123259 magnetization 

 Free energy of the ion-electron system (eV)
  ---------------------------------------------------
  alpha Z        PSCENC =       379.72439301
  Ewald energy   TEWEN  =     18509.04670523
  -Hartree energ DENC   =    -47242.98301292
  -exchange      EXHF   =      4567.28336570
  -V(xc)+E(xc)   XCENC  =         0.00000000
  PAW double counting   =     32033.93946946   -32278.68354937
  entropy T*S    EENTRO =        -0.00000000
  eigenvalues    EBANDS =     -8561.68969633
  atomic energy  EATOM  =     31685.62717035
  Solvation  Ediel_sol  =         0.00000000
  ---------------------------------------------------
  free energy    TOTEN  =      -907.73515487 eV

  energy without entropy =     -907.73515487  energy(sigma->0) =     -907.73515487
  exchange ACFDT corr.  =         0.00000000  see jH, gK, PRB 81, 115126


--------------------------------------------------------------------------------------------------------




 average (electrostatic) potential at core
  the test charge radii are     0.6991  0.5883  0.7215  0.8933
  (the norm of the test charge is              1.0000)
       1 -45.3610       2 -40.4848       3 -39.3255       4 -40.5739       5 -39.2264
       6 -43.0846       7 -38.6955       8 -38.7678       9 -42.9487      10 -38.6451
      11 -43.0341      12 -39.1608      13 -40.4463      14 -40.4226      15 -39.1803
      16 -43.0161      17 -38.6431      18 -43.0125      19 -38.8157      20 -38.6955
      21 -43.1184      22 -39.2227      23 -40.5744      24 -39.3099      25 -40.4888
      26 -18.6401      27 -18.6851      28 -18.8022      29 -18.7989      30 -18.6878
      31 -18.6382      32 -53.0217      33 -53.0834      34 -50.5521      35 -49.4468
      36 -50.1399      37 -49.4396      38 -50.4027      39 -50.5161      40 -49.4389
      41 -50.2646      42 -50.2053      43 -50.2201      44 -50.3202      45 -49.3499
      46 -50.4845      47 -50.5069      48 -49.5043      49 -50.1960      50 -49.4622
      51 -50.5600      52 -57.0575      53 -57.0838      54 -57.0714      55 -57.0401
      56 -56.9065      57 -57.0191
 
 
 
 E-fermi :  -6.4596     XC(G=0):   0.0000     alpha+bet : -3.7365

 Fermi energy:        -6.4595541421

 k-point     1 :       0.0000    0.0000    0.0000
  band No.  band energies     occupation 
      1     -96.0556      2.00000
      2     -93.2379      2.00000
      3     -93.1874      2.00000
      4     -92.9004      2.00000
      5     -92.4457      2.00000
      6     -87.3122      2.00000
      7     -86.8795      2.00000
      8     -84.9014      2.00000
      9     -84.2610      2.00000
     10     -81.7176      2.00000
     11     -74.3248      2.00000
     12     -73.5781      2.00000
     13     -73.3757      2.00000
     14     -72.5210      2.00000
     15     -71.7891      2.00000
     16     -71.3787      2.00000
     17     -71.3507      2.00000
     18     -71.0812      2.00000
     19     -70.9753      2.00000
     20     -70.7477      2.00000
     21     -31.3759      2.00000
     22     -31.3670      2.00000
     23     -31.3533      2.00000
     24     -31.3158      2.00000
     25     -31.2590      2.00000
     26     -31.1858      2.00000
     27     -31.1780      2.00000
     28     -31.1070      2.00000
     29     -31.0974      2.00000
     30     -31.0688      2.00000
     31     -27.7716      2.00000
     32     -27.7342      2.00000
     33     -27.7225      2.00000
     34     -27.7221      2.00000
     35     -19.9524      2.00000
     36     -19.9496      2.00000
     37     -19.8455      2.00000
     38     -19.8438      2.00000
     39     -19.7969      2.00000
     40     -19.7814      2.00000
     41     -19.6740      2.00000
     42     -19.6710      2.00000
     43     -19.6585      2.00000
     44     -19.6486      2.00000
     45     -19.6454      2.00000
     46     -19.6414      2.00000
     47     -19.5662      2.00000
     48     -19.5645      2.00000
     49     -19.5633      2.00000
     50     -19.5570      2.00000
     51     -19.5514      2.00000
     52     -19.5473      2.00000
     53     -19.5470      2.00000
     54     -19.5173      2.00000
     55     -19.5055      2.00000
     56     -19.5045      2.00000
     57     -19.4995      2.00000
     58     -19.4737      2.00000
     59     -17.4586      2.00000
     60     -17.4562      2.00000
     61     -17.4525      2.00000
     62     -17.4164      2.00000
     63     -17.3369      2.00000
     64     -17.0654      2.00000
     65     -17.0377      2.00000
     66     -17.0281      2.00000
     67     -16.9871      2.00000
     68     -16.9516      2.00000
     69     -16.8460      2.00000
     70     -16.8421      2.00000
     71     -16.8060      2.00000
     72     -16.6663      2.00000
     73     -15.8788      2.00000
     74     -15.8728      2.00000
     75     -15.6967      2.00000
     76     -15.6279      2.00000
     77     -15.5774      2.00000
     78     -15.5322      2.00000
     79     -15.5290      2.00000
     80     -15.4109      2.00000
     81     -15.4086      2.00000
     82     -15.3626      2.00000
     83     -15.3604      2.00000
     84     -14.9375      2.00000
     85     -14.6742      2.00000
     86     -14.5511      2.00000
     87     -14.4841      2.00000
     88     -13.4109      2.00000
     89     -13.3043      2.00000
     90     -13.2780      2.00000
     91     -13.2773      2.00000
     92     -13.2553      2.00000
     93     -12.2719      2.00000
     94     -12.2415      2.00000
     95     -12.2407      2.00000
     96     -12.2211      2.00000
     97     -12.2131      2.00000
     98     -12.1934      2.00000
     99     -12.1931      2.00000
    100     -12.1692      2.00000
    101     -12.1442      2.00000
    102     -12.1331      2.00000
    103     -12.0771      2.00000
    104     -12.0682      2.00000
    105     -12.0471      2.00000
    106     -12.0091      2.00000
    107     -11.9855      2.00000
    108     -11.9852      2.00000
    109     -11.9846      2.00000
    110     -11.9588      2.00000
    111     -11.9517      2.00000
    112     -11.9397      2.00000
    113     -11.6869      2.00000
    114     -11.6411      2.00000
    115     -11.6176      2.00000
    116     -11.6051      2.00000
    117     -11.5649      2.00000
    118     -10.9680      2.00000
    119     -10.9615      2.00000
    120     -10.8909      2.00000
    121     -10.6980      2.00000
    122      -8.8425      2.00000
    123      -8.6527      2.00000
    124      -8.5867      2.00000
    125      -8.5782      2.00000
    126      -8.5707      2.00000
    127      -8.5412      2.00000
    128      -7.8369      2.00000
    129      -7.6850      2.00000
    130      -7.6239      2.00000
    131    -111.2593      2.00000
    132     -70.9524      2.00000
    133     -70.9259      2.00000
    134     -70.9162      2.00000
    135     -38.8283      2.00000
    136     -37.4039      2.00000
    137     -34.3270      2.00000
    138     -34.2580      2.00000
    139     -32.5263      2.00000
    140     -32.4097      2.00000
    141     -19.1398      2.00000
    142     -17.4331      2.00000
    143     -17.2880      2.00000
    144     -16.9461      2.00000
    145     -16.5818      2.00000
    146     -16.1819      2.00000
    147     -15.5352      2.00000
    148     -15.4187      2.00000
    149     -12.9383      2.00000
    150     -12.5391      2.00000
    151     -12.3564      2.00000
    152     -12.2730      2.00000
    153     -12.0398      2.00000
    154     -11.9103      2.00000
    155     -11.7170      2.00000
    156     -11.2682      2.00000
    157     -10.9884      2.00000
    158     -10.8358      2.00000
    159     -10.7525      2.00000
    160      -9.9771      2.00000
    161      -9.7716      2.00000
    162       3.4806      0.00000
    163       4.1726      0.00000
    164       4.1897      0.00000
    165       4.3092      0.00000
    166       4.4259      0.00000
    167       4.4646      0.00000
    168       4.8078      0.00000
    169       4.8520      0.00000
    170       4.9532      0.00000
    171       5.2486      0.00000
    172       6.1858      0.00000
    173       6.2472      0.00000
    174       6.3666      0.00000
    175       6.5910      0.00000
    176       6.5930      0.00000
    177       6.6297      0.00000
    178       6.6502      0.00000
    179       6.7451      0.00000
    180       6.9383      0.00000
    181       7.0970      0.00000
    182       7.1876      0.00000
    183       7.2088      0.00000
    184       7.2859      0.00000
    185       7.4035      0.00000
    186       7.4114      0.00000
    187       7.4682      0.00000
    188       7.5041      0.00000
    189       7.5758      0.00000
    190       7.6857      0.00000
    191       7.7143      0.00000
    192       7.7839      0.00000
    193       7.8122      0.00000
    194       7.8615      0.00000
    195       7.9330      0.00000
    196       8.0809      0.00000
    197       8.1133      0.00000
    198       8.1474      0.00000
    199       8.2442      0.00000
    200       8.2828      0.00000
    201       8.3091      0.00000
    202       8.4633      0.00000
    203       8.6953      0.00000
    204       8.9233      0.00000
    205       8.9663      0.00000
    206       8.9767      0.00000
    207       9.0540      0.00000
    208       9.2051      0.00000
    209       9.2563      0.00000
    210       9.3033      0.00000
    211       9.3607      0.00000
    212       9.5103      0.00000
    213       9.5753      0.00000
    214       9.6749      0.00000
    215       9.7281      0.00000
    216       9.7895      0.00000
    217       9.8931      0.00000
    218       9.9620      0.00000
    219      10.0136      0.00000
    220      10.1096      0.00000
    221      10.1613      0.00000
    222      10.2280      0.00000
    223      10.3091      0.00000
    224      10.3850      0.00000
    225      10.5081      0.00000
    226      10.5672      0.00000
    227      10.5876      0.00000
    228      10.6933      0.00000
    229      10.7829      0.00000
    230      10.8037      0.00000
    231      10.8831      0.00000
    232      10.9107      0.00000
    233      10.9265      0.00000
    234      10.9306      0.00000
    235      10.9866      0.00000
    236      11.0619      0.00000
    237      11.1094      0.00000
    238      11.1299      0.00000
    239      11.1795      0.00000
    240      11.1827      0.00000
    241      11.2122      0.00000
    242      11.3071      0.00000
    243      11.3119      0.00000
    244      11.3749      0.00000
    245      11.3907      0.00000
    246      11.4946      0.00000
    247      11.5573      0.00000
    248      11.5875      0.00000
    249      11.6194      0.00000
    250      11.7006      0.00000
    251      11.7629      0.00000
    252      11.7922      0.00000
    253      11.8958      0.00000
    254      11.9532      0.00000
    255      12.0429      0.00000
    256      12.1581      0.00000
    257      12.2464      0.00000
    258      12.3226      0.00000
    259      12.3911      0.00000
    260      12.4625      0.00000
    261      12.6280      0.00000
    262      12.6343      0.00000
    263      12.6780      0.00000
    264      12.7336      0.00000
    265      12.8131      0.00000
    266      12.8352      0.00000
    267      12.9710      0.00000
    268      13.1345      0.00000
    269      13.1940      0.00000
    270      13.2200      0.00000
    271      13.2717      0.00000
    272      13.2918      0.00000
    273      13.3091      0.00000
    274      13.4369      0.00000
    275      13.4853      0.00000
    276      13.6340      0.00000
    277      13.7044      0.00000
    278      13.8261      0.00000
    279      13.8997      0.00000
    280      13.9213      0.00000
    281      13.9690      0.00000
    282      14.0192      0.00000
    283      14.0707      0.00000
    284      14.0767      0.00000
    285      14.1050      0.00000
    286      14.1414      0.00000
    287      14.2068      0.00000
    288      14.2542      0.00000
    289      14.3316      0.00000
    290      14.3722      0.00000
    291      14.4648      0.00000
    292      14.5151      0.00000
    293      14.5567      0.00000
    294      14.6750      0.00000
    295      14.7312      0.00000
    296      14.7727      0.00000
    297      14.8017      0.00000
    298      14.8419      0.00000
    299      14.9489      0.00000
    300      14.9947      0.00000
    301      15.0543      0.00000
    302      15.1299      0.00000
    303      15.1493      0.00000
    304      15.1831      0.00000
    305      15.3419      0.00000
    306      15.4495      0.00000
    307      15.4838      0.00000
    308      15.5030      0.00000
    309      15.5632      0.00000
    310      15.6242      0.00000
    311      15.6367      0.00000
    312      15.7180      0.00000
    313      15.8250      0.00000
    314      15.8650      0.00000
    315      15.9231      0.00000
    316      15.9395      0.00000
    317      16.0266      0.00000
    318      16.0426      0.00000
    319      16.0572      0.00000
    320      16.0854      0.00000
    321      16.1224      0.00000
    322      16.1664      0.00000
    323      16.1810      0.00000
    324      16.1916      0.00000
    325      16.2981      0.00000
    326      16.3271      0.00000
    327      16.3511      0.00000
    328      16.4032      0.00000
    329      16.5287      0.00000
    330      16.5489      0.00000
    331      16.6045      0.00000
    332      16.6897      0.00000
    333      16.6987      0.00000
    334      16.7708      0.00000
    335      16.7889      0.00000
    336      16.8466      0.00000
    337      16.8946      0.00000
    338      16.9050      0.00000
    339      16.9538      0.00000
    340      16.9703      0.00000
    341      17.0086      0.00000
    342      17.0450      0.00000
    343      17.0734      0.00000
    344      17.1942      0.00000
    345      17.2236      0.00000
    346      17.2423      0.00000
    347      17.2867      0.00000
    348      17.3836      0.00000
    349      17.4351      0.00000
    350      17.4590      0.00000
    351      17.5406      0.00000
    352      17.5939      0.00000
    353      17.6188      0.00000
    354      17.6279      0.00000
    355      17.6727      0.00000
    356      17.7299      0.00000
    357      17.7631      0.00000
    358      17.8034      0.00000
    359      17.8410      0.00000
    360      17.9110      0.00000
    361      17.9324      0.00000
    362      17.9437      0.00000
    363      18.0019      0.00000
    364      18.1041      0.00000
    365      18.1257      0.00000
    366      18.2049      0.00000
    367      18.2622      0.00000
    368      18.2859      0.00000
    369      18.3333      0.00000
    370      18.3845      0.00000
    371      18.4289      0.00000
    372      18.4924      0.00000
    373      18.5314      0.00000
    374      18.5742      0.00000
    375      18.6190      0.00000
    376      18.6623      0.00000
    377      18.6668      0.00000
    378      18.6811      0.00000
    379      18.7032      0.00000
    380      18.7293      0.00000
    381      18.7792      0.00000
    382      18.8065      0.00000
    383      18.8504      0.00000
    384      18.9023      0.00000
    385      18.9959      0.00000
    386      19.0224      0.00000
    387      19.0392      0.00000
    388      19.1261      0.00000
    389      19.1599      0.00000
    390      19.1689      0.00000
    391      19.1995      0.00000
    392      19.2516      0.00000
    393      19.2697      0.00000
    394      19.3066      0.00000
    395      19.3322      0.00000
    396      19.3954      0.00000
    397      19.4148      0.00000
    398      19.4261      0.00000
    399      19.4834      0.00000
    400      19.5286      0.00000
    401      19.6434      0.00000
    402      19.6593      0.00000
    403      19.6802      0.00000
    404      19.7549      0.00000
    405      19.8496      0.00000
    406      19.9597      0.00000
    407      20.0250      0.00000
    408      20.1022      0.00000
    409      20.1464      0.00000
    410      20.2055      0.00000
    411      20.2162      0.00000
    412      20.2463      0.00000
    413      20.2999      0.00000
    414      20.3310      0.00000
    415      20.4007      0.00000
    416      20.4292      0.00000
    417      20.4640      0.00000
    418      20.5411      0.00000
    419      20.5975      0.00000
    420      20.6590      0.00000
    421      20.7081      0.00000
    422      20.7386      0.00000
    423      20.7896      0.00000
    424      20.7960      0.00000
    425      20.8863      0.00000
    426      20.9154      0.00000
    427      20.9283      0.00000
    428      21.0039      0.00000
    429      21.0425      0.00000
    430      21.0794      0.00000
    431      21.1923      0.00000
    432      21.2252      0.00000
    433      21.2555      0.00000
    434      21.2896      0.00000
    435      21.3478      0.00000
    436      21.3910      0.00000
    437      21.3941      0.00000
    438      21.4295      0.00000
    439      21.4674      0.00000
    440      21.5427      0.00000
    441      21.5845      0.00000
    442      21.6381      0.00000
    443      21.6683      0.00000
    444      21.7082      0.00000
    445      21.7430      0.00000
    446      21.7662      0.00000
    447      21.8226      0.00000
    448      21.8734      0.00000
    449      21.8946      0.00000
    450      21.9104      0.00000
    451      21.9386      0.00000
    452      22.0161      0.00000
    453      22.0439      0.00000
    454      22.0974      0.00000
    455      22.1125      0.00000
    456      22.1485      0.00000
    457      22.2286      0.00000
    458      22.2418      0.00000
    459      22.2978      0.00000
    460      22.3755      0.00000
    461      22.4425      0.00000
    462      22.4563      0.00000
    463      22.4870      0.00000
    464      22.5759      0.00000
    465      22.5886      0.00000
    466      22.6095      0.00000
    467      22.6534      0.00000
    468      22.6946      0.00000
    469      22.7115      0.00000
    470      22.7253      0.00000
    471      22.8009      0.00000
    472      22.8406      0.00000
    473      22.9290      0.00000
    474      22.9690      0.00000
    475      23.0792      0.00000
    476      23.1081      0.00000
    477      23.1265      0.00000
    478      23.1508      0.00000
    479      23.1828      0.00000
    480      23.2919      0.00000
    481      23.3606      0.00000
    482      23.3776      0.00000
    483      23.4216      0.00000
    484      23.4995      0.00000
    485      23.5281      0.00000
    486      23.5409      0.00000
    487      23.6249      0.00000
    488      23.6478      0.00000
    489      23.7298      0.00000
    490      23.7511      0.00000
    491      23.8257      0.00000
    492      23.8656      0.00000
    493      23.9018      0.00000
    494      23.9289      0.00000
    495      23.9857      0.00000
    496      24.0356      0.00000
    497      24.1216      0.00000
    498      24.1993      0.00000
    499      24.2313      0.00000
    500      24.2395      0.00000
    501      24.2907      0.00000
    502      24.3547      0.00000
    503      24.4451      0.00000
    504      24.4864      0.00000
    505      24.5598      0.00000
    506      24.6356      0.00000
    507      24.6635      0.00000
    508      24.7232      0.00000
    509      24.7533      0.00000
    510      24.7979      0.00000
    511      24.8355      0.00000
    512      24.8685      0.00000
    513      24.9391      0.00000
    514      24.9671      0.00000
    515      24.9853      0.00000
    516      25.0234      0.00000
    517      25.0625      0.00000
    518      25.0818      0.00000
    519      25.1306      0.00000
    520      25.1598      0.00000
    521      25.2238      0.00000
    522      25.2447      0.00000
    523      25.2921      0.00000
    524      25.3002      0.00000
    525      25.3484      0.00000
    526      25.4027      0.00000
    527      25.4349      0.00000
    528      25.5192      0.00000
    529      25.5450      0.00000
    530      25.5791      0.00000
    531      25.6434      0.00000
    532      25.6657      0.00000
    533      25.7307      0.00000
    534      25.7723      0.00000
    535      25.8262      0.00000
    536      25.8614      0.00000
    537      25.8933      0.00000
    538      25.9289      0.00000
    539      25.9487      0.00000
    540      25.9834      0.00000
    541      26.0263      0.00000
    542      26.0546      0.00000
    543      26.1128      0.00000
    544      26.1759      0.00000
    545      26.2264      0.00000
    546      26.2614      0.00000
    547      26.3240      0.00000
    548      26.3622      0.00000
    549      26.3951      0.00000
    550      26.4681      0.00000
    551      26.4997      0.00000
    552      26.5661      0.00000
    553      26.6159      0.00000
    554      26.6370      0.00000
    555      26.6558      0.00000
    556      26.6903      0.00000
    557      26.7349      0.00000
    558      26.7898      0.00000
    559      26.8014      0.00000
    560      26.8962      0.00000
    561      26.9116      0.00000
    562      26.9259      0.00000
    563      26.9462      0.00000
    564      26.9979      0.00000
    565      27.0565      0.00000
    566      27.0888      0.00000
    567      27.1501      0.00000
    568      27.2138      0.00000
    569      27.2406      0.00000
    570      27.2832      0.00000
    571      27.3206      0.00000
    572      27.3651      0.00000
    573      27.3807      0.00000
    574      27.4045      0.00000
    575      27.4952      0.00000
    576      27.5698      0.00000
    577      27.6456      0.00000
    578      27.7035      0.00000
    579      27.7380      0.00000
    580      27.7947      0.00000
    581      27.8235      0.00000
    582      27.8449      0.00000
    583      27.9120      0.00000
    584      27.9140      0.00000
    585      28.0335      0.00000
    586      28.0580      0.00000
    587      28.1047      0.00000
    588      28.1227      0.00000
    589      28.2472      0.00000
    590      28.2810      0.00000
    591      28.3621      0.00000
    592      28.3885      0.00000
    593      28.4385      0.00000
    594      28.4488      0.00000
    595      28.4839      0.00000
    596      28.5025      0.00000
    597      28.5281      0.00000
    598      28.5311      0.00000
    599      28.5526      0.00000
    600      28.6667      0.00000
    601      28.6993      0.00000
    602      28.7448      0.00000
    603      28.7751      0.00000
    604      28.8281      0.00000
    605      28.8652      0.00000
    606      28.8971      0.00000
    607      28.9375      0.00000
    608      28.9854      0.00000
    609      29.0329      0.00000
    610      29.0550      0.00000
    611      29.0952      0.00000
    612      29.1356      0.00000
    613      29.1478      0.00000
    614      29.2026      0.00000
    615      29.2607      0.00000
    616      29.2966      0.00000
    617      29.3419      0.00000
    618      29.4349      0.00000
    619      29.5019      0.00000
    620      29.5184      0.00000
    621      29.6089      0.00000
    622      29.6376      0.00000
    623      29.6828      0.00000
    624      29.7351      0.00000
    625      29.7379      0.00000
    626      29.8123      0.00000
    627      29.8258      0.00000
    628      29.8899      0.00000
    629      29.9325      0.00000
    630      29.9516      0.00000
    631      30.0056      0.00000
    632      30.0177      0.00000
    633      30.0803      0.00000
    634      30.1136      0.00000
    635      30.2119      0.00000
    636      30.2331      0.00000
    637      30.2367      0.00000
    638      30.2713      0.00000
    639      30.3255      0.00000
    640      30.3916      0.00000
    641      30.4130      0.00000
    642      30.4742      0.00000
    643      30.4967      0.00000
    644      30.5338      0.00000
    645      30.5483      0.00000
    646      30.5873      0.00000
    647      30.6375      0.00000
    648      30.7047      0.00000
    649      30.7222      0.00000
    650      30.7356      0.00000
    651      30.8381      0.00000
    652      30.8657      0.00000
    653      30.8842      0.00000
    654      30.9074      0.00000
    655      30.9626      0.00000
    656      30.9968      0.00000
    657      31.0737      0.00000
    658      31.0930      0.00000
    659      31.1395      0.00000
    660      31.1973      0.00000
    661      31.2637      0.00000
    662      31.2872      0.00000
    663      31.2999      0.00000
    664      31.3665      0.00000
    665      31.3965      0.00000
    666      31.4550      0.00000
    667      31.4760      0.00000
    668      31.5130      0.00000
    669      31.5280      0.00000
    670      31.5527      0.00000
    671      31.6138      0.00000
    672      31.6389      0.00000
    673      31.6785      0.00000
    674      31.7054      0.00000
    675      31.7334      0.00000
    676      31.7663      0.00000
    677      31.7978      0.00000
    678      31.8242      0.00000
    679      31.8659      0.00000
    680      31.9012      0.00000
    681      31.9722      0.00000
    682      31.9777      0.00000
    683      32.0155      0.00000
    684      32.0420      0.00000
    685      32.0514      0.00000
    686      32.0785      0.00000
    687      32.1368      0.00000
    688      32.2028      0.00000
    689      32.2551      0.00000
    690      32.2669      0.00000
    691      32.2970      0.00000
    692      32.3258      0.00000
    693      32.3606      0.00000
    694      32.3837      0.00000
    695      32.4177      0.00000
    696      32.4691      0.00000
    697      32.4969      0.00000
    698      32.5171      0.00000
    699      32.5503      0.00000
    700      32.5801      0.00000
    701      32.6111      0.00000
    702      32.6306      0.00000
    703      32.6871      0.00000
    704      32.7061      0.00000
    705      32.7324      0.00000
    706      32.7898      0.00000
    707      32.8091      0.00000
    708      32.8601      0.00000
    709      32.8752      0.00000
    710      32.9170      0.00000
    711      32.9398      0.00000
    712      32.9418      0.00000
    713      33.0022      0.00000
    714      33.0390      0.00000
    715      33.0532      0.00000
    716      33.1011      0.00000
    717      33.1139      0.00000
    718      33.1445      0.00000
    719      33.1958      0.00000
    720      33.2216      0.00000
    721      33.2584      0.00000
    722      33.2784      0.00000
    723      33.3429      0.00000
    724      33.3680      0.00000
    725      33.4285      0.00000
    726      33.4686      0.00000
    727      33.4794      0.00000
    728      33.5056      0.00000
    729      33.5617      0.00000
    730      33.5921      0.00000
    731      33.6343      0.00000
    732      33.6730      0.00000
    733      33.7283      0.00000
    734      33.7748      0.00000
    735      33.8164      0.00000
    736      33.8411      0.00000
    737      33.8588      0.00000
    738      33.8811      0.00000
    739      33.9339      0.00000
    740      33.9593      0.00000
    741      33.9868      0.00000
    742      34.0109      0.00000
    743      34.0144      0.00000
    744      34.0413      0.00000
    745      34.0899      0.00000
    746      34.1115      0.00000
    747      34.1493      0.00000
    748      34.1764      0.00000
    749      34.2422      0.00000
    750      34.2630      0.00000
    751      34.2991      0.00000
    752      34.3222      0.00000
    753      34.3567      0.00000
    754      34.3761      0.00000
    755      34.4036      0.00000
    756      34.4165      0.00000
    757      34.4320      0.00000
    758      34.5266      0.00000
    759      34.5618      0.00000
    760      34.5898      0.00000
    761      34.6487      0.00000
    762      34.6757      0.00000
    763      34.7153      0.00000
    764      34.7313      0.00000
    765      34.7840      0.00000
    766      34.8068      0.00000
    767      34.8364      0.00000
    768      34.8607      0.00000
    769      34.8903      0.00000
    770      34.8985      0.00000
    771      34.9607      0.00000
    772      34.9857      0.00000
    773      35.0172      0.00000
    774      35.0704      0.00000
    775      35.0813      0.00000
    776      35.1163      0.00000
    777      35.1416      0.00000
    778      35.1628      0.00000
    779      35.2351      0.00000
    780      35.2459      0.00000
    781      35.2750      0.00000
    782      35.3138      0.00000
    783      35.3455      0.00000
    784      35.3734      0.00000
    785      35.3963      0.00000
    786      35.4163      0.00000
    787      35.4503      0.00000
    788      35.4807      0.00000
    789      35.5443      0.00000
    790      35.5629      0.00000
    791      35.5868      0.00000
    792      35.6120      0.00000
    793      35.6335      0.00000
    794      35.6429      0.00000
    795      35.7174      0.00000
    796      35.7675      0.00000
    797      35.8105      0.00000
    798      35.8284      0.00000
    799      35.8456      0.00000
    800      35.9351      0.00000
    801      35.9507      0.00000
    802      35.9599      0.00000
    803      36.0107      0.00000
    804      36.0487      0.00000
    805      36.0710      0.00000
    806      36.0774      0.00000
    807      36.1572      0.00000
    808      36.1866      0.00000
    809      36.2095      0.00000
    810      36.2398      0.00000
    811      36.2508      0.00000
    812      36.2878      0.00000
    813      36.3160      0.00000
    814      36.3284      0.00000
    815      36.3809      0.00000
    816      36.3948      0.00000
    817      36.4643      0.00000
    818      36.4894      0.00000
    819      36.4976      0.00000
    820      36.5581      0.00000
    821      36.5743      0.00000
    822      36.6280      0.00000
    823      36.6578      0.00000
    824      36.6769      0.00000
    825      36.7422      0.00000
    826      36.7786      0.00000
    827      36.7930      0.00000
    828      36.8015      0.00000
    829      36.8749      0.00000
    830      36.9030      0.00000
    831      36.9101      0.00000
    832      36.9427      0.00000
    833      36.9863      0.00000
    834      36.9964      0.00000
    835      37.0305      0.00000
    836      37.0864      0.00000
    837      37.1229      0.00000
    838      37.1559      0.00000
    839      37.2371      0.00000
    840      37.2575      0.00000
    841      37.3310      0.00000
    842      37.3877      0.00000
    843      37.3928      0.00000
    844      37.4161      0.00000
    845      37.4818      0.00000
    846      37.5506      0.00000
    847      37.6164      0.00000
    848      37.6396      0.00000
    849      37.6440      0.00000
    850      37.7032      0.00000
    851      37.7276      0.00000
    852      37.7629      0.00000
    853      37.7900      0.00000
    854      37.8660      0.00000
    855      37.8945      0.00000
    856      37.9302      0.00000
    857      37.9589      0.00000
    858      37.9749      0.00000
    859      38.0040      0.00000
    860      38.0683      0.00000
    861      38.1147      0.00000
    862      38.1528      0.00000
    863      38.2218      0.00000
    864      38.2492      0.00000
    865      38.2871      0.00000
    866      38.3228      0.00000
    867      38.3662      0.00000
    868      38.3760      0.00000
    869      38.4088      0.00000
    870      38.4438      0.00000
    871      38.4878      0.00000
    872      38.5019      0.00000
    873      38.5300      0.00000
    874      38.5733      0.00000
    875      38.6220      0.00000
    876      38.6305      0.00000
    877      38.6478      0.00000
    878      38.7157      0.00000
    879      38.7383      0.00000
    880      38.7569      0.00000
    881      38.8076      0.00000
    882      38.8370      0.00000
    883      38.8758      0.00000
    884      38.9049      0.00000
    885      38.9608      0.00000
    886      38.9957      0.00000
    887      39.0258      0.00000
    888      39.0372      0.00000
    889      39.0603      0.00000
    890      39.1336      0.00000
    891      39.2189      0.00000
    892      39.2608      0.00000
    893      39.2888      0.00000
    894      39.3198      0.00000
    895      39.3768      0.00000
    896      39.4331      0.00000
    897      39.4426      0.00000
    898      39.4790      0.00000
    899      39.5047      0.00000
    900      39.5336      0.00000
    901      39.5711      0.00000
    902      39.6048      0.00000
    903      39.6744      0.00000
    904      39.7024      0.00000
    905      39.7155      0.00000
    906      39.8290      0.00000
    907      39.8633      0.00000
    908      39.8651      0.00000
    909      39.8942      0.00000
    910      39.9222      0.00000
    911      39.9699      0.00000
    912      39.9958      0.00000
    913      40.0039      0.00000
    914      40.0533      0.00000
    915      40.0749      0.00000
    916      40.0918      0.00000
    917      40.1192      0.00000
    918      40.1681      0.00000
    919      40.1698      0.00000
    920      40.2196      0.00000
    921      40.2420      0.00000
    922      40.2583      0.00000
    923      40.2726      0.00000
    924      40.2991      0.00000
    925      40.3296      0.00000
    926      40.4068      0.00000
    927      40.4393      0.00000
    928      40.4534      0.00000
    929      40.5033      0.00000
    930      40.5353      0.00000
    931      40.5533      0.00000
    932      40.5926      0.00000
    933      40.6123      0.00000
    934      40.6458      0.00000
    935      40.6815      0.00000
    936      40.6993      0.00000
    937      40.7464      0.00000
    938      40.7853      0.00000
    939      40.8067      0.00000
    940      40.8280      0.00000
    941      40.8657      0.00000
    942      40.8891      0.00000
    943      40.9188      0.00000
    944      40.9555      0.00000
    945      40.9901      0.00000
    946      41.0553      0.00000
    947      41.0674      0.00000
    948      41.0997      0.00000
    949      41.1355      0.00000
    950      41.1698      0.00000
    951      41.2167      0.00000
    952      41.2573      0.00000
    953      41.2744      0.00000
    954      41.3179      0.00000
    955      41.3199      0.00000
    956      41.3910      0.00000
    957      41.4154      0.00000
    958      41.4447      0.00000
    959      41.5048      0.00000
    960      41.5192      0.00000
    961      41.5352      0.00000
    962      41.5912      0.00000
    963      41.6176      0.00000
    964      41.6864      0.00000
    965      41.7075      0.00000
    966      41.7417      0.00000
    967      41.7556      0.00000
    968      41.7772      0.00000
    969      41.8268      0.00000
    970      41.8515      0.00000
    971      41.8653      0.00000
    972      41.9186      0.00000
    973      41.9567      0.00000
    974      41.9727      0.00000
    975      41.9882      0.00000
    976      42.0504      0.00000
    977      42.0638      0.00000
    978      42.1209      0.00000
    979      42.1259      0.00000
    980      42.1412      0.00000
    981      42.2254      0.00000
    982      42.2493      0.00000
    983      42.2777      0.00000
    984      42.3176      0.00000
    985      42.3294      0.00000
    986      42.3490      0.00000
    987      42.3986      0.00000
    988      42.4278      0.00000
    989      42.4708      0.00000
    990      42.5158      0.00000
    991      42.5385      0.00000
    992      42.5558      0.00000
    993      42.5787      0.00000
    994      42.5939      0.00000
    995      42.6130      0.00000
    996      42.6857      0.00000
    997      42.7126      0.00000
    998      42.7604      0.00000
    999      42.7779      0.00000
   1000      42.8054      0.00000
   1001      42.8673      0.00000
   1002      42.8863      0.00000
   1003      42.9145      0.00000
   1004      42.9547      0.00000
   1005      42.9863      0.00000
   1006      42.9956      0.00000
   1007      43.0150      0.00000
   1008      43.0802      0.00000
   1009      43.1175      0.00000
   1010      43.1840      0.00000
   1011      43.2057      0.00000
   1012      43.2139      0.00000
   1013      43.2210      0.00000
   1014      43.2654      0.00000
   1015      43.2866      0.00000
   1016      43.3266      0.00000
   1017      43.3511      0.00000
   1018      43.3873      0.00000
   1019      43.3932      0.00000
   1020      43.4172      0.00000
   1021      43.4577      0.00000
   1022      43.4779      0.00000
   1023      43.4951      0.00000
   1024      43.5400      0.00000
   1025      43.5488      0.00000
   1026      43.5637      0.00000
   1027      43.5918      0.00000
   1028      43.6574      0.00000
   1029      43.6700      0.00000
   1030      43.7248      0.00000
   1031      43.7369      0.00000
   1032      43.7498      0.00000
   1033      43.7953      0.00000
   1034      43.8104      0.00000
   1035      43.8589      0.00000
   1036      43.8753      0.00000
   1037      43.9038      0.00000
   1038      43.9693      0.00000
   1039      43.9780      0.00000
   1040      44.0308      0.00000
   1041      44.0763      0.00000
   1042      44.1355      0.00000
   1043      44.1543      0.00000
   1044      44.1954      0.00000
   1045      44.2255      0.00000
   1046      44.2476      0.00000
   1047      44.2655      0.00000
   1048      44.2948      0.00000
   1049      44.3278      0.00000
   1050      44.3460      0.00000
   1051      44.4190      0.00000
   1052      44.4311      0.00000
   1053      44.4378      0.00000
   1054      44.4961      0.00000
   1055      44.5456      0.00000
   1056      44.5768      0.00000
   1057      44.6054      0.00000
   1058      44.6392      0.00000
   1059      44.6846      0.00000
   1060      44.7096      0.00000
   1061      44.7569      0.00000
   1062      44.7941      0.00000
   1063      44.8348      0.00000
   1064      44.8664      0.00000
   1065      44.8836      0.00000
   1066      44.9344      0.00000
   1067      44.9777      0.00000
   1068      45.0259      0.00000
   1069      45.0439      0.00000
   1070      45.0628      0.00000
   1071      45.0844      0.00000
   1072      45.1076      0.00000
   1073      45.1497      0.00000
   1074      45.1594      0.00000
   1075      45.1844      0.00000
   1076      45.1997      0.00000
   1077      45.2647      0.00000
   1078      45.3093      0.00000
   1079      45.3222      0.00000
   1080      45.3910      0.00000
   1081      45.4103      0.00000
   1082      45.4370      0.00000
   1083      45.4957      0.00000
   1084      45.5280      0.00000
   1085      45.5349      0.00000
   1086      45.6044      0.00000
   1087      45.6250      0.00000
   1088      45.6529      0.00000
   1089      45.7083      0.00000
   1090      45.7213      0.00000
   1091      45.7695      0.00000
   1092      45.7918      0.00000
   1093      45.8031      0.00000
   1094      45.8476      0.00000
   1095      45.8702      0.00000
   1096      45.8862      0.00000
   1097      45.9411      0.00000
   1098      45.9517      0.00000
   1099      45.9827      0.00000
   1100      46.0005      0.00000
   1101      46.0463      0.00000
   1102      46.0816      0.00000
   1103      46.1281      0.00000
   1104      46.1624      0.00000
   1105      46.1751      0.00000
   1106      46.1858      0.00000
   1107      46.2255      0.00000
   1108      46.2658      0.00000
   1109      46.3028      0.00000
   1110      46.3350      0.00000
   1111      46.3679      0.00000
   1112      46.3924      0.00000
   1113      46.4182      0.00000
   1114      46.4797      0.00000
   1115      46.4983      0.00000
   1116      46.5754      0.00000
   1117      46.5863      0.00000
   1118      46.6341      0.00000
   1119      46.6382      0.00000
   1120      46.6642      0.00000
   1121      46.7271      0.00000
   1122      46.7730      0.00000
   1123      46.8137      0.00000
   1124      46.8640      0.00000
   1125      46.8816      0.00000
   1126      46.9291      0.00000
   1127      46.9583      0.00000
   1128      46.9713      0.00000
   1129      47.0056      0.00000
   1130      47.0162      0.00000
   1131      47.0751      0.00000
   1132      47.1130      0.00000
   1133      47.1278      0.00000
   1134      47.1772      0.00000
   1135      47.2223      0.00000
   1136      47.2328      0.00000
   1137      47.2530      0.00000
   1138      47.3061      0.00000
   1139      47.3692      0.00000
   1140      47.3849      0.00000
   1141      47.4133      0.00000
   1142      47.4420      0.00000
   1143      47.4700      0.00000
   1144      47.5107      0.00000
   1145      47.5227      0.00000
   1146      47.5816      0.00000
   1147      47.6089      0.00000
   1148      47.6242      0.00000
   1149      47.6750      0.00000
   1150      47.7031      0.00000
   1151      47.7292      0.00000
   1152      47.7749      0.00000
   1153      47.8191      0.00000
   1154      47.8285      0.00000
   1155      47.8770      0.00000
   1156      47.9012      0.00000
   1157      47.9272      0.00000
   1158      47.9662      0.00000
   1159      47.9784      0.00000
   1160      48.0028      0.00000
   1161      48.0364      0.00000
   1162      48.0758      0.00000
   1163      48.1164      0.00000
   1164      48.1494      0.00000
   1165      48.1735      0.00000
   1166      48.2571      0.00000
   1167      48.2744      0.00000
   1168      48.3084      0.00000
   1169      48.3307      0.00000
   1170      48.3952      0.00000
   1171      48.4105      0.00000
   1172      48.4611      0.00000
   1173      48.4732      0.00000
   1174      48.5161      0.00000
   1175      48.5555      0.00000
   1176      48.5713      0.00000
   1177      48.6144      0.00000
   1178      48.6449      0.00000
   1179      48.6623      0.00000
   1180      48.7090      0.00000
   1181      48.7346      0.00000
   1182      48.7854      0.00000
   1183      48.8025      0.00000
   1184      48.8398      0.00000
   1185      48.9029      0.00000
   1186      48.9310      0.00000
   1187      48.9508      0.00000
   1188      48.9878      0.00000
   1189      49.0087      0.00000
   1190      49.1009      0.00000
   1191      49.1293      0.00000
   1192      49.1801      0.00000
   1193      49.2225      0.00000
   1194      49.2298      0.00000
   1195      49.2725      0.00000
   1196      49.2874      0.00000
   1197      49.3134      0.00000
   1198      49.3396      0.00000
   1199      49.3764      0.00000
   1200      49.4120      0.00000
   1201      49.4585      0.00000
   1202      49.4862      0.00000
   1203      49.5501      0.00000
   1204      49.6031      0.00000
   1205      49.6323      0.00000
   1206      49.6627      0.00000
   1207      49.6880      0.00000
   1208      49.7238      0.00000
   1209      49.7514      0.00000
   1210      49.7939      0.00000
   1211      49.8107      0.00000
   1212      49.8396      0.00000
   1213      49.8720      0.00000
   1214      49.8972      0.00000
   1215      49.9199      0.00000
   1216      49.9478      0.00000
   1217      49.9701      0.00000
   1218      49.9853      0.00000
   1219      50.0259      0.00000
   1220      50.0914      0.00000
   1221      50.1058      0.00000
   1222      50.1234      0.00000
   1223      50.1544      0.00000
   1224      50.1874      0.00000
   1225      50.2145      0.00000
   1226      50.2818      0.00000
   1227      50.3059      0.00000
   1228      50.3352      0.00000
   1229      50.3585      0.00000
   1230      50.4031      0.00000
   1231      50.4089      0.00000
   1232      50.4147      0.00000
   1233      50.4606      0.00000
   1234      50.4999      0.00000
   1235      50.5247      0.00000
   1236      50.5625      0.00000
   1237      50.5816      0.00000
   1238      50.6078      0.00000
   1239      50.6472      0.00000
   1240      50.6543      0.00000
   1241      50.7173      0.00000
   1242      50.7554      0.00000
   1243      50.7866      0.00000
   1244      50.8237      0.00000
   1245      50.8354      0.00000
   1246      50.8528      0.00000
   1247      50.8566      0.00000
   1248      50.8877      0.00000
   1249      50.9110      0.00000
   1250      50.9761      0.00000
   1251      50.9818      0.00000
   1252      51.0057      0.00000
   1253      51.1277      0.00000
   1254      51.1324      0.00000
   1255      51.1443      0.00000
   1256      51.1687      0.00000
   1257      51.2143      0.00000
   1258      51.2515      0.00000
   1259      51.2777      0.00000
   1260      51.2877      0.00000
   1261      51.3509      0.00000
   1262      51.3704      0.00000
   1263      51.3851      0.00000
   1264      51.4044      0.00000
   1265      51.4909      0.00000
   1266      51.5271      0.00000
   1267      51.5383      0.00000
   1268      51.5760      0.00000
   1269      51.5956      0.00000
   1270      51.6014      0.00000
   1271      51.6168      0.00000
   1272      51.6469      0.00000
   1273      51.6696      0.00000
   1274      51.7118      0.00000
   1275      51.7446      0.00000
   1276      51.7864      0.00000
   1277      51.8088      0.00000
   1278      51.8318      0.00000
   1279      51.8696      0.00000
   1280      51.8875      0.00000
   1281      51.9136      0.00000
   1282      51.9429      0.00000
   1283      51.9550      0.00000
   1284      51.9624      0.00000
   1285      52.0085      0.00000
   1286      52.0399      0.00000
   1287      52.0839      0.00000
   1288      52.0937      0.00000
   1289      52.1187      0.00000
   1290      52.2032      0.00000
   1291      52.2131      0.00000
   1292      52.2518      0.00000
   1293      52.2609      0.00000
   1294      52.3117      0.00000
   1295      52.3278      0.00000
   1296      52.3560      0.00000
   1297      52.3842      0.00000
   1298      52.4063      0.00000
   1299      52.4370      0.00000
   1300      52.4526      0.00000
   1301      52.5221      0.00000
   1302      52.5391      0.00000
   1303      52.5511      0.00000
   1304      52.5644      0.00000
   1305      52.6054      0.00000
   1306      52.6447      0.00000
   1307      52.6859      0.00000
   1308      52.6941      0.00000
   1309      52.7052      0.00000
   1310      52.7316      0.00000
   1311      52.7606      0.00000
   1312      52.7948      0.00000
   1313      52.8568      0.00000
   1314      52.8860      0.00000
   1315      52.9229      0.00000
   1316      52.9507      0.00000
   1317      52.9724      0.00000
   1318      52.9981      0.00000
   1319      53.0184      0.00000
   1320      53.0485      0.00000
   1321      53.0659      0.00000
   1322      53.0850      0.00000
   1323      53.1029      0.00000
   1324      53.1479      0.00000
   1325      53.1828      0.00000
   1326      53.2221      0.00000
   1327      53.2261      0.00000
   1328      53.2813      0.00000
   1329      53.3019      0.00000
   1330      53.3210      0.00000
   1331      53.3470      0.00000
   1332      53.3699      0.00000
   1333      53.3951      0.00000
   1334      53.4183      0.00000
   1335      53.4582      0.00000
   1336      53.4714      0.00000
   1337      53.4994      0.00000
   1338      53.5283      0.00000
   1339      53.5454      0.00000
   1340      53.5838      0.00000
   1341      53.5866      0.00000
   1342      53.6148      0.00000
   1343      53.6444      0.00000
   1344      53.6629      0.00000
   1345      53.6894      0.00000
   1346      53.7333      0.00000
   1347      53.7618      0.00000
   1348      53.7667      0.00000
   1349      53.7786      0.00000
   1350      53.7906      0.00000
   1351      53.8203      0.00000
   1352      53.8712      0.00000
   1353      53.8842      0.00000
   1354      53.9171      0.00000
   1355      53.9243      0.00000
   1356      53.9660      0.00000
   1357      53.9847      0.00000
   1358      54.0111      0.00000
   1359      54.0161      0.00000
   1360      54.0703      0.00000
   1361      54.0996      0.00000
   1362      54.1366      0.00000
   1363      54.1568      0.00000
   1364      54.1850      0.00000
   1365      54.2193      0.00000
   1366      54.2490      0.00000
   1367      54.2514      0.00000
   1368      54.2581      0.00000
   1369      54.3201      0.00000
   1370      54.3316      0.00000
   1371      54.3445      0.00000
   1372      54.3591      0.00000
   1373      54.4106      0.00000
   1374      54.4273      0.00000
   1375      54.4588      0.00000
   1376      54.5124      0.00000
   1377      54.5313      0.00000
   1378      54.5382      0.00000
   1379      54.5802      0.00000
   1380      54.6046      0.00000
   1381      54.6149      0.00000
   1382      54.6488      0.00000
   1383      54.6702      0.00000
   1384      54.6922      0.00000
   1385      54.7246      0.00000
   1386      54.7376      0.00000
   1387      54.7481      0.00000
   1388      54.7814      0.00000
   1389      54.7919      0.00000
   1390      54.8237      0.00000
   1391      54.8424      0.00000
   1392      54.8614      0.00000
   1393      54.9039      0.00000
   1394      54.9247      0.00000
   1395      54.9472      0.00000
   1396      54.9759      0.00000
   1397      54.9901      0.00000
   1398      55.0056      0.00000
   1399      55.0425      0.00000
   1400      55.0939      0.00000
   1401      55.1124      0.00000
   1402      55.1517      0.00000
   1403      55.1663      0.00000
   1404      55.1993      0.00000
   1405      55.2077      0.00000
   1406      55.2525      0.00000
   1407      55.2878      0.00000
   1408      55.3047      0.00000
   1409      55.3360      0.00000
   1410      55.3395      0.00000
   1411      55.3686      0.00000
   1412      55.3894      0.00000
   1413      55.4066      0.00000
   1414      55.4328      0.00000
   1415      55.4499      0.00000
   1416      55.4621      0.00000
   1417      55.5004      0.00000
   1418      55.5257      0.00000
   1419      55.5598      0.00000
   1420      55.5977      0.00000
   1421      55.6161      0.00000
   1422      55.6341      0.00000
   1423      55.6487      0.00000
   1424      55.6901      0.00000
   1425      55.6986      0.00000
   1426      55.7484      0.00000
   1427      55.7704      0.00000
   1428      55.7858      0.00000
   1429      55.8102      0.00000
   1430      55.8274      0.00000
   1431      55.8342      0.00000
   1432      55.8727      0.00000
   1433      55.9005      0.00000
   1434      55.9088      0.00000
   1435      55.9580      0.00000
   1436      55.9714      0.00000
   1437      55.9910      0.00000
   1438      56.0290      0.00000
   1439      56.0718      0.00000
   1440      56.0964      0.00000
   1441      56.1134      0.00000
   1442      56.1272      0.00000
   1443      56.1413      0.00000
   1444      56.1861      0.00000
   1445      56.2151      0.00000
   1446      56.2373      0.00000
   1447      56.2669      0.00000
   1448      56.2835      0.00000
   1449      56.3115      0.00000
   1450      56.3502      0.00000
   1451      56.3744      0.00000
   1452      56.3848      0.00000
   1453      56.4226      0.00000
   1454      56.4574      0.00000
   1455      56.4629      0.00000
   1456      56.4918      0.00000
   1457      56.4993      0.00000
   1458      56.5174      0.00000
   1459      56.5647      0.00000
   1460      56.6329      0.00000
   1461      56.6392      0.00000
   1462      56.6578      0.00000
   1463      56.6722      0.00000
   1464      56.6892      0.00000
   1465      56.7475      0.00000
   1466      56.7990      0.00000
   1467      56.8075      0.00000
   1468      56.8200      0.00000
   1469      56.8379      0.00000
   1470      56.8514      0.00000
   1471      56.8936      0.00000
   1472      56.9185      0.00000
   1473      56.9587      0.00000
   1474      56.9831      0.00000
   1475      57.0060      0.00000
   1476      57.0534      0.00000
   1477      57.0750      0.00000
   1478      57.0865      0.00000
   1479      57.1162      0.00000
   1480      57.1534      0.00000
   1481      57.1907      0.00000
   1482      57.2181      0.00000
   1483      57.2354      0.00000
   1484      57.2868      0.00000
   1485      57.3120      0.00000
   1486      57.3371      0.00000
   1487      57.3501      0.00000
   1488      57.3653      0.00000
   1489      57.4138      0.00000
   1490      57.4420      0.00000
   1491      57.4939      0.00000
   1492      57.5489      0.00000
   1493      57.5723      0.00000
   1494      57.6046      0.00000
   1495      57.6262      0.00000
   1496      57.6572      0.00000
   1497      57.6718      0.00000
   1498      57.7060      0.00000
   1499      57.7135      0.00000
   1500      57.7669      0.00000
   1501      57.7730      0.00000
   1502      57.8470      0.00000
   1503      57.8590      0.00000
   1504      57.9239      0.00000
   1505      57.9497      0.00000
   1506      57.9909      0.00000
   1507      57.9947      0.00000
   1508      58.0160      0.00000
   1509      58.0432      0.00000
   1510      58.0766      0.00000
   1511      58.0966      0.00000
   1512      58.1194      0.00000
   1513      58.1458      0.00000
   1514      58.1788      0.00000
   1515      58.2320      0.00000
   1516      58.2544      0.00000
   1517      58.2921      0.00000
   1518      58.3544      0.00000
   1519      58.3605      0.00000
   1520      58.4320      0.00000
   1521      58.4377      0.00000
   1522      58.4412      0.00000
   1523      58.4902      0.00000
   1524      58.5104      0.00000
   1525      58.5382      0.00000
   1526      58.5723      0.00000
   1527      58.6131      0.00000
   1528      58.6417      0.00000
   1529      58.6712      0.00000
   1530      58.7109      0.00000
   1531      58.7556      0.00000
   1532      58.7711      0.00000
   1533      58.8006      0.00000
   1534      58.8203      0.00000
   1535      58.8382      0.00000
   1536      58.9067      0.00000
   1537      58.9195      0.00000
   1538      58.9420      0.00000
   1539      58.9982      0.00000
   1540      59.0233      0.00000
   1541      59.0266      0.00000
   1542      59.0506      0.00000
   1543      59.0963      0.00000
   1544      59.1045      0.00000
   1545      59.1282      0.00000
   1546      59.1456      0.00000
   1547      59.1700      0.00000
   1548      59.2009      0.00000
   1549      59.2261      0.00000
   1550      59.2526      0.00000
   1551      59.2808      0.00000
   1552      59.3143      0.00000
   1553      59.3272      0.00000
   1554      59.3326      0.00000
   1555      59.3704      0.00000
   1556      59.4247      0.00000
   1557      59.4639      0.00000
   1558      59.4787      0.00000
   1559      59.5047      0.00000
   1560      59.5394      0.00000
   1561      59.6148      0.00000
   1562      59.6225      0.00000
   1563      59.6676      0.00000
   1564      59.7010      0.00000
   1565      59.7228      0.00000
   1566      59.7298      0.00000
   1567      59.7528      0.00000
   1568      59.8161      0.00000
   1569      59.8447      0.00000
   1570      59.8604      0.00000
   1571      59.8965      0.00000
   1572      59.9217      0.00000
   1573      59.9623      0.00000
   1574      59.9871      0.00000
   1575      60.0084      0.00000
   1576      60.0300      0.00000
   1577      60.0536      0.00000
   1578      60.1143      0.00000
   1579      60.1279      0.00000
   1580      60.1320      0.00000
   1581      60.1444      0.00000
   1582      60.1648      0.00000
   1583      60.1910      0.00000
   1584      60.2114      0.00000
   1585      60.2389      0.00000
   1586      60.2441      0.00000
   1587      60.2671      0.00000
   1588      60.3012      0.00000
   1589      60.3404      0.00000
   1590      60.3596      0.00000
   1591      60.3803      0.00000
   1592      60.4334      0.00000
   1593      60.4413      0.00000
   1594      60.4483      0.00000
   1595      60.5038      0.00000
   1596      60.5192      0.00000
   1597      60.5435      0.00000
   1598      60.5858      0.00000
   1599      60.6095      0.00000
   1600      60.6389      0.00000
   1601      60.6556      0.00000
   1602      60.6676      0.00000
   1603      60.6983      0.00000
   1604      60.7174      0.00000
   1605      60.7483      0.00000
   1606      60.7557      0.00000
   1607      60.7680      0.00000
   1608      60.7891      0.00000
   1609      60.8263      0.00000
   1610      60.8394      0.00000
   1611      60.8668      0.00000
   1612      60.8933      0.00000
   1613      60.9119      0.00000
   1614      60.9293      0.00000
   1615      60.9763      0.00000
   1616      60.9869      0.00000
   1617      61.0078      0.00000
   1618      61.0465      0.00000
   1619      61.0728      0.00000
   1620      61.0901      0.00000
   1621      61.1213      0.00000
   1622      61.1582      0.00000
   1623      61.1886      0.00000
   1624      61.2007      0.00000
   1625      61.2346      0.00000
   1626      61.2756      0.00000
   1627      61.2787      0.00000
   1628      61.3022      0.00000
   1629      61.3192      0.00000
   1630      61.3469      0.00000
   1631      61.3648      0.00000
   1632      61.3824      0.00000
   1633      61.4176      0.00000
   1634      61.4442      0.00000
   1635      61.4677      0.00000
   1636      61.5040      0.00000
   1637      61.5514      0.00000
   1638      61.5579      0.00000
   1639      61.5838      0.00000
   1640      61.5961      0.00000
   1641      61.6201      0.00000
   1642      61.6295      0.00000
   1643      61.6598      0.00000
   1644      61.6906      0.00000
   1645      61.7125      0.00000
   1646      61.7323      0.00000
   1647      61.7609      0.00000
   1648      61.7803      0.00000
   1649      61.8074      0.00000
   1650      61.8217      0.00000
   1651      61.8542      0.00000
   1652      61.8670      0.00000
   1653      61.9032      0.00000
   1654      61.9367      0.00000
   1655      61.9884      0.00000
   1656      61.9941      0.00000
   1657      62.0145      0.00000
   1658      62.0531      0.00000
   1659      62.0654      0.00000
   1660      62.0950      0.00000
   1661      62.1139      0.00000
   1662      62.1497      0.00000
   1663      62.1645      0.00000
   1664      62.1777      0.00000
   1665      62.2120      0.00000
   1666      62.2535      0.00000
   1667      62.2678      0.00000
   1668      62.2753      0.00000
   1669      62.2950      0.00000
   1670      62.3250      0.00000
   1671      62.3560      0.00000
   1672      62.3654      0.00000
   1673      62.3776      0.00000
   1674      62.4121      0.00000
   1675      62.4409      0.00000
   1676      62.4609      0.00000
   1677      62.5003      0.00000
   1678      62.5227      0.00000
   1679      62.5478      0.00000
   1680      62.5589      0.00000
   1681      62.5976      0.00000
   1682      62.6215      0.00000
   1683      62.6378      0.00000
   1684      62.6550      0.00000
   1685      62.6845      0.00000
   1686      62.7037      0.00000
   1687      62.7246      0.00000
   1688      62.7535      0.00000
   1689      62.7685      0.00000
   1690      62.7835      0.00000
   1691      62.8130      0.00000
   1692      62.8162      0.00000
   1693      62.8639      0.00000
   1694      62.8911      0.00000
   1695      62.9306      0.00000
   1696      62.9571      0.00000
   1697      62.9742      0.00000
   1698      63.0281      0.00000
   1699      63.0456      0.00000
   1700      63.0790      0.00000
   1701      63.1039      0.00000
   1702      63.1173      0.00000
   1703      63.1380      0.00000
   1704      63.1486      0.00000
   1705      63.1793      0.00000
   1706      63.2404      0.00000
   1707      63.2749      0.00000
   1708      63.2918      0.00000
   1709      63.3367      0.00000
   1710      63.3432      0.00000
   1711      63.3874      0.00000
   1712      63.3940      0.00000
   1713      63.4341      0.00000
   1714      63.4601      0.00000
   1715      63.4754      0.00000
   1716      63.4800      0.00000
   1717      63.5220      0.00000
   1718      63.5578      0.00000
   1719      63.5851      0.00000
   1720      63.6093      0.00000
   1721      63.6355      0.00000
   1722      63.6807      0.00000
   1723      63.6838      0.00000
   1724      63.7036      0.00000
   1725      63.7164      0.00000
   1726      63.7367      0.00000
   1727      63.7712      0.00000
   1728      63.7914      0.00000
   1729      63.8146      0.00000
   1730      63.8386      0.00000
   1731      63.8750      0.00000
   1732      63.8848      0.00000
   1733      63.9030      0.00000
   1734      63.9479      0.00000
   1735      63.9838      0.00000
   1736      64.0051      0.00000
   1737      64.0387      0.00000
   1738      64.0590      0.00000
   1739      64.0839      0.00000
   1740      64.1125      0.00000
   1741      64.1679      0.00000
   1742      64.1748      0.00000
   1743      64.2024      0.00000
   1744      64.2314      0.00000
   1745      64.2781      0.00000
   1746      64.2826      0.00000
   1747      64.3169      0.00000
   1748      64.3481      0.00000
   1749      64.3864      0.00000
   1750      64.3967      0.00000
   1751      64.4169      0.00000
   1752      64.4663      0.00000
   1753      64.5110      0.00000
   1754      64.5655      0.00000
   1755      64.5946      0.00000
   1756      64.6223      0.00000
   1757      64.6506      0.00000
   1758      64.6720      0.00000
   1759      64.7037      0.00000
   1760      64.7341      0.00000
   1761      64.7482      0.00000
   1762      64.7924      0.00000
   1763      64.7971      0.00000
   1764      64.8202      0.00000
   1765      64.8559      0.00000
   1766      64.8784      0.00000
   1767      64.9023      0.00000
   1768      64.9639      0.00000
   1769      64.9852      0.00000
   1770      65.0115      0.00000
   1771      65.0375      0.00000
   1772      65.0535      0.00000
   1773      65.0905      0.00000
   1774      65.0949      0.00000
   1775      65.1053      0.00000
   1776      65.1545      0.00000
   1777      65.1603      0.00000
   1778      65.2063      0.00000
   1779      65.2246      0.00000
   1780      65.2379      0.00000
   1781      65.2484      0.00000
   1782      65.2747      0.00000
   1783      65.3041      0.00000
   1784      65.3177      0.00000
   1785      65.3501      0.00000
   1786      65.3886      0.00000
   1787      65.4007      0.00000
   1788      65.4235      0.00000
   1789      65.4347      0.00000
   1790      65.4479      0.00000
   1791      65.4861      0.00000
   1792      65.5032      0.00000
   1793      65.5354      0.00000
   1794      65.5575      0.00000
   1795      65.5756      0.00000
   1796      65.5861      0.00000
   1797      65.6253      0.00000
   1798      65.6687      0.00000
   1799      65.6827      0.00000
   1800      65.6995      0.00000
   1801      65.7181      0.00000
   1802      65.7484      0.00000
   1803      65.7556      0.00000
   1804      65.7899      0.00000
   1805      65.8137      0.00000
   1806      65.8534      0.00000
   1807      65.8783      0.00000
   1808      65.9081      0.00000
   1809      65.9380      0.00000
   1810      65.9727      0.00000
   1811      65.9899      0.00000
   1812      66.0174      0.00000
   1813      66.0387      0.00000
   1814      66.0569      0.00000
   1815      66.0865      0.00000
   1816      66.1125      0.00000
   1817      66.1212      0.00000
   1818      66.1484      0.00000
   1819      66.1513      0.00000
   1820      66.1871      0.00000
   1821      66.2089      0.00000
   1822      66.2484      0.00000
   1823      66.2791      0.00000
   1824      66.3197      0.00000
   1825      66.3370      0.00000
   1826      66.3465      0.00000
   1827      66.3829      0.00000
   1828      66.3987      0.00000
   1829      66.4180      0.00000
   1830      66.4526      0.00000
   1831      66.4664      0.00000
   1832      66.4913      0.00000
   1833      66.5234      0.00000
   1834      66.5449      0.00000
   1835      66.5826      0.00000
   1836      66.6029      0.00000
   1837      66.6203      0.00000
   1838      66.6539      0.00000
   1839      66.6757      0.00000
   1840      66.7194      0.00000
   1841      66.7370      0.00000
   1842      66.7550      0.00000
   1843      66.7813      0.00000
   1844      66.8126      0.00000
   1845      66.8491      0.00000
   1846      66.8672      0.00000
   1847      66.8930      0.00000
   1848      66.9283      0.00000
   1849      66.9385      0.00000
   1850      66.9530      0.00000
   1851      66.9910      0.00000
   1852      67.0161      0.00000
   1853      67.0698      0.00000
   1854      67.0867      0.00000
   1855      67.0994      0.00000
   1856      67.1594      0.00000
   1857      67.1931      0.00000
   1858      67.2073      0.00000
   1859      67.2157      0.00000
   1860      67.2736      0.00000
   1861      67.3017      0.00000
   1862      67.3542      0.00000
   1863      67.3619      0.00000
   1864      67.3875      0.00000
   1865      67.4104      0.00000
   1866      67.4494      0.00000
   1867      67.4684      0.00000
   1868      67.5087      0.00000
   1869      67.5436      0.00000
   1870      67.5690      0.00000
   1871      67.5734      0.00000
   1872      67.6001      0.00000
   1873      67.6814      0.00000
   1874      67.7030      0.00000
   1875      67.7217      0.00000
   1876      67.7546      0.00000
   1877      67.7724      0.00000
   1878      67.7895      0.00000
   1879      67.8501      0.00000
   1880      67.8558      0.00000
   1881      67.8835      0.00000
   1882      67.9078      0.00000
   1883      67.9327      0.00000
   1884      67.9423      0.00000
   1885      67.9788      0.00000
   1886      68.0026      0.00000
   1887      68.0656      0.00000
   1888      68.0715      0.00000
   1889      68.0804      0.00000
   1890      68.1170      0.00000
   1891      68.1617      0.00000
   1892      68.1849      0.00000
   1893      68.2050      0.00000
   1894      68.2414      0.00000
   1895      68.2517      0.00000
   1896      68.2839      0.00000
   1897      68.3121      0.00000
   1898      68.3538      0.00000
   1899      68.3740      0.00000
   1900      68.4055      0.00000
   1901      68.4124      0.00000
   1902      68.4406      0.00000
   1903      68.4751      0.00000
   1904      68.5232      0.00000
   1905      68.5754      0.00000
   1906      68.5897      0.00000
   1907      68.6069      0.00000
   1908      68.6342      0.00000
   1909      68.6689      0.00000
   1910      68.6771      0.00000
   1911      68.7199      0.00000
   1912      68.7469      0.00000
   1913      68.7583      0.00000
   1914      68.7915      0.00000
   1915      68.8189      0.00000
   1916      68.8306      0.00000
   1917      68.8359      0.00000
   1918      68.8618      0.00000
   1919      68.9081      0.00000
   1920      68.9318      0.00000
   1921      68.9653      0.00000
   1922      68.9958      0.00000
   1923      69.0171      0.00000
   1924      69.0436      0.00000
   1925      69.0659      0.00000
   1926      69.0946      0.00000
   1927      69.1151      0.00000
   1928      69.1358      0.00000
   1929      69.1642      0.00000
   1930      69.1894      0.00000
   1931      69.2301      0.00000
   1932      69.2363      0.00000
   1933      69.2444      0.00000
   1934      69.2543      0.00000
   1935      69.2899      0.00000
   1936      69.3625      0.00000
   1937      69.3891      0.00000
   1938      69.3965      0.00000
   1939      69.4176      0.00000
   1940      69.4467      0.00000
   1941      69.4677      0.00000
   1942      69.5168      0.00000
   1943      69.5240      0.00000
   1944      69.5914      0.00000
   1945      69.5929      0.00000
   1946      69.6204      0.00000
   1947      69.6569      0.00000
   1948      69.6816      0.00000
   1949      69.7020      0.00000
   1950      69.7343      0.00000
   1951      69.7449      0.00000
   1952      69.7916      0.00000
   1953      69.8180      0.00000
   1954      69.8545      0.00000
   1955      69.8775      0.00000
   1956      69.9105      0.00000
   1957      69.9586      0.00000
   1958      69.9794      0.00000
   1959      70.0104      0.00000
   1960      70.0424      0.00000
   1961      70.0920      0.00000
   1962      70.1115      0.00000
   1963      70.1480      0.00000
   1964      70.1590      0.00000
   1965      70.1905      0.00000
   1966      70.2071      0.00000
   1967      70.2488      0.00000
   1968      70.2898      0.00000
   1969      70.3051      0.00000
   1970      70.3174      0.00000
   1971      70.3481      0.00000
   1972      70.3815      0.00000
   1973      70.3889      0.00000
   1974      70.4223      0.00000
   1975      70.4427      0.00000
   1976      70.4769      0.00000
   1977      70.5205      0.00000
   1978      70.5370      0.00000
   1979      70.5584      0.00000
   1980      70.5720      0.00000
   1981      70.5921      0.00000
   1982      70.6439      0.00000
   1983      70.6512      0.00000
   1984      70.6770      0.00000
   1985      70.6863      0.00000
   1986      70.7040      0.00000
   1987      70.7323      0.00000
   1988      70.7790      0.00000
   1989      70.7841      0.00000
   1990      70.8081      0.00000
   1991      70.8195      0.00000
   1992      70.8565      0.00000
   1993      70.8923      0.00000
   1994      70.9052      0.00000
   1995      70.9190      0.00000
   1996      70.9594      0.00000
   1997      70.9638      0.00000
   1998      70.9845      0.00000
   1999      71.0126      0.00000
   2000      71.0347      0.00000
   2001      71.0577      0.00000
   2002      71.0796      0.00000
   2003      71.0922      0.00000
   2004      71.1276      0.00000
   2005      71.1430      0.00000
   2006      71.1702      0.00000
   2007      71.2084      0.00000
   2008      71.2221      0.00000
   2009      71.2731      0.00000
   2010      71.2928      0.00000
   2011      71.3332      0.00000
   2012      71.3436      0.00000
   2013      71.3599      0.00000
   2014      71.3669      0.00000
   2015      71.4014      0.00000
   2016      71.4430      0.00000
   2017      71.4807      0.00000
   2018      71.5059      0.00000
   2019      71.5416      0.00000
   2020      71.5554      0.00000
   2021      71.5803      0.00000
   2022      71.6168      0.00000
   2023      71.6262      0.00000
   2024      71.6505      0.00000
   2025      71.6697      0.00000
   2026      71.6859      0.00000
   2027      71.7154      0.00000
   2028      71.7475      0.00000
   2029      71.7599      0.00000
   2030      71.7799      0.00000
   2031      71.7975      0.00000
   2032      71.8120      0.00000
   2033      71.8591      0.00000
   2034      71.8903      0.00000
   2035      71.9165      0.00000
   2036      71.9388      0.00000
   2037      71.9548      0.00000
   2038      71.9832      0.00000
   2039      72.0004      0.00000
   2040      72.0258      0.00000
   2041      72.0658      0.00000
   2042      72.0864      0.00000
   2043      72.0931      0.00000
   2044      72.1120      0.00000
   2045      72.1711      0.00000
   2046      72.1778      0.00000
   2047      72.2125      0.00000
   2048      72.2249      0.00000
   2049      72.2362      0.00000
   2050      72.2522      0.00000
   2051      72.2839      0.00000
   2052      72.3184      0.00000
   2053      72.3244      0.00000
   2054      72.3622      0.00000
   2055      72.3735      0.00000
   2056      72.4081      0.00000
   2057      72.4342      0.00000
   2058      72.4517      0.00000
   2059      72.4892      0.00000
   2060      72.5132      0.00000
   2061      72.5245      0.00000
   2062      72.5650      0.00000
   2063      72.5744      0.00000
   2064      72.5871      0.00000
   2065      72.6093      0.00000
   2066      72.6262      0.00000
   2067      72.6632      0.00000
   2068      72.6973      0.00000
   2069      72.7282      0.00000
   2070      72.7371      0.00000
   2071      72.7538      0.00000
   2072      72.7835      0.00000
   2073      72.8120      0.00000
   2074      72.8261      0.00000
   2075      72.8536      0.00000
   2076      72.9006      0.00000
   2077      72.9114      0.00000
   2078      72.9189      0.00000
   2079      72.9507      0.00000
   2080      73.0052      0.00000
   2081      73.0476      0.00000
   2082      73.0493      0.00000
   2083      73.0845      0.00000
   2084      73.1010      0.00000
   2085      73.1314      0.00000
   2086      73.1570      0.00000
   2087      73.1732      0.00000
   2088      73.2032      0.00000
   2089      73.2177      0.00000
   2090      73.2242      0.00000
   2091      73.2501      0.00000
   2092      73.2650      0.00000
   2093      73.3014      0.00000
   2094      73.3557      0.00000
   2095      73.3761      0.00000
   2096      73.4149      0.00000
   2097      73.4482      0.00000
   2098      73.4736      0.00000
   2099      73.4875      0.00000
   2100      73.5113      0.00000
   2101      73.5362      0.00000
   2102      73.5491      0.00000
   2103      73.5615      0.00000
   2104      73.5974      0.00000
   2105      73.6188      0.00000
   2106      73.6408      0.00000
   2107      73.6541      0.00000
   2108      73.6794      0.00000
   2109      73.7005      0.00000
   2110      73.7321      0.00000
   2111      73.7432      0.00000
   2112      73.7542      0.00000
   2113      73.7876      0.00000
   2114      73.8105      0.00000
   2115      73.8551      0.00000
   2116      73.8664      0.00000
   2117      73.9170      0.00000
   2118      73.9306      0.00000
   2119      73.9539      0.00000
   2120      73.9674      0.00000
   2121      74.0174      0.00000
   2122      74.0335      0.00000
   2123      74.0759      0.00000
   2124      74.1186      0.00000
   2125      74.1280      0.00000
   2126      74.1513      0.00000
   2127      74.1915      0.00000
   2128      74.2283      0.00000
   2129      74.2454      0.00000
   2130      74.2606      0.00000
   2131      74.3018      0.00000
   2132      74.3171      0.00000
   2133      74.3367      0.00000
   2134      74.3512      0.00000
   2135      74.4003      0.00000
   2136      74.4024      0.00000
   2137      74.4306      0.00000
   2138      74.4379      0.00000
   2139      74.4635      0.00000
   2140      74.4933      0.00000
   2141      74.5150      0.00000
   2142      74.5381      0.00000
   2143      74.5456      0.00000
   2144      74.5636      0.00000
   2145      74.5972      0.00000
   2146      74.6105      0.00000
   2147      74.6380      0.00000
   2148      74.6643      0.00000
   2149      74.7151      0.00000
   2150      74.7232      0.00000
   2151      74.7789      0.00000
   2152      74.8216      0.00000
   2153      74.8280      0.00000
   2154      74.8584      0.00000
   2155      74.8792      0.00000
   2156      74.9027      0.00000
   2157      74.9212      0.00000
   2158      74.9440      0.00000
   2159      74.9739      0.00000
   2160      74.9945      0.00000
   2161      75.0157      0.00000
   2162      75.0609      0.00000
   2163      75.0704      0.00000
   2164      75.0952      0.00000
   2165      75.1208      0.00000
   2166      75.1563      0.00000
   2167      75.1971      0.00000
   2168      75.2219      0.00000
   2169      75.2298      0.00000
   2170      75.2577      0.00000
   2171      75.2741      0.00000
   2172      75.2990      0.00000
   2173      75.3047      0.00000
   2174      75.3543      0.00000
   2175      75.3766      0.00000
   2176      75.4064      0.00000
   2177      75.4566      0.00000
   2178      75.4790      0.00000
   2179      75.5025      0.00000
   2180      75.5338      0.00000
   2181      75.5514      0.00000
   2182      75.5715      0.00000
   2183      75.5889      0.00000
   2184      75.6443      0.00000
   2185      75.6501      0.00000
   2186      75.6712      0.00000
   2187      75.7140      0.00000
   2188      75.7428      0.00000
   2189      75.7546      0.00000
   2190      75.7629      0.00000
   2191      75.8206      0.00000
   2192      75.8342      0.00000
   2193      75.8632      0.00000
   2194      75.8819      0.00000
   2195      75.9053      0.00000
   2196      75.9321      0.00000
   2197      75.9471      0.00000
   2198      75.9688      0.00000
   2199      76.0085      0.00000
   2200      76.0227      0.00000
   2201      76.0444      0.00000
   2202      76.0882      0.00000
   2203      76.0972      0.00000
   2204      76.1288      0.00000
   2205      76.1495      0.00000
   2206      76.1566      0.00000
   2207      76.1830      0.00000
   2208      76.2005      0.00000
   2209      76.2196      0.00000
   2210      76.2565      0.00000
   2211      76.2809      0.00000
   2212      76.2972      0.00000
   2213      76.3195      0.00000
   2214      76.3381      0.00000
   2215      76.3436      0.00000
   2216      76.3920      0.00000
   2217      76.4332      0.00000
   2218      76.4452      0.00000
   2219      76.4584      0.00000
   2220      76.4812      0.00000
   2221      76.5359      0.00000
   2222      76.5602      0.00000
   2223      76.6207      0.00000
   2224      76.6281      0.00000
   2225      76.6366      0.00000
   2226      76.6616      0.00000
   2227      76.6703      0.00000
   2228      76.7173      0.00000
   2229      76.7314      0.00000
   2230      76.7687      0.00000
   2231      76.7935      0.00000
   2232      76.7967      0.00000
   2233      76.8380      0.00000
   2234      76.8975      0.00000
   2235      76.9135      0.00000
   2236      76.9540      0.00000
   2237      76.9646      0.00000
   2238      76.9736      0.00000
   2239      77.0056      0.00000
   2240      77.0269      0.00000
   2241      77.0829      0.00000
   2242      77.1048      0.00000
   2243      77.1180      0.00000
   2244      77.1295      0.00000
   2245      77.1892      0.00000
   2246      77.2099      0.00000
   2247      77.2280      0.00000
   2248      77.2485      0.00000
   2249      77.3088      0.00000
   2250      77.3328      0.00000
   2251      77.3423      0.00000
   2252      77.3677      0.00000
   2253      77.3713      0.00000
   2254      77.3977      0.00000
   2255      77.4470      0.00000
   2256      77.4879      0.00000
   2257      77.5130      0.00000
   2258      77.5393      0.00000
   2259      77.5563      0.00000
   2260      77.5776      0.00000
   2261      77.6044      0.00000
   2262      77.6445      0.00000
   2263      77.6601      0.00000
   2264      77.6869      0.00000
   2265      77.7111      0.00000
   2266      77.7363      0.00000
   2267      77.7590      0.00000
   2268      77.7736      0.00000
   2269      77.8111      0.00000
   2270      77.8230      0.00000
   2271      77.8377      0.00000
   2272      77.8769      0.00000
   2273      77.8952      0.00000
   2274      77.9469      0.00000
   2275      77.9641      0.00000
   2276      77.9861      0.00000
   2277      77.9999      0.00000
   2278      78.0138      0.00000
   2279      78.0456      0.00000
   2280      78.0630      0.00000
   2281      78.0912      0.00000
   2282      78.1042      0.00000
   2283      78.1212      0.00000
   2284      78.1330      0.00000
   2285      78.1676      0.00000
   2286      78.2100      0.00000
   2287      78.2358      0.00000
   2288      78.2569      0.00000
   2289      78.2929      0.00000
   2290      78.3056      0.00000
   2291      78.3320      0.00000
   2292      78.3536      0.00000
   2293      78.3718      0.00000
   2294      78.4021      0.00000
   2295      78.4220      0.00000
   2296      78.4442      0.00000
   2297      78.4550      0.00000
   2298      78.4819      0.00000
   2299      78.5379      0.00000
   2300      78.5480      0.00000
   2301      78.5699      0.00000
   2302      78.6011      0.00000
   2303      78.6189      0.00000
   2304      78.6709      0.00000
   2305      78.6913      0.00000
   2306      78.7073      0.00000
   2307      78.7254      0.00000
   2308      78.7710      0.00000
   2309      78.7809      0.00000
   2310      78.7976      0.00000
   2311      78.8346      0.00000
   2312      78.8545      0.00000
   2313      78.9030      0.00000
   2314      78.9239      0.00000
   2315      78.9428      0.00000
   2316      78.9529      0.00000
   2317      78.9877      0.00000
   2318      79.0205      0.00000
   2319      79.0561      0.00000
   2320      79.0826      0.00000
   2321      79.1124      0.00000
   2322      79.1574      0.00000
   2323      79.1633      0.00000
   2324      79.2031      0.00000
   2325      79.2153      0.00000
   2326      79.2376      0.00000
   2327      79.2786      0.00000
   2328      79.2872      0.00000
   2329      79.3232      0.00000
   2330      79.3675      0.00000
   2331      79.3722      0.00000
   2332      79.3883      0.00000
   2333      79.4245      0.00000
   2334      79.4425      0.00000
   2335      79.4795      0.00000
   2336      79.5136      0.00000
   2337      79.5434      0.00000
   2338      79.5747      0.00000
   2339      79.6004      0.00000
   2340      79.6097      0.00000
   2341      79.6210      0.00000
   2342      79.6523      0.00000
   2343      79.6769      0.00000
   2344      79.7043      0.00000
   2345      79.7153      0.00000
   2346      79.7801      0.00000
   2347      79.8042      0.00000
   2348      79.8153      0.00000
   2349      79.8751      0.00000
   2350      79.8869      0.00000
   2351      79.9186      0.00000
   2352      79.9397      0.00000
   2353      79.9760      0.00000
   2354      79.9860      0.00000
   2355      80.0234      0.00000
   2356      80.0287      0.00000
   2357      80.0479      0.00000
   2358      80.0589      0.00000
   2359      80.0656      0.00000
   2360      80.0859      0.00000
   2361      80.1321      0.00000
   2362      80.1535      0.00000
   2363      80.1809      0.00000
   2364      80.1939      0.00000
   2365      80.2306      0.00000
   2366      80.2697      0.00000
   2367      80.2876      0.00000
   2368      80.3292      0.00000
   2369      80.3408      0.00000
   2370      80.3466      0.00000
   2371      80.3703      0.00000
   2372      80.3877      0.00000
   2373      80.4123      0.00000
   2374      80.4608      0.00000
   2375      80.4803      0.00000
   2376      80.5083      0.00000
   2377      80.5340      0.00000
   2378      80.5551      0.00000
   2379      80.5635      0.00000
   2380      80.5727      0.00000
   2381      80.5995      0.00000
   2382      80.6088      0.00000
   2383      80.6468      0.00000
   2384      80.6688      0.00000
   2385      80.7021      0.00000
   2386      80.7135      0.00000
   2387      80.7526      0.00000
   2388      80.7745      0.00000
   2389      80.7964      0.00000
   2390      80.8096      0.00000
   2391      80.8664      0.00000
   2392      80.8767      0.00000
   2393      80.8950      0.00000
   2394      80.9144      0.00000
   2395      80.9539      0.00000
   2396      80.9731      0.00000
   2397      80.9798      0.00000
   2398      81.0169      0.00000
   2399      81.0491      0.00000
   2400      81.0690      0.00000
   2401      81.0726      0.00000
   2402      81.1132      0.00000
   2403      81.1213      0.00000
   2404      81.1436      0.00000
   2405      81.1651      0.00000
   2406      81.1904      0.00000
   2407      81.2140      0.00000
   2408      81.2236      0.00000
   2409      81.2753      0.00000
   2410      81.2823      0.00000
   2411      81.3050      0.00000
   2412      81.3330      0.00000
   2413      81.3422      0.00000
   2414      81.3647      0.00000
   2415      81.3883      0.00000
   2416      81.4260      0.00000
   2417      81.4597      0.00000
   2418      81.5000      0.00000
   2419      81.5060      0.00000
   2420      81.5113      0.00000
   2421      81.5298      0.00000
   2422      81.5558      0.00000
   2423      81.5672      0.00000
   2424      81.5990      0.00000
   2425      81.6326      0.00000
   2426      81.6425      0.00000
   2427      81.6719      0.00000
   2428      81.6808      0.00000
   2429      81.7046      0.00000
   2430      81.7258      0.00000
   2431      81.7478      0.00000
   2432      81.7642      0.00000
   2433      81.8012      0.00000
   2434      81.8042      0.00000
   2435      81.8298      0.00000
   2436      81.8452      0.00000
   2437      81.8687      0.00000
   2438      81.8950      0.00000
   2439      81.9056      0.00000
   2440      81.9154      0.00000
   2441      81.9369      0.00000
   2442      81.9479      0.00000
   2443      81.9562      0.00000
   2444      81.9992      0.00000
   2445      82.0449      0.00000
   2446      82.0627      0.00000
   2447      82.0795      0.00000
   2448      82.0996      0.00000
   2449      82.1170      0.00000
   2450      82.1327      0.00000
   2451      82.1529      0.00000
   2452      82.1820      0.00000
   2453      82.2005      0.00000
   2454      82.2139      0.00000
   2455      82.2293      0.00000
   2456      82.2575      0.00000
   2457      82.2751      0.00000
   2458      82.2969      0.00000
   2459      82.3231      0.00000
   2460      82.3449      0.00000
   2461      82.3520      0.00000
   2462      82.3549      0.00000
   2463      82.4001      0.00000
   2464      82.4159      0.00000
   2465      82.4357      0.00000
   2466      82.4700      0.00000
   2467      82.4756      0.00000
   2468      82.4841      0.00000
   2469      82.5230      0.00000
   2470      82.5434      0.00000
   2471      82.5668      0.00000
   2472      82.5721      0.00000
   2473      82.6110      0.00000
   2474      82.6338      0.00000
   2475      82.6624      0.00000
   2476      82.6697      0.00000
   2477      82.6837      0.00000
   2478      82.7150      0.00000
   2479      82.7207      0.00000
   2480      82.7314      0.00000
   2481      82.7463      0.00000
   2482      82.7813      0.00000
   2483      82.8002      0.00000
   2484      82.8223      0.00000
   2485      82.8540      0.00000
   2486      82.8769      0.00000
   2487      82.8902      0.00000
   2488      82.9054      0.00000
   2489      82.9226      0.00000
   2490      82.9531      0.00000
   2491      82.9620      0.00000
   2492      82.9936      0.00000
   2493      83.0159      0.00000
   2494      83.0352      0.00000
   2495      83.0497      0.00000
   2496      83.0679      0.00000
   2497      83.0910      0.00000
   2498      83.0968      0.00000
   2499      83.1291      0.00000
   2500      83.1528      0.00000
   2501      83.1801      0.00000
   2502      83.1942      0.00000
   2503      83.2001      0.00000
   2504      83.2220      0.00000
   2505      83.2389      0.00000
   2506      83.2520      0.00000
   2507      83.2649      0.00000
   2508      83.3025      0.00000
   2509      83.3183      0.00000
   2510      83.3293      0.00000
   2511      83.3691      0.00000
   2512      83.3726      0.00000
   2513      83.3824      0.00000
   2514      83.4000      0.00000
   2515      83.4133      0.00000
   2516      83.4323      0.00000
   2517      83.4620      0.00000
   2518      83.4849      0.00000
   2519      83.4930      0.00000
   2520      83.5037      0.00000
   2521      83.5181      0.00000
   2522      83.5320      0.00000
   2523      83.5434      0.00000
   2524      83.5781      0.00000
   2525      83.6039      0.00000
   2526      83.6275      0.00000
   2527      83.6341      0.00000
   2528      83.6455      0.00000
   2529      83.6705      0.00000
   2530      83.6934      0.00000
   2531      83.7201      0.00000
   2532      83.7360      0.00000
   2533      83.7591      0.00000
   2534      83.7777      0.00000
   2535      83.7967      0.00000
   2536      83.8173      0.00000
   2537      83.8300      0.00000
   2538      83.8405      0.00000
   2539      83.8673      0.00000
   2540      83.9201      0.00000
   2541      83.9323      0.00000
   2542      83.9523      0.00000
   2543      83.9814      0.00000
   2544      84.0029      0.00000
   2545      84.0188      0.00000
   2546      84.0371      0.00000
   2547      84.0515      0.00000
   2548      84.0789      0.00000
   2549      84.0981      0.00000
   2550      84.1127      0.00000
   2551      84.1306      0.00000
   2552      84.1538      0.00000
   2553      84.1881      0.00000
   2554      84.2135      0.00000
   2555      84.2155      0.00000
   2556      84.2460      0.00000
   2557      84.2734      0.00000
   2558      84.2848      0.00000
   2559      84.2925      0.00000
   2560      84.3119      0.00000
   2561      84.3295      0.00000
   2562      84.3446      0.00000
   2563      84.3740      0.00000
   2564      84.4121      0.00000
   2565      84.4205      0.00000
   2566      84.4561      0.00000
   2567      84.4720      0.00000
   2568      84.4878      0.00000
   2569      84.5326      0.00000
   2570      84.5451      0.00000
   2571      84.5638      0.00000
   2572      84.5771      0.00000
   2573      84.5900      0.00000
   2574      84.6003      0.00000
   2575      84.6246      0.00000
   2576      84.6483      0.00000
   2577      84.6694      0.00000
   2578      84.6840      0.00000
   2579      84.6893      0.00000
   2580      84.7329      0.00000
   2581      84.7405      0.00000
   2582      84.7526      0.00000
   2583      84.7881      0.00000
   2584      84.8118      0.00000
   2585      84.8394      0.00000
   2586      84.8598      0.00000
   2587      84.8890      0.00000
   2588      84.9085      0.00000
   2589      84.9535      0.00000
   2590      84.9763      0.00000
   2591      84.9895      0.00000
   2592      85.0353      0.00000
   2593      85.0684      0.00000
   2594      85.0829      0.00000
   2595      85.0844      0.00000
   2596      85.1094      0.00000
   2597      85.1272      0.00000
   2598      85.1320      0.00000
   2599      85.1688      0.00000
   2600      85.1905      0.00000
   2601      85.2219      0.00000
   2602      85.2350      0.00000
   2603      85.2515      0.00000
   2604      85.2610      0.00000
   2605      85.3064      0.00000
   2606      85.3600      0.00000
   2607      85.3743      0.00000
   2608      85.3924      0.00000
   2609      85.4333      0.00000
   2610      85.4605      0.00000
   2611      85.4633      0.00000
   2612      85.5140      0.00000
   2613      85.5457      0.00000
   2614      85.5796      0.00000
   2615      85.6094      0.00000
   2616      85.6320      0.00000
   2617      85.6538      0.00000
   2618      85.6624      0.00000
   2619      85.6865      0.00000
   2620      85.6996      0.00000
   2621      85.7518      0.00000
   2622      85.7641      0.00000
   2623      85.7901      0.00000
   2624      85.8143      0.00000
   2625      85.8300      0.00000
   2626      85.8683      0.00000
   2627      85.8843      0.00000
   2628      85.9102      0.00000
   2629      85.9127      0.00000
   2630      85.9354      0.00000
   2631      85.9557      0.00000
   2632      85.9621      0.00000
   2633      85.9824      0.00000
   2634      86.0070      0.00000
   2635      86.0172      0.00000
   2636      86.0296      0.00000
   2637      86.0520      0.00000
   2638      86.0827      0.00000
   2639      86.1222      0.00000
   2640      86.1443      0.00000
   2641      86.1599      0.00000
   2642      86.1978      0.00000
   2643      86.2168      0.00000
   2644      86.2304      0.00000
   2645      86.2433      0.00000
   2646      86.2706      0.00000
   2647      86.3125      0.00000
   2648      86.3275      0.00000
   2649      86.3579      0.00000
   2650      86.3869      0.00000
   2651      86.4059      0.00000
   2652      86.4349      0.00000
   2653      86.4768      0.00000
   2654      86.5035      0.00000
   2655      86.5178      0.00000
   2656      86.5451      0.00000
   2657      86.5469      0.00000
   2658      86.5630      0.00000
   2659      86.5979      0.00000
   2660      86.6265      0.00000
   2661      86.6455      0.00000
   2662      86.6633      0.00000
   2663      86.6827      0.00000
   2664      86.7091      0.00000
   2665      86.7456      0.00000
   2666      86.7576      0.00000
   2667      86.7967      0.00000
   2668      86.8035      0.00000
   2669      86.8449      0.00000
   2670      86.8615      0.00000
   2671      86.8703      0.00000
   2672      86.9096      0.00000
   2673      86.9277      0.00000
   2674      86.9447      0.00000
   2675      86.9588      0.00000
   2676      86.9814      0.00000
   2677      87.0229      0.00000
   2678      87.0425      0.00000
   2679      87.0438      0.00000
   2680      87.0720      0.00000
   2681      87.0857      0.00000
   2682      87.1166      0.00000
   2683      87.1266      0.00000
   2684      87.1649      0.00000
   2685      87.1705      0.00000
   2686      87.1920      0.00000
   2687      87.2109      0.00000
   2688      87.2292      0.00000
   2689      87.2515      0.00000
   2690      87.2737      0.00000
   2691      87.2990      0.00000
   2692      87.3041      0.00000
   2693      87.3453      0.00000
   2694      87.3628      0.00000
   2695      87.3999      0.00000
   2696      87.4215      0.00000
   2697      87.4395      0.00000
   2698      87.4647      0.00000
   2699      87.4739      0.00000
   2700      87.4818      0.00000
   2701      87.5013      0.00000
   2702      87.5155      0.00000
   2703      87.5489      0.00000
   2704      87.5762      0.00000
   2705      87.5816      0.00000
   2706      87.5941      0.00000
   2707      87.6182      0.00000
   2708      87.6279      0.00000
   2709      87.6594      0.00000
   2710      87.7078      0.00000
   2711      87.7150      0.00000
   2712      87.7577      0.00000
   2713      87.7755      0.00000
   2714      87.8025      0.00000
   2715      87.8096      0.00000
   2716      87.8276      0.00000
   2717      87.8526      0.00000
   2718      87.8842      0.00000
   2719      87.9288      0.00000
   2720      87.9317      0.00000
   2721      87.9511      0.00000
   2722      87.9658      0.00000
   2723      87.9998      0.00000
   2724      88.0321      0.00000
   2725      88.0707      0.00000
   2726      88.1150      0.00000
   2727      88.1249      0.00000
   2728      88.1372      0.00000
   2729      88.1450      0.00000
   2730      88.1948      0.00000
   2731      88.2148      0.00000
   2732      88.2317      0.00000
   2733      88.2461      0.00000
   2734      88.2657      0.00000
   2735      88.2882      0.00000
   2736      88.3103      0.00000
   2737      88.3443      0.00000
   2738      88.3649      0.00000
   2739      88.3918      0.00000
   2740      88.4119      0.00000
   2741      88.4415      0.00000
   2742      88.4478      0.00000
   2743      88.4798      0.00000
   2744      88.4928      0.00000
   2745      88.5135      0.00000
   2746      88.5360      0.00000
   2747      88.5437      0.00000
   2748      88.5646      0.00000
   2749      88.5866      0.00000
   2750      88.6128      0.00000
   2751      88.6565      0.00000
   2752      88.6912      0.00000
   2753      88.7113      0.00000
   2754      88.7414      0.00000
   2755      88.7568      0.00000
   2756      88.7652      0.00000
   2757      88.7930      0.00000
   2758      88.8231      0.00000
   2759      88.8482      0.00000
   2760      88.8552      0.00000
   2761      88.8846      0.00000
   2762      88.8927      0.00000
   2763      88.9057      0.00000
   2764      88.9369      0.00000
   2765      88.9717      0.00000
   2766      89.0035      0.00000
   2767      89.0187      0.00000
   2768      89.0262      0.00000
   2769      89.0706      0.00000
   2770      89.0936      0.00000
   2771      89.1137      0.00000
   2772      89.1330      0.00000
   2773      89.1373      0.00000
   2774      89.1679      0.00000
   2775      89.1733      0.00000
   2776      89.1921      0.00000
   2777      89.2139      0.00000
   2778      89.2518      0.00000
   2779      89.2785      0.00000
   2780      89.2950      0.00000
   2781      89.3211      0.00000
   2782      89.3353      0.00000
   2783      89.3493      0.00000
   2784      89.3629      0.00000
   2785      89.3868      0.00000
   2786      89.4101      0.00000
   2787      89.4556      0.00000
   2788      89.4694      0.00000
   2789      89.4886      0.00000
   2790      89.5216      0.00000
   2791      89.5426      0.00000
   2792      89.5583      0.00000
   2793      89.5760      0.00000
   2794      89.5963      0.00000
   2795      89.6243      0.00000
   2796      89.6482      0.00000
   2797      89.6646      0.00000
   2798      89.6675      0.00000
   2799      89.6804      0.00000
   2800      89.7433      0.00000
   2801      89.7576      0.00000
   2802      89.7738      0.00000
   2803      89.7834      0.00000
   2804      89.8259      0.00000
   2805      89.8429      0.00000
   2806      89.8792      0.00000
   2807      89.8988      0.00000
   2808      89.9046      0.00000
   2809      89.9287      0.00000
   2810      89.9487      0.00000
   2811      89.9903      0.00000
   2812      89.9947      0.00000
   2813      90.0299      0.00000
   2814      90.0467      0.00000
   2815      90.0725      0.00000
   2816      90.1069      0.00000
   2817      90.1270      0.00000
   2818      90.1631      0.00000
   2819      90.1739      0.00000
   2820      90.1981      0.00000
   2821      90.2039      0.00000
   2822      90.2096      0.00000
   2823      90.2347      0.00000
   2824      90.2448      0.00000
   2825      90.2764      0.00000
   2826      90.2913      0.00000
   2827      90.3146      0.00000
   2828      90.3477      0.00000
   2829      90.3716      0.00000
   2830      90.3822      0.00000
   2831      90.4142      0.00000
   2832      90.4275      0.00000
   2833      90.4361      0.00000
   2834      90.4787      0.00000
   2835      90.5050      0.00000
   2836      90.5105      0.00000
   2837      90.5403      0.00000
   2838      90.5597      0.00000
   2839      90.5899      0.00000
   2840      90.6107      0.00000
   2841      90.6206      0.00000
   2842      90.6535      0.00000
   2843      90.6891      0.00000
   2844      90.7036      0.00000
   2845      90.7116      0.00000
   2846      90.7466      0.00000
   2847      90.7764      0.00000
   2848      90.7811      0.00000
   2849      90.8041      0.00000
   2850      90.8240      0.00000
   2851      90.8793      0.00000
   2852      90.8950      0.00000
   2853      90.9118      0.00000
   2854      90.9250      0.00000
   2855      90.9634      0.00000
   2856      90.9857      0.00000
   2857      90.9884      0.00000
   2858      90.9996      0.00000
   2859      91.0539      0.00000
   2860      91.0823      0.00000
   2861      91.0956      0.00000
   2862      91.1076      0.00000
   2863      91.1414      0.00000
   2864      91.1581      0.00000
   2865      91.1905      0.00000
   2866      91.1995      0.00000
   2867      91.2239      0.00000
   2868      91.2334      0.00000
   2869      91.2489      0.00000
   2870      91.2863      0.00000
   2871      91.3153      0.00000
   2872      91.3363      0.00000
   2873      91.3582      0.00000
   2874      91.3717      0.00000
   2875      91.3762      0.00000
   2876      91.4042      0.00000
   2877      91.4317      0.00000
   2878      91.4493      0.00000
   2879      91.4665      0.00000
   2880      91.4822      0.00000
   2881      91.4903      0.00000
   2882      91.5356      0.00000
   2883      91.5412      0.00000
   2884      91.5467      0.00000
   2885      91.5782      0.00000
   2886      91.5876      0.00000
   2887      91.6283      0.00000
   2888      91.6518      0.00000
   2889      91.6588      0.00000
   2890      91.6795      0.00000
   2891      91.6911      0.00000
   2892      91.7107      0.00000
   2893      91.7394      0.00000
   2894      91.7472      0.00000
   2895      91.8008      0.00000
   2896      91.8116      0.00000
   2897      91.8376      0.00000
   2898      91.8468      0.00000
   2899      91.8718      0.00000
   2900      91.8913      0.00000
   2901      91.9067      0.00000
   2902      91.9285      0.00000
   2903      91.9557      0.00000
   2904      91.9739      0.00000
   2905      92.0163      0.00000
   2906      92.0326      0.00000
   2907      92.0437      0.00000
   2908      92.0678      0.00000
   2909      92.0806      0.00000
   2910      92.0900      0.00000
   2911      92.1217      0.00000
   2912      92.1283      0.00000
   2913      92.1500      0.00000
   2914      92.1660      0.00000
   2915      92.1871      0.00000
   2916      92.2218      0.00000
   2917      92.2299      0.00000
   2918      92.2727      0.00000
   2919      92.3167      0.00000
   2920      92.3248      0.00000
   2921      92.3503      0.00000
   2922      92.3702      0.00000
   2923      92.3799      0.00000
   2924      92.3973      0.00000
   2925      92.4281      0.00000
   2926      92.4497      0.00000
   2927      92.4721      0.00000
   2928      92.4844      0.00000
   2929      92.4883      0.00000
   2930      92.5289      0.00000
   2931      92.5381      0.00000
   2932      92.5499      0.00000
   2933      92.5660      0.00000
   2934      92.5858      0.00000
   2935      92.5937      0.00000
   2936      92.6064      0.00000
   2937      92.6358      0.00000
   2938      92.6580      0.00000
   2939      92.6990      0.00000
   2940      92.7121      0.00000
   2941      92.7254      0.00000
   2942      92.7686      0.00000
   2943      92.7951      0.00000
   2944      92.8093      0.00000
   2945      92.8211      0.00000
   2946      92.8463      0.00000
   2947      92.8737      0.00000
   2948      92.8986      0.00000
   2949      92.9007      0.00000
   2950      92.9374      0.00000
   2951      92.9546      0.00000
   2952      92.9743      0.00000
   2953      92.9995      0.00000
   2954      93.0170      0.00000
   2955      93.0481      0.00000
   2956      93.0742      0.00000
   2957      93.0836      0.00000
   2958      93.0882      0.00000
   2959      93.1146      0.00000
   2960      93.1438      0.00000
   2961      93.1774      0.00000
   2962      93.1932      0.00000
   2963      93.2289      0.00000
   2964      93.2376      0.00000
   2965      93.2598      0.00000
   2966      93.2808      0.00000
   2967      93.2941      0.00000
   2968      93.3229      0.00000
   2969      93.3300      0.00000
   2970      93.3339      0.00000
   2971      93.3793      0.00000
   2972      93.4155      0.00000
   2973      93.4163      0.00000
   2974      93.4345      0.00000
   2975      93.4450      0.00000
   2976      93.4643      0.00000
   2977      93.4976      0.00000
   2978      93.5245      0.00000
   2979      93.5361      0.00000
   2980      93.5539      0.00000
   2981      93.5754      0.00000
   2982      93.5984      0.00000
   2983      93.6219      0.00000
   2984      93.6364      0.00000
   2985      93.6674      0.00000
   2986      93.6878      0.00000
   2987      93.7160      0.00000
   2988      93.7355      0.00000
   2989      93.7580      0.00000
   2990      93.7754      0.00000
   2991      93.7756      0.00000
   2992      93.8121      0.00000
   2993      93.8379      0.00000
   2994      93.8668      0.00000
   2995      93.9004      0.00000
   2996      93.9201      0.00000
   2997      93.9467      0.00000
   2998      93.9738      0.00000
   2999      93.9889      0.00000
   3000      94.0140      0.00000
   3001      94.0405      0.00000
   3002      94.0594      0.00000
   3003      94.0921      0.00000
   3004      94.1072      0.00000
   3005      94.1399      0.00000
   3006      94.1418      0.00000
   3007      94.1625      0.00000
   3008      94.1776      0.00000
   3009      94.1843      0.00000
   3010      94.1927      0.00000
   3011      94.2237      0.00000
   3012      94.2468      0.00000
   3013      94.2586      0.00000
   3014      94.2843      0.00000
   3015      94.3169      0.00000
   3016      94.3561      0.00000
   3017      94.3627      0.00000
   3018      94.3629      0.00000
   3019      94.4009      0.00000
   3020      94.4464      0.00000
   3021      94.4605      0.00000
   3022      94.4787      0.00000
   3023      94.4949      0.00000
   3024      94.5313      0.00000
   3025      94.5407      0.00000
   3026      94.5503      0.00000
   3027      94.5705      0.00000
   3028      94.5783      0.00000
   3029      94.6145      0.00000
   3030      94.6340      0.00000
   3031      94.6552      0.00000
   3032      94.6700      0.00000
   3033      94.6919      0.00000
   3034      94.6934      0.00000
   3035      94.7026      0.00000
   3036      94.7227      0.00000
   3037      94.7318      0.00000
   3038      94.7619      0.00000
   3039      94.7707      0.00000
   3040      94.8011      0.00000
   3041      94.8131      0.00000
   3042      94.8282      0.00000
   3043      94.8759      0.00000
   3044      94.9056      0.00000
   3045      94.9119      0.00000
   3046      94.9533      0.00000
   3047      94.9707      0.00000
   3048      94.9862      0.00000
   3049      94.9970      0.00000
   3050      95.0196      0.00000
   3051      95.0466      0.00000
   3052      95.0827      0.00000
   3053      95.0876      0.00000
   3054      95.1121      0.00000
   3055      95.1306      0.00000
   3056      95.1416      0.00000
   3057      95.1889      0.00000
   3058      95.2069      0.00000
   3059      95.2353      0.00000
   3060      95.2581      0.00000
   3061      95.2753      0.00000
   3062      95.3050      0.00000
   3063      95.3265      0.00000
   3064      95.3385      0.00000
   3065      95.3671      0.00000
   3066      95.3889      0.00000
   3067      95.3995      0.00000
   3068      95.4086      0.00000
   3069      95.4399      0.00000
   3070      95.4436      0.00000
   3071      95.4736      0.00000
   3072      95.4854      0.00000
   3073      95.5053      0.00000
   3074      95.5202      0.00000
   3075      95.5555      0.00000
   3076      95.5816      0.00000
   3077      95.6268      0.00000
   3078      95.6380      0.00000
   3079      95.6636      0.00000
   3080      95.6716      0.00000
   3081      95.6969      0.00000
   3082      95.7099      0.00000
   3083      95.7226      0.00000
   3084      95.7386      0.00000
   3085      95.7818      0.00000
   3086      95.7913      0.00000
   3087      95.8260      0.00000
   3088      95.8503      0.00000
   3089      95.8840      0.00000
   3090      95.9031      0.00000
   3091      95.9570      0.00000
   3092      95.9661      0.00000
   3093      95.9876      0.00000
   3094      96.0022      0.00000
   3095      96.0141      0.00000
   3096      96.0251      0.00000
   3097      96.0708      0.00000
   3098      96.0748      0.00000
   3099      96.1100      0.00000
   3100      96.1220      0.00000
   3101      96.1296      0.00000
   3102      96.1531      0.00000
   3103      96.1673      0.00000
   3104      96.1863      0.00000
   3105      96.2000      0.00000
   3106      96.2243      0.00000
   3107      96.2373      0.00000
   3108      96.2698      0.00000
   3109      96.2787      0.00000
   3110      96.3036      0.00000
   3111      96.3192      0.00000
   3112      96.3428      0.00000
   3113      96.3620      0.00000
   3114      96.4011      0.00000
   3115      96.4277      0.00000
   3116      96.4478      0.00000
   3117      96.4773      0.00000
   3118      96.4970      0.00000
   3119      96.5200      0.00000
   3120      96.5243      0.00000
   3121      96.5541      0.00000
   3122      96.5703      0.00000
   3123      96.6205      0.00000
   3124      96.6415      0.00000
   3125      96.6528      0.00000
   3126      96.7000      0.00000
   3127      96.7152      0.00000
   3128      96.7407      0.00000
   3129      96.7426      0.00000
   3130      96.7754      0.00000
   3131      96.7836      0.00000
   3132      96.8021      0.00000
   3133      96.8261      0.00000
   3134      96.8590      0.00000
   3135      96.8787      0.00000
   3136      96.9265      0.00000
   3137      96.9433      0.00000
   3138      96.9548      0.00000
   3139      96.9680      0.00000
   3140      96.9791      0.00000
   3141      96.9912      0.00000
   3142      96.9965      0.00000
   3143      97.0348      0.00000
   3144      97.0450      0.00000
   3145      97.0547      0.00000
   3146      97.0618      0.00000
   3147      97.0969      0.00000
   3148      97.1100      0.00000
   3149      97.1490      0.00000
   3150      97.1669      0.00000
   3151      97.1862      0.00000
   3152      97.2052      0.00000
   3153      97.2368      0.00000
   3154      97.2564      0.00000
   3155      97.2770      0.00000
   3156      97.3143      0.00000
   3157      97.3203      0.00000
   3158      97.3327      0.00000
   3159      97.3592      0.00000
   3160      97.3946      0.00000
   3161      97.4195      0.00000
   3162      97.4256      0.00000
   3163      97.4435      0.00000
   3164      97.4717      0.00000
   3165      97.4904      0.00000
   3166      97.5088      0.00000
   3167      97.5170      0.00000
   3168      97.5403      0.00000
   3169      97.5550      0.00000
   3170      97.5674      0.00000
   3171      97.6197      0.00000
   3172      97.6319      0.00000
   3173      97.6694      0.00000
   3174      97.6775      0.00000
   3175      97.6808      0.00000
   3176      97.7065      0.00000
   3177      97.7141      0.00000
   3178      97.7430      0.00000
   3179      97.7477      0.00000
   3180      97.7699      0.00000
   3181      97.7841      0.00000
   3182      97.8298      0.00000
   3183      97.8645      0.00000
   3184      97.8771      0.00000
   3185      97.9164      0.00000
   3186      97.9272      0.00000
   3187      97.9518      0.00000
   3188      97.9581      0.00000
   3189      97.9754      0.00000
   3190      97.9891      0.00000
   3191      97.9977      0.00000
   3192      98.0312      0.00000
   3193      98.0474      0.00000
   3194      98.0646      0.00000
   3195      98.0789      0.00000
   3196      98.1033      0.00000
   3197      98.1169      0.00000
   3198      98.1300      0.00000
   3199      98.1630      0.00000
   3200      98.1783      0.00000
   3201      98.1958      0.00000
   3202      98.2071      0.00000
   3203      98.2328      0.00000
   3204      98.2463      0.00000
   3205      98.2707      0.00000
   3206      98.2870      0.00000
   3207      98.3144      0.00000
   3208      98.3497      0.00000
   3209      98.3675      0.00000
   3210      98.3952      0.00000
   3211      98.4060      0.00000
   3212      98.4333      0.00000
   3213      98.4579      0.00000
   3214      98.4806      0.00000
   3215      98.4874      0.00000
   3216      98.5006      0.00000
   3217      98.5287      0.00000
   3218      98.5454      0.00000
   3219      98.5712      0.00000
   3220      98.5934      0.00000
   3221      98.5960      0.00000
   3222      98.6332      0.00000
   3223      98.6500      0.00000
   3224      98.7134      0.00000
   3225      98.7261      0.00000
   3226      98.7526      0.00000
   3227      98.7673      0.00000
   3228      98.7930      0.00000
   3229      98.8457      0.00000
   3230      98.8513      0.00000
   3231      98.8712      0.00000
   3232      98.8787      0.00000
   3233      98.8878      0.00000
   3234      98.9205      0.00000
   3235      98.9466      0.00000
   3236      98.9586      0.00000
   3237      98.9731      0.00000
   3238      98.9984      0.00000
   3239      99.0227      0.00000
   3240      99.0511      0.00000
   3241      99.0660      0.00000
   3242      99.0776      0.00000
   3243      99.1282      0.00000
   3244      99.1498      0.00000
   3245      99.1671      0.00000
   3246      99.1912      0.00000
   3247      99.1985      0.00000
   3248      99.2185      0.00000
   3249      99.2346      0.00000
   3250      99.2614      0.00000
   3251      99.2889      0.00000
   3252      99.3055      0.00000
   3253      99.3278      0.00000
   3254      99.3492      0.00000
   3255      99.3683      0.00000
   3256      99.4078      0.00000
   3257      99.4420      0.00000
   3258      99.4532      0.00000
   3259      99.4681      0.00000
   3260      99.4825      0.00000
   3261      99.5294      0.00000
   3262      99.5448      0.00000
   3263      99.5524      0.00000
   3264      99.5704      0.00000
   3265      99.6030      0.00000
   3266      99.6079      0.00000
   3267      99.6190      0.00000
   3268      99.6483      0.00000
   3269      99.6604      0.00000
   3270      99.6696      0.00000
   3271      99.6947      0.00000
   3272      99.7131      0.00000
   3273      99.7396      0.00000
   3274      99.7559      0.00000
   3275      99.7873      0.00000
   3276      99.8004      0.00000
   3277      99.8265      0.00000
   3278      99.8414      0.00000
   3279      99.8590      0.00000
   3280      99.8875      0.00000
   3281      99.8950      0.00000
   3282      99.9071      0.00000
   3283      99.9237      0.00000
   3284      99.9542      0.00000
   3285      99.9740      0.00000
   3286     100.0185      0.00000
   3287     100.0284      0.00000
   3288     100.0395      0.00000
   3289     100.0698      0.00000
   3290     100.0903      0.00000
   3291     100.1094      0.00000
   3292     100.1312      0.00000
   3293     100.1379      0.00000
   3294     100.1849      0.00000
   3295     100.1879      0.00000
   3296     100.2107      0.00000
   3297     100.2176      0.00000
   3298     100.2473      0.00000
   3299     100.2695      0.00000
   3300     100.2777      0.00000
   3301     100.3179      0.00000
   3302     100.3296      0.00000
   3303     100.3373      0.00000
   3304     100.3622      0.00000
   3305     100.3833      0.00000
   3306     100.4276      0.00000
   3307     100.4391      0.00000
   3308     100.4576      0.00000
   3309     100.4612      0.00000
   3310     100.4749      0.00000
   3311     100.4901      0.00000
   3312     100.5083      0.00000
   3313     100.5165      0.00000
   3314     100.5327      0.00000
   3315     100.5349      0.00000
   3316     100.5997      0.00000
   3317     100.6061      0.00000
   3318     100.6319      0.00000
   3319     100.6460      0.00000
   3320     100.6634      0.00000
   3321     100.6770      0.00000
   3322     100.7042      0.00000
   3323     100.7260      0.00000
   3324     100.7444      0.00000
   3325     100.7549      0.00000
   3326     100.7772      0.00000
   3327     100.7959      0.00000
   3328     100.8280      0.00000
   3329     100.8500      0.00000
   3330     100.8538      0.00000
   3331     100.8594      0.00000
   3332     100.9100      0.00000
   3333     100.9201      0.00000
   3334     100.9594      0.00000
   3335     100.9759      0.00000
   3336     100.9970      0.00000
   3337     101.0115      0.00000
   3338     101.0260      0.00000
   3339     101.0380      0.00000
   3340     101.0584      0.00000
   3341     101.0873      0.00000
   3342     101.0962      0.00000
   3343     101.1237      0.00000
   3344     101.1345      0.00000
   3345     101.1601      0.00000
   3346     101.1650      0.00000
   3347     101.2006      0.00000
   3348     101.2318      0.00000
   3349     101.2491      0.00000
   3350     101.2825      0.00000
   3351     101.3067      0.00000
   3352     101.3238      0.00000
   3353     101.3425      0.00000
   3354     101.3583      0.00000
   3355     101.3983      0.00000
   3356     101.4052      0.00000
   3357     101.4127      0.00000
   3358     101.4395      0.00000
   3359     101.4660      0.00000
   3360     101.4787      0.00000
   3361     101.5225      0.00000
   3362     101.5338      0.00000
   3363     101.5720      0.00000
   3364     101.5960      0.00000
   3365     101.6245      0.00000
   3366     101.6434      0.00000
   3367     101.6626      0.00000
   3368     101.6755      0.00000
   3369     101.7206      0.00000
   3370     101.7255      0.00000
   3371     101.7650      0.00000
   3372     101.7826      0.00000
   3373     101.7941      0.00000
   3374     101.8108      0.00000
   3375     101.8197      0.00000
   3376     101.8546      0.00000
   3377     101.8570      0.00000
   3378     101.8772      0.00000
   3379     101.9105      0.00000
   3380     101.9180      0.00000
   3381     101.9276      0.00000
   3382     101.9415      0.00000
   3383     101.9614      0.00000
   3384     101.9695      0.00000
   3385     102.0054      0.00000
   3386     102.0261      0.00000
   3387     102.0478      0.00000
   3388     102.0611      0.00000
   3389     102.0697      0.00000
   3390     102.0970      0.00000
   3391     102.1208      0.00000
   3392     102.1414      0.00000
   3393     102.1880      0.00000
   3394     102.1915      0.00000
   3395     102.2404      0.00000
   3396     102.2484      0.00000
   3397     102.2867      0.00000
   3398     102.3155      0.00000
   3399     102.3508      0.00000
   3400     102.3737      0.00000
   3401     102.3971      0.00000
   3402     102.4229      0.00000
   3403     102.4414      0.00000
   3404     102.5034      0.00000
   3405     102.5154      0.00000
   3406     102.5362      0.00000
   3407     102.5683      0.00000
   3408     102.5811      0.00000
   3409     102.6205      0.00000
   3410     102.6255      0.00000
   3411     102.6572      0.00000
   3412     102.6675      0.00000
   3413     102.6984      0.00000
   3414     102.7183      0.00000
   3415     102.7394      0.00000
   3416     102.7670      0.00000
   3417     102.7879      0.00000
   3418     102.8213      0.00000
   3419     102.8357      0.00000
   3420     102.8782      0.00000
   3421     102.9002      0.00000
   3422     102.9079      0.00000
   3423     102.9306      0.00000
   3424     102.9513      0.00000
   3425     102.9809      0.00000
   3426     102.9929      0.00000
   3427     103.0521      0.00000
   3428     103.0564      0.00000
   3429     103.1012      0.00000
   3430     103.1089      0.00000
   3431     103.1204      0.00000
   3432     103.1268      0.00000
   3433     103.1643      0.00000
   3434     103.1806      0.00000
   3435     103.2178      0.00000
   3436     103.2446      0.00000
   3437     103.2788      0.00000
   3438     103.3119      0.00000
   3439     103.3347      0.00000
   3440     103.3746      0.00000
   3441     103.4068      0.00000
   3442     103.4308      0.00000
   3443     103.4499      0.00000
   3444     103.4635      0.00000
   3445     103.4889      0.00000
   3446     103.5071      0.00000
   3447     103.5234      0.00000
   3448     103.5789      0.00000
   3449     103.5935      0.00000
   3450     103.6179      0.00000
   3451     103.6284      0.00000
   3452     103.6645      0.00000
   3453     103.6810      0.00000
   3454     103.6948      0.00000
   3455     103.7303      0.00000
   3456     103.7811      0.00000
   3457     103.7966      0.00000
   3458     103.8169      0.00000
   3459     103.8481      0.00000
   3460     103.8661      0.00000
   3461     103.8895      0.00000
   3462     103.9007      0.00000
   3463     103.9288      0.00000
   3464     103.9491      0.00000
   3465     103.9770      0.00000
   3466     104.0032      0.00000
   3467     104.0294      0.00000
   3468     104.0364      0.00000
   3469     104.0561      0.00000
   3470     104.0666      0.00000
   3471     104.1167      0.00000
   3472     104.1300      0.00000
   3473     104.1597      0.00000
   3474     104.1719      0.00000
   3475     104.1893      0.00000
   3476     104.2034      0.00000
   3477     104.2157      0.00000
   3478     104.2324      0.00000
   3479     104.2805      0.00000
   3480     104.3056      0.00000
   3481     104.3336      0.00000
   3482     104.3569      0.00000
   3483     104.3725      0.00000
   3484     104.3925      0.00000
   3485     104.4314      0.00000
   3486     104.4586      0.00000
   3487     104.4657      0.00000
   3488     104.4784      0.00000
   3489     104.5313      0.00000
   3490     104.5385      0.00000
   3491     104.5567      0.00000
   3492     104.5768      0.00000
   3493     104.5985      0.00000
   3494     104.6163      0.00000
   3495     104.6313      0.00000
   3496     104.6485      0.00000
   3497     104.6707      0.00000
   3498     104.7007      0.00000
   3499     104.7076      0.00000
   3500     104.7355      0.00000
   3501     104.7582      0.00000
   3502     104.7822      0.00000
   3503     104.7927      0.00000
   3504     104.8248      0.00000
   3505     104.8770      0.00000
   3506     104.8889      0.00000
   3507     104.9047      0.00000
   3508     104.9435      0.00000
   3509     104.9638      0.00000
   3510     104.9783      0.00000
   3511     105.0263      0.00000
   3512     105.0343      0.00000
   3513     105.0689      0.00000
   3514     105.0830      0.00000
   3515     105.1061      0.00000
   3516     105.1318      0.00000
   3517     105.1403      0.00000
   3518     105.1810      0.00000
   3519     105.2050      0.00000
   3520     105.2319      0.00000
   3521     105.2687      0.00000
   3522     105.2828      0.00000
   3523     105.3075      0.00000
   3524     105.3409      0.00000
   3525     105.3656      0.00000
   3526     105.3919      0.00000
   3527     105.4016      0.00000
   3528     105.4105      0.00000
   3529     105.4220      0.00000
   3530     105.4646      0.00000
   3531     105.5051      0.00000
   3532     105.5173      0.00000
   3533     105.5530      0.00000
   3534     105.5748      0.00000
   3535     105.5873      0.00000
   3536     105.6045      0.00000
   3537     105.6203      0.00000
   3538     105.6411      0.00000
   3539     105.6697      0.00000
   3540     105.6933      0.00000
   3541     105.7084      0.00000
   3542     105.7364      0.00000
   3543     105.7699      0.00000
   3544     105.7967      0.00000
   3545     105.8188      0.00000
   3546     105.8388      0.00000
   3547     105.8653      0.00000
   3548     105.8981      0.00000
   3549     105.9140      0.00000
   3550     105.9240      0.00000
   3551     105.9342      0.00000
   3552     105.9458      0.00000
   3553     105.9636      0.00000
   3554     105.9771      0.00000
   3555     106.0061      0.00000
   3556     106.0226      0.00000
   3557     106.0431      0.00000
   3558     106.0648      0.00000
   3559     106.0940      0.00000
   3560     106.1142      0.00000
   3561     106.1284      0.00000
   3562     106.1554      0.00000
   3563     106.1711      0.00000
   3564     106.1770      0.00000
   3565     106.2145      0.00000
   3566     106.2449      0.00000
   3567     106.2539      0.00000
   3568     106.2861      0.00000
   3569     106.2942      0.00000
   3570     106.3234      0.00000
   3571     106.3534      0.00000
   3572     106.3788      0.00000
   3573     106.3854      0.00000
   3574     106.3989      0.00000
   3575     106.4357      0.00000
   3576     106.4567      0.00000
   3577     106.4739      0.00000
   3578     106.4976      0.00000
   3579     106.5073      0.00000
   3580     106.5279      0.00000
   3581     106.5533      0.00000
   3582     106.6034      0.00000
   3583     106.6088      0.00000
   3584     106.6179      0.00000
   3585     106.6461      0.00000
   3586     106.6707      0.00000
   3587     106.6809      0.00000
   3588     106.6993      0.00000
   3589     106.7315      0.00000
   3590     106.7513      0.00000
   3591     106.7708      0.00000
   3592     106.7909      0.00000
   3593     106.8097      0.00000
   3594     106.8387      0.00000
   3595     106.8556      0.00000
   3596     106.8699      0.00000
   3597     106.8756      0.00000
   3598     106.9049      0.00000
   3599     106.9116      0.00000
   3600     106.9423      0.00000
   3601     106.9623      0.00000
   3602     106.9778      0.00000
   3603     106.9847      0.00000
   3604     106.9995      0.00000
   3605     107.0081      0.00000
   3606     107.0461      0.00000
   3607     107.0537      0.00000
   3608     107.0572      0.00000
   3609     107.0871      0.00000
   3610     107.1167      0.00000
   3611     107.1327      0.00000
   3612     107.1395      0.00000
   3613     107.1563      0.00000
   3614     107.1852      0.00000
   3615     107.2182      0.00000
   3616     107.2279      0.00000
   3617     107.2456      0.00000
   3618     107.2570      0.00000
   3619     107.2721      0.00000
   3620     107.2898      0.00000
   3621     107.3095      0.00000
   3622     107.3394      0.00000
   3623     107.3618      0.00000
   3624     107.3871      0.00000
   3625     107.4164      0.00000
   3626     107.4298      0.00000
   3627     107.4739      0.00000
   3628     107.4887      0.00000
   3629     107.5140      0.00000
   3630     107.5345      0.00000
   3631     107.5442      0.00000
   3632     107.5505      0.00000
   3633     107.5819      0.00000
   3634     107.6054      0.00000
   3635     107.6292      0.00000
   3636     107.6564      0.00000
   3637     107.6606      0.00000
   3638     107.6765      0.00000
   3639     107.6826      0.00000
   3640     107.7181      0.00000
   3641     107.7440      0.00000
   3642     107.7626      0.00000
   3643     107.7775      0.00000
   3644     107.7822      0.00000
   3645     107.7923      0.00000
   3646     107.8060      0.00000
   3647     107.8314      0.00000
   3648     107.8692      0.00000
   3649     107.8910      0.00000
   3650     107.9101      0.00000
   3651     107.9204      0.00000
   3652     107.9415      0.00000
   3653     107.9478      0.00000
   3654     107.9588      0.00000
   3655     108.0029      0.00000
   3656     108.0103      0.00000
   3657     108.0504      0.00000
   3658     108.0649      0.00000
   3659     108.0805      0.00000
   3660     108.0915      0.00000
   3661     108.1057      0.00000
   3662     108.1220      0.00000
   3663     108.1479      0.00000
   3664     108.1697      0.00000
   3665     108.1854      0.00000
   3666     108.2162      0.00000
   3667     108.2344      0.00000
   3668     108.2473      0.00000
   3669     108.2737      0.00000
   3670     108.2916      0.00000
   3671     108.3092      0.00000
   3672     108.3214      0.00000
   3673     108.3335      0.00000
   3674     108.3579      0.00000
   3675     108.3614      0.00000
   3676     108.3734      0.00000
   3677     108.3938      0.00000
   3678     108.4248      0.00000
   3679     108.4371      0.00000
   3680     108.4620      0.00000
   3681     108.4857      0.00000
   3682     108.4918      0.00000
   3683     108.5296      0.00000
   3684     108.5355      0.00000
   3685     108.5481      0.00000
   3686     108.5712      0.00000
   3687     108.5803      0.00000
   3688     108.5986      0.00000
   3689     108.6330      0.00000
   3690     108.6388      0.00000
   3691     108.6590      0.00000
   3692     108.6780      0.00000
   3693     108.7165      0.00000
   3694     108.7185      0.00000
   3695     108.7384      0.00000
   3696     108.7448      0.00000
   3697     108.7677      0.00000
   3698     108.7919      0.00000
   3699     108.8002      0.00000
   3700     108.8101      0.00000
   3701     108.8372      0.00000
   3702     108.8480      0.00000
   3703     108.8671      0.00000
   3704     108.8869      0.00000
   3705     108.9442      0.00000
   3706     108.9565      0.00000
   3707     108.9780      0.00000
   3708     108.9866      0.00000
   3709     109.0065      0.00000
   3710     109.0235      0.00000
   3711     109.0443      0.00000
   3712     109.0721      0.00000
   3713     109.0738      0.00000
   3714     109.1083      0.00000
   3715     109.1169      0.00000
   3716     109.1259      0.00000
   3717     109.1652      0.00000
   3718     109.1675      0.00000
   3719     109.1859      0.00000
   3720     109.2080      0.00000
   3721     109.2328      0.00000
   3722     109.2456      0.00000
   3723     109.2633      0.00000
   3724     109.2772      0.00000
   3725     109.2902      0.00000
   3726     109.3036      0.00000
   3727     109.3254      0.00000
   3728     109.3312      0.00000
   3729     109.3582      0.00000
   3730     109.3715      0.00000
   3731     109.3838      0.00000
   3732     109.4031      0.00000
   3733     109.4178      0.00000
   3734     109.4525      0.00000
   3735     109.4865      0.00000
   3736     109.5033      0.00000
   3737     109.5258      0.00000
   3738     109.5503      0.00000
   3739     109.5676      0.00000
   3740     109.5749      0.00000
   3741     109.6015      0.00000
   3742     109.6049      0.00000
   3743     109.6229      0.00000
   3744     109.6357      0.00000
   3745     109.6450      0.00000
   3746     109.6740      0.00000
   3747     109.7000      0.00000
   3748     109.7395      0.00000
   3749     109.7411      0.00000
   3750     109.7784      0.00000
   3751     109.7982      0.00000
   3752     109.8177      0.00000
   3753     109.8380      0.00000
   3754     109.8799      0.00000
   3755     109.9131      0.00000
   3756     109.9241      0.00000
   3757     109.9381      0.00000
   3758     109.9523      0.00000
   3759     109.9609      0.00000
   3760     109.9747      0.00000
   3761     110.0253      0.00000
   3762     110.0437      0.00000
   3763     110.0493      0.00000
   3764     110.0767      0.00000
   3765     110.0836      0.00000
   3766     110.1225      0.00000
   3767     110.1304      0.00000
   3768     110.1599      0.00000
   3769     110.1756      0.00000
   3770     110.1917      0.00000
   3771     110.2069      0.00000
   3772     110.2489      0.00000
   3773     110.2642      0.00000
   3774     110.2849      0.00000
   3775     110.2860      0.00000
   3776     110.3284      0.00000
   3777     110.3370      0.00000
   3778     110.3489      0.00000
   3779     110.3623      0.00000
   3780     110.3878      0.00000
   3781     110.4229      0.00000
   3782     110.4344      0.00000
   3783     110.4685      0.00000
   3784     110.4984      0.00000
   3785     110.5015      0.00000
   3786     110.5195      0.00000
   3787     110.5267      0.00000
   3788     110.5364      0.00000
   3789     110.5659      0.00000
   3790     110.5741      0.00000
   3791     110.5896      0.00000
   3792     110.6082      0.00000
   3793     110.6405      0.00000
   3794     110.6527      0.00000
   3795     110.6901      0.00000
   3796     110.7007      0.00000
   3797     110.7065      0.00000
   3798     110.7183      0.00000
   3799     110.7646      0.00000
   3800     110.7806      0.00000
   3801     110.7907      0.00000
   3802     110.8006      0.00000
   3803     110.8092      0.00000
   3804     110.8216      0.00000
   3805     110.8559      0.00000
   3806     110.8866      0.00000
   3807     110.8880      0.00000
   3808     110.8947      0.00000
   3809     110.9638      0.00000
   3810     110.9774      0.00000
   3811     110.9858      0.00000
   3812     111.0028      0.00000
   3813     111.0315      0.00000
   3814     111.0563      0.00000
   3815     111.0624      0.00000
   3816     111.1001      0.00000
   3817     111.1249      0.00000
   3818     111.1418      0.00000
   3819     111.1688      0.00000
   3820     111.1766      0.00000
   3821     111.1856      0.00000
   3822     111.2434      0.00000
   3823     111.2756      0.00000
   3824     111.2919      0.00000
   3825     111.3005      0.00000
   3826     111.3067      0.00000
   3827     111.3239      0.00000
   3828     111.3415      0.00000
   3829     111.3631      0.00000
   3830     111.3739      0.00000
   3831     111.3796      0.00000
   3832     111.4019      0.00000
   3833     111.4506      0.00000
   3834     111.4571      0.00000
   3835     111.4883      0.00000
   3836     111.5198      0.00000
   3837     111.5338      0.00000
   3838     111.5502      0.00000
   3839     111.6089      0.00000
   3840     111.6193      0.00000
   3841     111.6232      0.00000
   3842     111.6370      0.00000
   3843     111.6658      0.00000
   3844     111.6893      0.00000
   3845     111.7340      0.00000
   3846     111.7501      0.00000
   3847     111.7665      0.00000
   3848     111.7912      0.00000
   3849     111.7943      0.00000
   3850     111.8040      0.00000
   3851     111.8453      0.00000
   3852     111.8630      0.00000
   3853     111.8763      0.00000
   3854     111.9049      0.00000
   3855     111.9383      0.00000
   3856     111.9627      0.00000
   3857     111.9751      0.00000
   3858     111.9833      0.00000
   3859     112.0262      0.00000
   3860     112.0505      0.00000
   3861     112.0612      0.00000
   3862     112.0839      0.00000
   3863     112.0999      0.00000
   3864     112.1088      0.00000
   3865     112.1128      0.00000
   3866     112.1500      0.00000
   3867     112.1711      0.00000
   3868     112.1934      0.00000
   3869     112.2252      0.00000
   3870     112.2499      0.00000
   3871     112.2710      0.00000
   3872     112.2932      0.00000
   3873     112.3153      0.00000
   3874     112.3289      0.00000
   3875     112.3646      0.00000
   3876     112.3717      0.00000
   3877     112.4017      0.00000
   3878     112.4118      0.00000
   3879     112.4342      0.00000
   3880     112.4539      0.00000
   3881     112.4787      0.00000
   3882     112.4846      0.00000
   3883     112.5089      0.00000
   3884     112.5323      0.00000
   3885     112.5558      0.00000
   3886     112.5575      0.00000
   3887     112.5814      0.00000
   3888     112.5841      0.00000
   3889     112.6293      0.00000
   3890     112.6374      0.00000
   3891     112.6480      0.00000
   3892     112.6551      0.00000
   3893     112.6896      0.00000
   3894     112.7006      0.00000
   3895     112.7213      0.00000
   3896     112.7303      0.00000
   3897     112.7542      0.00000
   3898     112.7762      0.00000
   3899     112.8082      0.00000
   3900     112.8158      0.00000
   3901     112.8287      0.00000
   3902     112.8519      0.00000
   3903     112.8844      0.00000
   3904     112.8948      0.00000
   3905     112.9192      0.00000
   3906     112.9359      0.00000
   3907     112.9557      0.00000
   3908     112.9610      0.00000
   3909     112.9858      0.00000
   3910     113.0209      0.00000
   3911     113.0286      0.00000
   3912     113.0408      0.00000
   3913     113.0740      0.00000
   3914     113.0911      0.00000
   3915     113.1191      0.00000
   3916     113.1448      0.00000
   3917     113.1822      0.00000
   3918     113.1962      0.00000
   3919     113.2082      0.00000
   3920     113.2131      0.00000
   3921     113.2532      0.00000
   3922     113.2688      0.00000
   3923     113.2899      0.00000
   3924     113.3245      0.00000
   3925     113.3333      0.00000
   3926     113.3613      0.00000
   3927     113.3678      0.00000
   3928     113.3909      0.00000
   3929     113.4036      0.00000
   3930     113.4352      0.00000
   3931     113.4665      0.00000
   3932     113.4781      0.00000
   3933     113.4946      0.00000
   3934     113.5240      0.00000
   3935     113.5396      0.00000
   3936     113.5505      0.00000
   3937     113.5956      0.00000
   3938     113.6302      0.00000
   3939     113.6589      0.00000
   3940     113.6719      0.00000
   3941     113.6824      0.00000
   3942     113.7053      0.00000
   3943     113.7345      0.00000
   3944     113.7632      0.00000
   3945     113.7713      0.00000
   3946     113.7823      0.00000
   3947     113.8108      0.00000
   3948     113.8317      0.00000
   3949     113.8591      0.00000
   3950     113.8728      0.00000
   3951     113.9094      0.00000
   3952     113.9219      0.00000
   3953     113.9385      0.00000
   3954     113.9520      0.00000
   3955     113.9948      0.00000
   3956     114.0135      0.00000
   3957     114.0267      0.00000
   3958     114.0491      0.00000
   3959     114.0828      0.00000
   3960     114.1010      0.00000
   3961     114.1050      0.00000
   3962     114.1174      0.00000
   3963     114.1391      0.00000
   3964     114.1709      0.00000
   3965     114.2019      0.00000
   3966     114.2099      0.00000
   3967     114.2229      0.00000
   3968     114.2388      0.00000
   3969     114.2472      0.00000
   3970     114.2631      0.00000
   3971     114.3053      0.00000
   3972     114.3102      0.00000
   3973     114.3763      0.00000
   3974     114.3949      0.00000
   3975     114.4004      0.00000
   3976     114.4287      0.00000
   3977     114.4437      0.00000
   3978     114.4568      0.00000
   3979     114.5076      0.00000
   3980     114.5154      0.00000
   3981     114.5192      0.00000
   3982     114.5442      0.00000
   3983     114.5571      0.00000
   3984     114.5788      0.00000
   3985     114.6311      0.00000
   3986     114.6504      0.00000
   3987     114.6706      0.00000
   3988     114.6900      0.00000
   3989     114.7117      0.00000
   3990     114.7309      0.00000
   3991     114.7589      0.00000
   3992     114.7779      0.00000
   3993     114.7951      0.00000
   3994     114.8160      0.00000
   3995     114.8258      0.00000
   3996     114.8314      0.00000
   3997     114.8686      0.00000
   3998     114.8802      0.00000
   3999     114.8915      0.00000
   4000     114.9258      0.00000
   4001     114.9366      0.00000
   4002     114.9452      0.00000
   4003     114.9679      0.00000
   4004     115.0151      0.00000
   4005     115.0406      0.00000
   4006     115.0487      0.00000
   4007     115.0849      0.00000
   4008     115.0992      0.00000
   4009     115.1095      0.00000
   4010     115.1143      0.00000
   4011     115.1435      0.00000
   4012     115.1641      0.00000
   4013     115.1935      0.00000
   4014     115.1991      0.00000
   4015     115.2125      0.00000
   4016     115.2296      0.00000
   4017     115.2598      0.00000
   4018     115.2769      0.00000
   4019     115.2949      0.00000
   4020     115.3190      0.00000
   4021     115.3265      0.00000
   4022     115.3434      0.00000
   4023     115.3775      0.00000
   4024     115.3898      0.00000
   4025     115.4124      0.00000
   4026     115.4487      0.00000
   4027     115.4505      0.00000
   4028     115.4763      0.00000
   4029     115.4876      0.00000
   4030     115.5184      0.00000
   4031     115.5506      0.00000
   4032     115.5639      0.00000
   4033     115.5847      0.00000
   4034     115.5973      0.00000
   4035     115.6129      0.00000
   4036     115.6394      0.00000
   4037     115.6623      0.00000
   4038     115.6751      0.00000
   4039     115.6892      0.00000
   4040     115.7025      0.00000
   4041     115.7247      0.00000
   4042     115.7490      0.00000
   4043     115.7599      0.00000
   4044     115.7776      0.00000
   4045     115.8330      0.00000
   4046     115.8400      0.00000
   4047     115.8516      0.00000
   4048     115.8732      0.00000
   4049     115.8821      0.00000
   4050     115.9055      0.00000
   4051     115.9288      0.00000
   4052     115.9523      0.00000
   4053     115.9709      0.00000
   4054     116.0085      0.00000
   4055     116.0189      0.00000
   4056     116.0288      0.00000
   4057     116.0429      0.00000
   4058     116.0652      0.00000
   4059     116.0777      0.00000
   4060     116.0987      0.00000
   4061     116.1005      0.00000
   4062     116.1208      0.00000
   4063     116.1604      0.00000
   4064     116.1635      0.00000
   4065     116.1767      0.00000
   4066     116.1900      0.00000
   4067     116.2155      0.00000
   4068     116.2309      0.00000
   4069     116.2328      0.00000
   4070     116.2545      0.00000
   4071     116.2943      0.00000
   4072     116.3035      0.00000
   4073     116.3148      0.00000
   4074     116.3625      0.00000
   4075     116.3768      0.00000
   4076     116.3813      0.00000
   4077     116.3894      0.00000
   4078     116.3949      0.00000
   4079     116.4244      0.00000
   4080     116.4310      0.00000
   4081     116.4522      0.00000
   4082     116.4672      0.00000
   4083     116.5106      0.00000
   4084     116.5275      0.00000
   4085     116.5533      0.00000
   4086     116.5618      0.00000
   4087     116.5763      0.00000
   4088     116.5937      0.00000
   4089     116.6041      0.00000
   4090     116.6247      0.00000
   4091     116.6336      0.00000
   4092     116.6562      0.00000
   4093     116.6724      0.00000
   4094     116.7187      0.00000
   4095     116.7271      0.00000
   4096     116.7673      0.00000
   4097     116.7765      0.00000
   4098     116.7812      0.00000
   4099     116.8073      0.00000
   4100     116.8169      0.00000
   4101     116.8418      0.00000
   4102     116.8535      0.00000
   4103     116.8585      0.00000
   4104     116.8736      0.00000
   4105     116.8928      0.00000
   4106     116.9292      0.00000
   4107     116.9457      0.00000
   4108     116.9601      0.00000
   4109     116.9741      0.00000
   4110     117.0119      0.00000
   4111     117.0203      0.00000
   4112     117.0243      0.00000
   4113     117.0431      0.00000
   4114     117.0616      0.00000
   4115     117.0781      0.00000
   4116     117.0898      0.00000
   4117     117.1054      0.00000
   4118     117.1099      0.00000
   4119     117.1451      0.00000
   4120     117.1622      0.00000
   4121     117.1684      0.00000
   4122     117.1887      0.00000
   4123     117.2140      0.00000
   4124     117.2230      0.00000
   4125     117.2428      0.00000
   4126     117.2442      0.00000
   4127     117.2745      0.00000
   4128     117.2892      0.00000
   4129     117.3097      0.00000
   4130     117.3250      0.00000
   4131     117.3359      0.00000
   4132     117.3575      0.00000
   4133     117.3901      0.00000
   4134     117.4283      0.00000
   4135     117.4441      0.00000
   4136     117.4452      0.00000
   4137     117.4845      0.00000
   4138     117.5024      0.00000
   4139     117.5239      0.00000
   4140     117.5586      0.00000
   4141     117.5749      0.00000
   4142     117.5834      0.00000
   4143     117.6008      0.00000
   4144     117.6059      0.00000
   4145     117.6079      0.00000
   4146     117.6417      0.00000
   4147     117.6640      0.00000
   4148     117.6741      0.00000
   4149     117.6945      0.00000
   4150     117.7292      0.00000
   4151     117.7385      0.00000
   4152     117.7578      0.00000
   4153     117.7714      0.00000
   4154     117.8055      0.00000
   4155     117.8151      0.00000
   4156     117.8468      0.00000
   4157     117.8496      0.00000
   4158     117.8718      0.00000
   4159     117.8867      0.00000
   4160     117.8938      0.00000
   4161     117.9083      0.00000
   4162     117.9118      0.00000
   4163     117.9182      0.00000
   4164     117.9679      0.00000
   4165     117.9787      0.00000
   4166     118.0156      0.00000
   4167     118.0504      0.00000
   4168     118.0522      0.00000
   4169     118.0804      0.00000
   4170     118.0857      0.00000
   4171     118.1097      0.00000
   4172     118.1230      0.00000
   4173     118.1348      0.00000
   4174     118.1700      0.00000
   4175     118.1781      0.00000
   4176     118.1946      0.00000
   4177     118.2171      0.00000
   4178     118.2228      0.00000
   4179     118.2399      0.00000
   4180     118.2673      0.00000
   4181     118.2921      0.00000
   4182     118.3161      0.00000
   4183     118.3400      0.00000
   4184     118.3487      0.00000
   4185     118.3589      0.00000
   4186     118.3814      0.00000
   4187     118.4077      0.00000
   4188     118.4206      0.00000
   4189     118.4404      0.00000
   4190     118.4561      0.00000
   4191     118.4923      0.00000
   4192     118.5153      0.00000
   4193     118.5474      0.00000
   4194     118.5537      0.00000
   4195     118.5658      0.00000
   4196     118.5871      0.00000
   4197     118.6200      0.00000
   4198     118.6442      0.00000
   4199     118.6555      0.00000
   4200     118.6965      0.00000
   4201     118.7099      0.00000
   4202     118.7319      0.00000
   4203     118.7426      0.00000
   4204     118.7733      0.00000
   4205     118.7763      0.00000
   4206     118.8078      0.00000
   4207     118.8236      0.00000
   4208     118.8442      0.00000
   4209     118.8620      0.00000
   4210     118.8669      0.00000
   4211     118.8929      0.00000
   4212     118.9094      0.00000
   4213     118.9472      0.00000
   4214     118.9594      0.00000
   4215     119.0038      0.00000
   4216     119.0234      0.00000
   4217     119.0466      0.00000
   4218     119.0495      0.00000
   4219     119.0659      0.00000
   4220     119.0966      0.00000
   4221     119.1037      0.00000
   4222     119.1362      0.00000
   4223     119.1411      0.00000
   4224     119.1642      0.00000
   4225     119.1841      0.00000
   4226     119.2148      0.00000
   4227     119.2298      0.00000
   4228     119.2447      0.00000
   4229     119.2539      0.00000
   4230     119.2718      0.00000
   4231     119.2891      0.00000
   4232     119.3308      0.00000
   4233     119.3350      0.00000
   4234     119.3583      0.00000
   4235     119.3707      0.00000
   4236     119.3849      0.00000
   4237     119.4256      0.00000
   4238     119.4428      0.00000
   4239     119.4591      0.00000
   4240     119.4892      0.00000
   4241     119.5093      0.00000
   4242     119.5207      0.00000
   4243     119.5337      0.00000
   4244     119.5626      0.00000
   4245     119.5726      0.00000
   4246     119.5897      0.00000
   4247     119.6043      0.00000
   4248     119.6169      0.00000
   4249     119.6402      0.00000
   4250     119.6525      0.00000
   4251     119.6816      0.00000
   4252     119.6862      0.00000
   4253     119.7085      0.00000
   4254     119.7261      0.00000
   4255     119.7787      0.00000
   4256     119.7902      0.00000
   4257     119.8024      0.00000
   4258     119.8197      0.00000
   4259     119.8337      0.00000
   4260     119.8444      0.00000
   4261     119.8682      0.00000
   4262     119.8954      0.00000
   4263     119.9128      0.00000
   4264     119.9330      0.00000
   4265     119.9398      0.00000
   4266     119.9483      0.00000
   4267     119.9644      0.00000
   4268     120.0110      0.00000
   4269     120.0256      0.00000
   4270     120.0514      0.00000
   4271     120.0579      0.00000
   4272     120.0662      0.00000
   4273     120.0782      0.00000
   4274     120.0961      0.00000
   4275     120.1085      0.00000
   4276     120.1205      0.00000
   4277     120.1435      0.00000
   4278     120.1723      0.00000
   4279     120.2022      0.00000
   4280     120.2203      0.00000
   4281     120.2343      0.00000
   4282     120.2720      0.00000
   4283     120.2818      0.00000
   4284     120.2898      0.00000
   4285     120.3001      0.00000
   4286     120.3234      0.00000
   4287     120.3441      0.00000
   4288     120.3509      0.00000
   4289     120.3622      0.00000
   4290     120.3895      0.00000
   4291     120.3984      0.00000
   4292     120.4271      0.00000
   4293     120.4470      0.00000
   4294     120.4843      0.00000
   4295     120.4881      0.00000
   4296     120.5048      0.00000
   4297     120.5294      0.00000
   4298     120.5552      0.00000
   4299     120.5732      0.00000
   4300     120.5799      0.00000
   4301     120.5870      0.00000
   4302     120.6130      0.00000
   4303     120.6401      0.00000
   4304     120.6487      0.00000
   4305     120.6613      0.00000
   4306     120.6875      0.00000
   4307     120.6928      0.00000
   4308     120.7188      0.00000
   4309     120.7410      0.00000
   4310     120.7589      0.00000
   4311     120.7812      0.00000
   4312     120.7932      0.00000
   4313     120.8103      0.00000
   4314     120.8210      0.00000
   4315     120.8663      0.00000
   4316     120.8726      0.00000
   4317     120.8845      0.00000
   4318     120.8944      0.00000
   4319     120.9222      0.00000
   4320     120.9393      0.00000
   4321     120.9592      0.00000
   4322     120.9655      0.00000
   4323     120.9807      0.00000
   4324     121.0085      0.00000
   4325     121.0227      0.00000
   4326     121.0503      0.00000
   4327     121.0721      0.00000
   4328     121.0829      0.00000
   4329     121.0900      0.00000
   4330     121.1029      0.00000
   4331     121.1289      0.00000
   4332     121.1451      0.00000
   4333     121.1606      0.00000
   4334     121.1642      0.00000
   4335     121.1803      0.00000
   4336     121.2005      0.00000
   4337     121.2311      0.00000
   4338     121.2374      0.00000
   4339     121.2571      0.00000
   4340     121.2808      0.00000
   4341     121.3100      0.00000
   4342     121.3177      0.00000
   4343     121.3326      0.00000
   4344     121.3599      0.00000
   4345     121.3783      0.00000
   4346     121.3864      0.00000
   4347     121.4096      0.00000
   4348     121.4270      0.00000
   4349     121.4405      0.00000
   4350     121.4538      0.00000
   4351     121.4719      0.00000
   4352     121.4901      0.00000
   4353     121.5284      0.00000
   4354     121.5453      0.00000
   4355     121.5903      0.00000
   4356     121.5968      0.00000
   4357     121.6092      0.00000
   4358     121.6353      0.00000
   4359     121.6654      0.00000
   4360     121.6885      0.00000
   4361     121.7039      0.00000
   4362     121.7169      0.00000
   4363     121.7339      0.00000
   4364     121.7604      0.00000
   4365     121.7665      0.00000
   4366     121.7965      0.00000
   4367     121.8048      0.00000
   4368     121.8309      0.00000
   4369     121.8442      0.00000
   4370     121.8683      0.00000
   4371     121.8689      0.00000
   4372     121.8772      0.00000
   4373     121.9226      0.00000
   4374     121.9276      0.00000
   4375     121.9484      0.00000
   4376     121.9739      0.00000
   4377     121.9852      0.00000
   4378     122.0013      0.00000
   4379     122.0367      0.00000
   4380     122.0512      0.00000
   4381     122.0753      0.00000
   4382     122.0789      0.00000
   4383     122.0995      0.00000
   4384     122.1194      0.00000
   4385     122.1371      0.00000
   4386     122.1572      0.00000
   4387     122.1653      0.00000
   4388     122.1843      0.00000
   4389     122.2163      0.00000
   4390     122.2205      0.00000
   4391     122.2433      0.00000
   4392     122.2573      0.00000
   4393     122.2765      0.00000
   4394     122.2802      0.00000
   4395     122.2987      0.00000
   4396     122.3266      0.00000
   4397     122.3511      0.00000
   4398     122.3892      0.00000
   4399     122.3965      0.00000
   4400     122.4100      0.00000
   4401     122.4445      0.00000
   4402     122.4504      0.00000
   4403     122.4696      0.00000
   4404     122.4879      0.00000
   4405     122.5075      0.00000
   4406     122.5335      0.00000
   4407     122.5552      0.00000
   4408     122.5744      0.00000
   4409     122.5934      0.00000
   4410     122.6114      0.00000
   4411     122.6174      0.00000
   4412     122.6465      0.00000
   4413     122.6650      0.00000
   4414     122.6858      0.00000
   4415     122.6964      0.00000
   4416     122.7062      0.00000
   4417     122.7132      0.00000
   4418     122.7195      0.00000
   4419     122.7746      0.00000
   4420     122.7918      0.00000
   4421     122.7981      0.00000
   4422     122.8232      0.00000
   4423     122.8500      0.00000
   4424     122.8527      0.00000
   4425     122.8622      0.00000
   4426     122.8846      0.00000
   4427     122.9003      0.00000
   4428     122.9247      0.00000
   4429     122.9581      0.00000
   4430     122.9931      0.00000
   4431     123.0216      0.00000
   4432     123.0272      0.00000
   4433     123.0421      0.00000
   4434     123.0629      0.00000
   4435     123.0776      0.00000
   4436     123.1141      0.00000
   4437     123.1212      0.00000
   4438     123.1409      0.00000
   4439     123.1524      0.00000
   4440     123.1736      0.00000
   4441     123.1896      0.00000
   4442     123.1939      0.00000
   4443     123.2142      0.00000
   4444     123.2462      0.00000
   4445     123.2594      0.00000
   4446     123.2893      0.00000
   4447     123.3027      0.00000
   4448     123.3275      0.00000
   4449     123.3373      0.00000
   4450     123.3568      0.00000
   4451     123.3690      0.00000
   4452     123.3920      0.00000
   4453     123.4094      0.00000
   4454     123.4293      0.00000
   4455     123.4446      0.00000
   4456     123.4492      0.00000
   4457     123.4711      0.00000
   4458     123.4838      0.00000
   4459     123.4941      0.00000
   4460     123.5331      0.00000
   4461     123.5566      0.00000
   4462     123.5625      0.00000
   4463     123.5742      0.00000
   4464     123.5885      0.00000
   4465     123.5998      0.00000
   4466     123.6334      0.00000
   4467     123.6413      0.00000
   4468     123.6575      0.00000
   4469     123.6663      0.00000
   4470     123.6682      0.00000
   4471     123.6984      0.00000
   4472     123.7258      0.00000
   4473     123.7513      0.00000
   4474     123.7616      0.00000
   4475     123.7893      0.00000
   4476     123.7980      0.00000
   4477     123.8381      0.00000
   4478     123.8552      0.00000
   4479     123.8772      0.00000
   4480     123.8885      0.00000
   4481     123.9000      0.00000
   4482     123.9243      0.00000
   4483     123.9303      0.00000
   4484     123.9645      0.00000
   4485     123.9965      0.00000
   4486     124.0015      0.00000
   4487     124.0059      0.00000
   4488     124.0319      0.00000
   4489     124.0340      0.00000
   4490     124.0503      0.00000
   4491     124.0690      0.00000
   4492     124.1152      0.00000
   4493     124.1213      0.00000
   4494     124.1276      0.00000
   4495     124.1556      0.00000
   4496     124.1691      0.00000
   4497     124.1751      0.00000
   4498     124.1907      0.00000
   4499     124.2020      0.00000
   4500     124.2259      0.00000
   4501     124.2305      0.00000
   4502     124.2589      0.00000
   4503     124.2749      0.00000
   4504     124.2873      0.00000
   4505     124.3045      0.00000
   4506     124.3203      0.00000
   4507     124.3373      0.00000
   4508     124.3589      0.00000
   4509     124.3830      0.00000
   4510     124.3980      0.00000
   4511     124.4201      0.00000
   4512     124.4275      0.00000
   4513     124.4440      0.00000
   4514     124.4647      0.00000
   4515     124.4851      0.00000
   4516     124.4974      0.00000
   4517     124.5186      0.00000
   4518     124.5303      0.00000
   4519     124.5424      0.00000
   4520     124.5471      0.00000
   4521     124.5916      0.00000
   4522     124.5949      0.00000
   4523     124.6110      0.00000
   4524     124.6373      0.00000
   4525     124.6442      0.00000
   4526     124.6924      0.00000
   4527     124.6990      0.00000
   4528     124.7101      0.00000
   4529     124.7306      0.00000
   4530     124.7505      0.00000
   4531     124.7638      0.00000
   4532     124.7977      0.00000
   4533     124.8145      0.00000
   4534     124.8286      0.00000
   4535     124.8339      0.00000
   4536     124.8671      0.00000
   4537     124.8846      0.00000
   4538     124.8980      0.00000
   4539     124.9013      0.00000
   4540     124.9103      0.00000
   4541     124.9603      0.00000
   4542     124.9697      0.00000
   4543     124.9835      0.00000
   4544     124.9851      0.00000
   4545     125.0230      0.00000
   4546     125.0301      0.00000
   4547     125.0474      0.00000
   4548     125.0652      0.00000
   4549     125.0825      0.00000
   4550     125.0964      0.00000
   4551     125.1078      0.00000
   4552     125.1187      0.00000
   4553     125.1398      0.00000
   4554     125.1709      0.00000
   4555     125.1938      0.00000
   4556     125.2054      0.00000
   4557     125.2230      0.00000
   4558     125.2368      0.00000
   4559     125.2457      0.00000
   4560     125.2734      0.00000
   4561     125.2895      0.00000
   4562     125.3178      0.00000
   4563     125.3441      0.00000
   4564     125.3579      0.00000
   4565     125.3607      0.00000
   4566     125.4015      0.00000
   4567     125.4059      0.00000
   4568     125.4298      0.00000
   4569     125.4490      0.00000
   4570     125.4599      0.00000
   4571     125.4641      0.00000
   4572     125.4860      0.00000
   4573     125.5275      0.00000
   4574     125.5373      0.00000
   4575     125.5430      0.00000
   4576     125.5488      0.00000
   4577     125.5612      0.00000
   4578     125.5981      0.00000
   4579     125.6044      0.00000
   4580     125.6532      0.00000
   4581     125.6651      0.00000
   4582     125.6671      0.00000
   4583     125.6892      0.00000
   4584     125.7072      0.00000
   4585     125.7173      0.00000
   4586     125.7521      0.00000
   4587     125.7567      0.00000
   4588     125.7609      0.00000
   4589     125.7829      0.00000
   4590     125.8080      0.00000
   4591     125.8152      0.00000
   4592     125.8415      0.00000
   4593     125.8655      0.00000
   4594     125.8901      0.00000
   4595     125.9009      0.00000
   4596     125.9166      0.00000
   4597     125.9327      0.00000
   4598     125.9549      0.00000
   4599     125.9705      0.00000
   4600     125.9876      0.00000
   4601     126.0023      0.00000
   4602     126.0176      0.00000
   4603     126.0277      0.00000
   4604     126.0457      0.00000
   4605     126.0720      0.00000
   4606     126.0829      0.00000
   4607     126.0942      0.00000
   4608     126.1230      0.00000
   4609     126.1280      0.00000
   4610     126.1434      0.00000
   4611     126.1741      0.00000
   4612     126.1880      0.00000
   4613     126.2136      0.00000
   4614     126.2373      0.00000
   4615     126.2559      0.00000
   4616     126.2585      0.00000
   4617     126.2800      0.00000
   4618     126.3033      0.00000
   4619     126.3126      0.00000
   4620     126.3235      0.00000
   4621     126.3565      0.00000
   4622     126.3638      0.00000
   4623     126.3873      0.00000
   4624     126.4073      0.00000
   4625     126.4206      0.00000
   4626     126.4528      0.00000
   4627     126.4770      0.00000
   4628     126.4833      0.00000
   4629     126.4976      0.00000
   4630     126.5114      0.00000
   4631     126.5154      0.00000
   4632     126.5408      0.00000
   4633     126.5742      0.00000
   4634     126.6034      0.00000
   4635     126.6240      0.00000
   4636     126.6375      0.00000
   4637     126.6535      0.00000
   4638     126.6584      0.00000
   4639     126.6694      0.00000
   4640     126.6796      0.00000
   4641     126.6956      0.00000
   4642     126.7066      0.00000
   4643     126.7716      0.00000
   4644     126.7771      0.00000
   4645     126.8095      0.00000
   4646     126.8332      0.00000
   4647     126.8671      0.00000
   4648     126.8783      0.00000
   4649     126.8900      0.00000
   4650     126.9024      0.00000
   4651     126.9084      0.00000
   4652     126.9220      0.00000
   4653     126.9376      0.00000
   4654     126.9480      0.00000
   4655     126.9639      0.00000
   4656     126.9913      0.00000
   4657     127.0115      0.00000
   4658     127.0282      0.00000
   4659     127.0350      0.00000
   4660     127.0623      0.00000
   4661     127.0703      0.00000
   4662     127.0972      0.00000
   4663     127.1182      0.00000
   4664     127.1378      0.00000
   4665     127.1560      0.00000
   4666     127.1765      0.00000
   4667     127.1785      0.00000
   4668     127.2139      0.00000
   4669     127.2382      0.00000
   4670     127.2608      0.00000
   4671     127.2669      0.00000
   4672     127.2802      0.00000
   4673     127.2916      0.00000
   4674     127.3190      0.00000
   4675     127.3274      0.00000
   4676     127.3385      0.00000
   4677     127.3592      0.00000
   4678     127.3860      0.00000
   4679     127.3976      0.00000
   4680     127.4155      0.00000
   4681     127.4243      0.00000
   4682     127.4387      0.00000
   4683     127.4493      0.00000
   4684     127.4732      0.00000
   4685     127.5004      0.00000
   4686     127.5050      0.00000
   4687     127.5411      0.00000
   4688     127.5608      0.00000
   4689     127.5820      0.00000
   4690     127.5996      0.00000
   4691     127.6072      0.00000
   4692     127.6379      0.00000
   4693     127.6565      0.00000
   4694     127.6832      0.00000
   4695     127.7011      0.00000
   4696     127.7102      0.00000
   4697     127.7205      0.00000
   4698     127.7360      0.00000
   4699     127.7516      0.00000
   4700     127.7773      0.00000
   4701     127.7908      0.00000
   4702     127.8151      0.00000
   4703     127.8236      0.00000
   4704     127.8418      0.00000
   4705     127.8637      0.00000
   4706     127.9034      0.00000
   4707     127.9136      0.00000
   4708     127.9187      0.00000
   4709     127.9507      0.00000
   4710     127.9745      0.00000
   4711     127.9807      0.00000
   4712     127.9989      0.00000
   4713     128.0157      0.00000
   4714     128.0312      0.00000
   4715     128.0429      0.00000
   4716     128.0732      0.00000
   4717     128.0849      0.00000
   4718     128.0865      0.00000
   4719     128.1157      0.00000
   4720     128.1199      0.00000
   4721     128.1377      0.00000
   4722     128.1588      0.00000
   4723     128.1924      0.00000
   4724     128.2123      0.00000
   4725     128.2221      0.00000
   4726     128.2280      0.00000
   4727     128.2452      0.00000
   4728     128.2780      0.00000
   4729     128.2954      0.00000
   4730     128.3182      0.00000
   4731     128.3294      0.00000
   4732     128.3451      0.00000
   4733     128.3601      0.00000
   4734     128.3811      0.00000
   4735     128.3926      0.00000
   4736     128.4202      0.00000
   4737     128.4273      0.00000
   4738     128.4465      0.00000
   4739     128.4717      0.00000
   4740     128.4818      0.00000
   4741     128.4980      0.00000
   4742     128.5179      0.00000
   4743     128.5519      0.00000
   4744     128.5533      0.00000
   4745     128.5754      0.00000
   4746     128.6018      0.00000
   4747     128.6256      0.00000
   4748     128.6431      0.00000
   4749     128.6576      0.00000
   4750     128.6724      0.00000
   4751     128.6903      0.00000
   4752     128.7146      0.00000
   4753     128.7332      0.00000
   4754     128.7381      0.00000
   4755     128.7494      0.00000
   4756     128.7794      0.00000
   4757     128.7837      0.00000
   4758     128.7888      0.00000
   4759     128.8086      0.00000
   4760     128.8124      0.00000
   4761     128.8445      0.00000
   4762     128.8485      0.00000
   4763     128.8627      0.00000
   4764     128.8724      0.00000
   4765     128.8934      0.00000
   4766     128.9072      0.00000
   4767     128.9301      0.00000
   4768     128.9396      0.00000
   4769     128.9573      0.00000
   4770     128.9665      0.00000
   4771     128.9909      0.00000
   4772     129.0085      0.00000
   4773     129.0330      0.00000
   4774     129.0388      0.00000
   4775     129.0663      0.00000
   4776     129.0811      0.00000
   4777     129.0877      0.00000
   4778     129.1105      0.00000
   4779     129.1347      0.00000
   4780     129.1502      0.00000
   4781     129.1590      0.00000
   4782     129.1712      0.00000
   4783     129.1991      0.00000
   4784     129.2039      0.00000
   4785     129.2154      0.00000
   4786     129.2453      0.00000
   4787     129.2477      0.00000
   4788     129.2647      0.00000
   4789     129.2875      0.00000
   4790     129.3191      0.00000
   4791     129.3286      0.00000
   4792     129.3432      0.00000
   4793     129.3562      0.00000
   4794     129.3826      0.00000
   4795     129.3927      0.00000
   4796     129.4090      0.00000
   4797     129.4180      0.00000
   4798     129.4253      0.00000
   4799     129.4455      0.00000
   4800     129.4508      0.00000
   4801     129.4765      0.00000
   4802     129.4805      0.00000
   4803     129.5048      0.00000
   4804     129.5233      0.00000
   4805     129.5532      0.00000
   4806     129.5675      0.00000
   4807     129.5762      0.00000
   4808     129.5895      0.00000
   4809     129.6127      0.00000
   4810     129.6250      0.00000
   4811     129.6487      0.00000
   4812     129.6594      0.00000
   4813     129.6715      0.00000
   4814     129.6857      0.00000
   4815     129.6994      0.00000
   4816     129.7304      0.00000
   4817     129.7605      0.00000
   4818     129.7705      0.00000
   4819     129.7928      0.00000
   4820     129.8056      0.00000
   4821     129.8138      0.00000
   4822     129.8281      0.00000
   4823     129.8538      0.00000
   4824     129.8571      0.00000
   4825     129.8802      0.00000
   4826     129.8861      0.00000
   4827     129.8947      0.00000
   4828     129.9324      0.00000
   4829     129.9478      0.00000
   4830     129.9640      0.00000
   4831     129.9971      0.00000
   4832     130.0044      0.00000
   4833     130.0450      0.00000
   4834     130.0536      0.00000
   4835     130.0566      0.00000
   4836     130.0745      0.00000
   4837     130.0916      0.00000
   4838     130.1321      0.00000
   4839     130.1416      0.00000
   4840     130.1429      0.00000
   4841     130.1620      0.00000
   4842     130.1788      0.00000
   4843     130.1835      0.00000
   4844     130.2072      0.00000
   4845     130.2345      0.00000
   4846     130.2519      0.00000
   4847     130.2651      0.00000
   4848     130.2936      0.00000
   4849     130.2977      0.00000
   4850     130.3295      0.00000
   4851     130.3442      0.00000
   4852     130.3612      0.00000
   4853     130.3785      0.00000
   4854     130.3832      0.00000
   4855     130.4153      0.00000
   4856     130.4245      0.00000
   4857     130.4441      0.00000
   4858     130.4482      0.00000
   4859     130.4609      0.00000
   4860     130.4720      0.00000
   4861     130.4866      0.00000
   4862     130.5180      0.00000
   4863     130.5492      0.00000
   4864     130.5673      0.00000
   4865     130.5780      0.00000
   4866     130.5941      0.00000
   4867     130.6184      0.00000
   4868     130.6295      0.00000
   4869     130.6604      0.00000
   4870     130.6759      0.00000
   4871     130.7019      0.00000
   4872     130.7101      0.00000
   4873     130.7270      0.00000
   4874     130.7499      0.00000
   4875     130.7694      0.00000
   4876     130.7762      0.00000
   4877     130.8070      0.00000
   4878     130.8154      0.00000
   4879     130.8253      0.00000
   4880     130.8395      0.00000
   4881     130.8535      0.00000
   4882     130.8671      0.00000
   4883     130.9132      0.00000
   4884     130.9286      0.00000
   4885     130.9354      0.00000
   4886     130.9521      0.00000
   4887     130.9952      0.00000
   4888     131.0145      0.00000
   4889     131.0532      0.00000
   4890     131.0569      0.00000
   4891     131.0576      0.00000
   4892     131.0807      0.00000
   4893     131.1093      0.00000
   4894     131.1138      0.00000
   4895     131.1557      0.00000
   4896     131.1682      0.00000
   4897     131.1968      0.00000
   4898     131.2024      0.00000
   4899     131.2246      0.00000
   4900     131.2367      0.00000
   4901     131.2611      0.00000
   4902     131.2712      0.00000
   4903     131.2979      0.00000
   4904     131.3154      0.00000
   4905     131.3303      0.00000
   4906     131.3407      0.00000
   4907     131.3730      0.00000
   4908     131.4062      0.00000
   4909     131.4207      0.00000
   4910     131.4460      0.00000
   4911     131.4599      0.00000
   4912     131.4814      0.00000
   4913     131.4978      0.00000
   4914     131.5130      0.00000
   4915     131.5395      0.00000
   4916     131.5740      0.00000
   4917     131.6010      0.00000
   4918     131.6126      0.00000
   4919     131.6263      0.00000
   4920     131.6596      0.00000
   4921     131.6834      0.00000
   4922     131.7043      0.00000
   4923     131.7421      0.00000
   4924     131.7628      0.00000
   4925     131.7667      0.00000
   4926     131.7785      0.00000
   4927     131.8132      0.00000
   4928     131.8262      0.00000
   4929     131.8484      0.00000
   4930     131.8778      0.00000
   4931     131.8946      0.00000
   4932     131.9067      0.00000
   4933     131.9263      0.00000
   4934     131.9589      0.00000
   4935     131.9777      0.00000
   4936     132.0066      0.00000
   4937     132.0255      0.00000
   4938     132.0351      0.00000
   4939     132.0584      0.00000
   4940     132.1028      0.00000
   4941     132.1187      0.00000
   4942     132.1346      0.00000
   4943     132.1459      0.00000
   4944     132.1965      0.00000
   4945     132.2213      0.00000
   4946     132.2485      0.00000
   4947     132.2651      0.00000
   4948     132.2862      0.00000
   4949     132.3241      0.00000
   4950     132.3477      0.00000
   4951     132.3549      0.00000
   4952     132.3611      0.00000
   4953     132.3853      0.00000
   4954     132.4202      0.00000
   4955     132.4407      0.00000
   4956     132.4595      0.00000
   4957     132.4761      0.00000
   4958     132.4845      0.00000
   4959     132.5044      0.00000
   4960     132.5190      0.00000
   4961     132.5620      0.00000
   4962     132.5726      0.00000
   4963     132.6264      0.00000
   4964     132.6393      0.00000
   4965     132.6417      0.00000
   4966     132.6718      0.00000
   4967     132.7063      0.00000
   4968     132.7436      0.00000
   4969     132.7541      0.00000
   4970     132.7625      0.00000
   4971     132.7872      0.00000
   4972     132.8153      0.00000
   4973     132.8409      0.00000
   4974     132.8580      0.00000
   4975     132.8967      0.00000
   4976     132.9173      0.00000
   4977     132.9377      0.00000
   4978     132.9698      0.00000
   4979     132.9900      0.00000
   4980     133.0144      0.00000
   4981     133.0335      0.00000
   4982     133.0486      0.00000
   4983     133.0910      0.00000
   4984     133.0999      0.00000
   4985     133.1260      0.00000
   4986     133.1334      0.00000
   4987     133.1609      0.00000
   4988     133.1674      0.00000
   4989     133.1916      0.00000
   4990     133.2159      0.00000
   4991     133.2413      0.00000
   4992     133.2481      0.00000
   4993     133.2789      0.00000
   4994     133.3083      0.00000
   4995     133.3341      0.00000
   4996     133.3464      0.00000
   4997     133.3727      0.00000
   4998     133.3978      0.00000
   4999     133.4130      0.00000
   5000     133.4355      0.00000
   5001     133.4819      0.00000
   5002     133.4974      0.00000
   5003     133.5033      0.00000
   5004     133.5178      0.00000
   5005     133.5495      0.00000
   5006     133.5722      0.00000
   5007     133.5885      0.00000
   5008     133.6028      0.00000
   5009     133.6124      0.00000
   5010     133.6555      0.00000
   5011     133.6706      0.00000
   5012     133.6857      0.00000
   5013     133.7104      0.00000
   5014     133.7242      0.00000
   5015     133.7446      0.00000
   5016     133.7777      0.00000
   5017     133.8043      0.00000
   5018     133.8242      0.00000
   5019     133.8499      0.00000
   5020     133.8611      0.00000
   5021     133.8799      0.00000
   5022     133.8915      0.00000
   5023     133.9216      0.00000
   5024     133.9545      0.00000
   5025     133.9615      0.00000
   5026     134.0012      0.00000
   5027     134.0151      0.00000
   5028     134.0221      0.00000
   5029     134.0450      0.00000
   5030     134.0550      0.00000
   5031     134.0748      0.00000
   5032     134.0923      0.00000
   5033     134.1171      0.00000
   5034     134.1325      0.00000
   5035     134.1499      0.00000
   5036     134.1826      0.00000
   5037     134.1856      0.00000
   5038     134.1959      0.00000
   5039     134.2470      0.00000
   5040     134.2529      0.00000
   5041     134.2653      0.00000
   5042     134.2917      0.00000
   5043     134.3008      0.00000
   5044     134.3214      0.00000
   5045     134.3304      0.00000
   5046     134.3397      0.00000
   5047     134.3979      0.00000
   5048     134.4166      0.00000
   5049     134.4323      0.00000
   5050     134.4497      0.00000
   5051     134.4666      0.00000
   5052     134.4776      0.00000
   5053     134.5032      0.00000
   5054     134.5248      0.00000
   5055     134.5253      0.00000
   5056     134.5355      0.00000
   5057     134.5686      0.00000
   5058     134.5869      0.00000
   5059     134.5976      0.00000
   5060     134.6315      0.00000
   5061     134.6615      0.00000
   5062     134.6795      0.00000
   5063     134.6861      0.00000
   5064     134.6974      0.00000
   5065     134.7123      0.00000
   5066     134.7280      0.00000
   5067     134.7701      0.00000
   5068     134.7868      0.00000
   5069     134.7897      0.00000
   5070     134.8078      0.00000
   5071     134.8209      0.00000
   5072     134.8420      0.00000
   5073     134.8554      0.00000
   5074     134.8836      0.00000
   5075     134.9021      0.00000
   5076     134.9293      0.00000
   5077     134.9388      0.00000
   5078     134.9629      0.00000
   5079     134.9740      0.00000
   5080     134.9760      0.00000
   5081     135.0103      0.00000
   5082     135.0113      0.00000
   5083     135.0363      0.00000
   5084     135.0482      0.00000
   5085     135.0621      0.00000
   5086     135.0899      0.00000
   5087     135.1020      0.00000
   5088     135.1162      0.00000
   5089     135.1484      0.00000
   5090     135.1506      0.00000
   5091     135.1608      0.00000
   5092     135.1796      0.00000
   5093     135.1998      0.00000
   5094     135.2050      0.00000
   5095     135.2307      0.00000
   5096     135.2438      0.00000
   5097     135.2708      0.00000
   5098     135.2832      0.00000
   5099     135.3105      0.00000
   5100     135.3183      0.00000
   5101     135.3256      0.00000
   5102     135.3631      0.00000
   5103     135.3719      0.00000
   5104     135.3769      0.00000
   5105     135.4036      0.00000
   5106     135.4250      0.00000
   5107     135.4300      0.00000
   5108     135.4408      0.00000
   5109     135.4630      0.00000
   5110     135.5056      0.00000
   5111     135.5119      0.00000
   5112     135.5215      0.00000
   5113     135.5390      0.00000
   5114     135.5531      0.00000
   5115     135.5802      0.00000
   5116     135.6000      0.00000
   5117     135.6150      0.00000
   5118     135.6281      0.00000
   5119     135.6349      0.00000
   5120     135.6737      0.00000
   5121     135.6845      0.00000
   5122     135.7145      0.00000
   5123     135.7371      0.00000
   5124     135.7523      0.00000
   5125     135.7580      0.00000
   5126     135.7754      0.00000
   5127     135.7910      0.00000
   5128     135.7951      0.00000
   5129     135.8065      0.00000
   5130     135.8343      0.00000
   5131     135.8495      0.00000
   5132     135.8659      0.00000
   5133     135.8917      0.00000
   5134     135.9063      0.00000
   5135     135.9257      0.00000
   5136     135.9420      0.00000
   5137     135.9644      0.00000
   5138     135.9780      0.00000
   5139     135.9837      0.00000
   5140     135.9953      0.00000
   5141     136.0334      0.00000
   5142     136.0590      0.00000
   5143     136.0608      0.00000
   5144     136.0759      0.00000
   5145     136.0999      0.00000
   5146     136.1179      0.00000
   5147     136.1462      0.00000
   5148     136.1560      0.00000
   5149     136.1728      0.00000
   5150     136.1768      0.00000
   5151     136.1943      0.00000
   5152     136.2001      0.00000
   5153     136.2033      0.00000
   5154     136.2426      0.00000
   5155     136.2634      0.00000
   5156     136.2845      0.00000
   5157     136.3073      0.00000
   5158     136.3295      0.00000
   5159     136.3421      0.00000
   5160     136.3513      0.00000
   5161     136.3735      0.00000
   5162     136.3836      0.00000
   5163     136.3964      0.00000
   5164     136.4238      0.00000
   5165     136.4394      0.00000
   5166     136.4449      0.00000
   5167     136.4753      0.00000
   5168     136.5094      0.00000
   5169     136.5403      0.00000
   5170     136.5496      0.00000
   5171     136.5593      0.00000
   5172     136.5816      0.00000
   5173     136.6054      0.00000
   5174     136.6113      0.00000
   5175     136.6373      0.00000
   5176     136.6652      0.00000
   5177     136.6884      0.00000
   5178     136.7050      0.00000
   5179     136.7221      0.00000
   5180     136.7308      0.00000
   5181     136.7436      0.00000
   5182     136.7604      0.00000
   5183     136.7798      0.00000
   5184     136.7862      0.00000
   5185     136.8132      0.00000
   5186     136.8363      0.00000
   5187     136.8532      0.00000
   5188     136.8608      0.00000
   5189     136.8782      0.00000
   5190     136.8917      0.00000
   5191     136.9069      0.00000
   5192     136.9124      0.00000
   5193     136.9229      0.00000
   5194     136.9529      0.00000
   5195     136.9666      0.00000
   5196     136.9803      0.00000
   5197     137.0011      0.00000
   5198     137.0177      0.00000
   5199     137.0395      0.00000
   5200     137.0573      0.00000
   5201     137.0820      0.00000
   5202     137.1086      0.00000
   5203     137.1102      0.00000
   5204     137.1347      0.00000
   5205     137.1441      0.00000
   5206     137.1600      0.00000
   5207     137.1825      0.00000
   5208     137.2057      0.00000
   5209     137.2208      0.00000
   5210     137.2337      0.00000
   5211     137.2490      0.00000
   5212     137.2535      0.00000
   5213     137.2689      0.00000
   5214     137.2782      0.00000
   5215     137.3012      0.00000
   5216     137.3349      0.00000
   5217     137.3590      0.00000
   5218     137.3760      0.00000
   5219     137.3837      0.00000
   5220     137.4099      0.00000
   5221     137.4205      0.00000
   5222     137.4326      0.00000
   5223     137.4532      0.00000
   5224     137.4881      0.00000
   5225     137.5076      0.00000
   5226     137.5106      0.00000
   5227     137.5382      0.00000
   5228     137.5452      0.00000
   5229     137.5638      0.00000
   5230     137.5769      0.00000
   5231     137.5916      0.00000
   5232     137.6187      0.00000
   5233     137.6416      0.00000
   5234     137.6472      0.00000
   5235     137.6728      0.00000
   5236     137.6789      0.00000
   5237     137.7069      0.00000
   5238     137.7197      0.00000
   5239     137.7265      0.00000
   5240     137.7375      0.00000
   5241     137.7444      0.00000
   5242     137.7586      0.00000
   5243     137.7963      0.00000
   5244     137.7969      0.00000
   5245     137.8280      0.00000
   5246     137.8379      0.00000
   5247     137.8872      0.00000
   5248     137.9055      0.00000
   5249     137.9189      0.00000
   5250     137.9273      0.00000
   5251     137.9302      0.00000
   5252     137.9560      0.00000
   5253     137.9621      0.00000
   5254     137.9895      0.00000
   5255     137.9959      0.00000
   5256     138.0046      0.00000
   5257     138.0174      0.00000
   5258     138.0527      0.00000
   5259     138.0684      0.00000
   5260     138.0871      0.00000
   5261     138.1076      0.00000
   5262     138.1332      0.00000
   5263     138.1622      0.00000
   5264     138.1744      0.00000
   5265     138.1892      0.00000
   5266     138.2048      0.00000
   5267     138.2196      0.00000
   5268     138.2360      0.00000
   5269     138.2577      0.00000
   5270     138.2785      0.00000
   5271     138.3041      0.00000
   5272     138.3170      0.00000
   5273     138.3250      0.00000
   5274     138.3281      0.00000
   5275     138.3368      0.00000
   5276     138.3500      0.00000
   5277     138.3696      0.00000
   5278     138.3982      0.00000
   5279     138.4008      0.00000
   5280     138.4214      0.00000
   5281     138.4543      0.00000
   5282     138.4632      0.00000
   5283     138.4737      0.00000
   5284     138.4899      0.00000
   5285     138.5101      0.00000
   5286     138.5296      0.00000
   5287     138.5592      0.00000
   5288     138.5674      0.00000
   5289     138.5808      0.00000
   5290     138.5928      0.00000
   5291     138.6158      0.00000
   5292     138.6218      0.00000
   5293     138.6552      0.00000
   5294     138.6614      0.00000
   5295     138.6724      0.00000
   5296     138.6918      0.00000
   5297     138.7064      0.00000
   5298     138.7124      0.00000
   5299     138.7252      0.00000
   5300     138.7466      0.00000
   5301     138.7520      0.00000
   5302     138.7798      0.00000
   5303     138.7821      0.00000
   5304     138.8088      0.00000
   5305     138.8197      0.00000
   5306     138.8471      0.00000
   5307     138.8662      0.00000
   5308     138.8862      0.00000
   5309     138.9054      0.00000
   5310     138.9200      0.00000
   5311     138.9305      0.00000
   5312     138.9595      0.00000
   5313     138.9871      0.00000
   5314     138.9927      0.00000
   5315     139.0161      0.00000
   5316     139.0302      0.00000
   5317     139.0474      0.00000
   5318     139.0697      0.00000
   5319     139.0982      0.00000
   5320     139.1190      0.00000
   5321     139.1214      0.00000
   5322     139.1501      0.00000
   5323     139.1757      0.00000
   5324     139.1900      0.00000
   5325     139.1945      0.00000
   5326     139.2081      0.00000
   5327     139.2113      0.00000
   5328     139.2291      0.00000
   5329     139.2493      0.00000
   5330     139.2669      0.00000
   5331     139.2733      0.00000
   5332     139.2958      0.00000
   5333     139.3058      0.00000
   5334     139.3442      0.00000
   5335     139.3563      0.00000
   5336     139.3688      0.00000
   5337     139.3872      0.00000
   5338     139.4030      0.00000
   5339     139.4221      0.00000
   5340     139.4361      0.00000
   5341     139.4548      0.00000
   5342     139.4803      0.00000
   5343     139.4956      0.00000
   5344     139.5106      0.00000
   5345     139.5224      0.00000
   5346     139.5314      0.00000
   5347     139.5478      0.00000
   5348     139.5704      0.00000
   5349     139.5889      0.00000
   5350     139.5966      0.00000
   5351     139.6289      0.00000
   5352     139.6379      0.00000
   5353     139.6600      0.00000
   5354     139.6689      0.00000
   5355     139.6819      0.00000
   5356     139.7016      0.00000
   5357     139.7045      0.00000
   5358     139.7478      0.00000
   5359     139.7644      0.00000
   5360     139.7752      0.00000
   5361     139.7824      0.00000
   5362     139.7963      0.00000
   5363     139.8220      0.00000
   5364     139.8303      0.00000
   5365     139.8586      0.00000
   5366     139.8725      0.00000
   5367     139.8896      0.00000
   5368     139.8982      0.00000
   5369     139.9340      0.00000
   5370     139.9391      0.00000
   5371     139.9472      0.00000
   5372     139.9584      0.00000
   5373     139.9748      0.00000
   5374     139.9979      0.00000
   5375     140.0110      0.00000
   5376     140.0410      0.00000
   5377     140.0469      0.00000
   5378     140.0605      0.00000
   5379     140.0747      0.00000
   5380     140.1012      0.00000
   5381     140.1169      0.00000
   5382     140.1252      0.00000
   5383     140.1411      0.00000
   5384     140.1575      0.00000
   5385     140.1869      0.00000
   5386     140.2149      0.00000
   5387     140.2216      0.00000
   5388     140.2346      0.00000
   5389     140.2518      0.00000
   5390     140.2651      0.00000
   5391     140.2784      0.00000
   5392     140.2937      0.00000
   5393     140.2974      0.00000
   5394     140.3211      0.00000
   5395     140.3518      0.00000
   5396     140.3632      0.00000
   5397     140.3888      0.00000
   5398     140.4189      0.00000
   5399     140.4292      0.00000
   5400     140.4337      0.00000
   5401     140.4516      0.00000
   5402     140.4600      0.00000
   5403     140.4712      0.00000
   5404     140.4823      0.00000
   5405     140.5056      0.00000
   5406     140.5238      0.00000
   5407     140.5381      0.00000
   5408     140.5719      0.00000
   5409     140.5864      0.00000
   5410     140.5966      0.00000
   5411     140.6118      0.00000
   5412     140.6363      0.00000
   5413     140.6569      0.00000
   5414     140.6713      0.00000
   5415     140.6794      0.00000
   5416     140.7113      0.00000
   5417     140.7221      0.00000
   5418     140.7300      0.00000
   5419     140.7359      0.00000
   5420     140.7710      0.00000
   5421     140.7738      0.00000
   5422     140.7910      0.00000
   5423     140.8177      0.00000
   5424     140.8403      0.00000
   5425     140.8525      0.00000
   5426     140.8633      0.00000
   5427     140.8756      0.00000
   5428     140.8896      0.00000
   5429     140.9149      0.00000
   5430     140.9321      0.00000
   5431     140.9421      0.00000
   5432     140.9542      0.00000
   5433     140.9675      0.00000
   5434     140.9840      0.00000
   5435     141.0162      0.00000
   5436     141.0318      0.00000
   5437     141.0580      0.00000
   5438     141.0668      0.00000
   5439     141.0770      0.00000
   5440     141.0838      0.00000
   5441     141.1049      0.00000
   5442     141.1318      0.00000
   5443     141.1893      0.00000
   5444     141.1961      0.00000
   5445     141.2205      0.00000
   5446     141.2302      0.00000
   5447     141.2503      0.00000
   5448     141.2590      0.00000
   5449     141.2752      0.00000
   5450     141.2827      0.00000
   5451     141.3060      0.00000
   5452     141.3306      0.00000
   5453     141.3472      0.00000
   5454     141.3629      0.00000
   5455     141.3764      0.00000
   5456     141.3931      0.00000
   5457     141.4258      0.00000
   5458     141.4427      0.00000
   5459     141.4524      0.00000
   5460     141.4639      0.00000
   5461     141.4928      0.00000
   5462     141.5054      0.00000
   5463     141.5350      0.00000
   5464     141.5551      0.00000
   5465     141.5640      0.00000
   5466     141.6100      0.00000
   5467     141.6250      0.00000
   5468     141.6541      0.00000
   5469     141.6590      0.00000
   5470     141.6627      0.00000
   5471     141.6866      0.00000
   5472     141.7025      0.00000
   5473     141.7328      0.00000
   5474     141.7388      0.00000
   5475     141.7622      0.00000
   5476     141.7844      0.00000
   5477     141.7871      0.00000
   5478     141.8154      0.00000
   5479     141.8477      0.00000
   5480     141.8605      0.00000
   5481     141.8723      0.00000
   5482     141.8961      0.00000
   5483     141.9129      0.00000
   5484     141.9395      0.00000
   5485     141.9617      0.00000
   5486     141.9713      0.00000
   5487     141.9755      0.00000
   5488     141.9955      0.00000
   5489     142.0064      0.00000
   5490     142.0293      0.00000
   5491     142.0516      0.00000
   5492     142.0802      0.00000
   5493     142.0934      0.00000
   5494     142.0991      0.00000
   5495     142.1141      0.00000
   5496     142.1229      0.00000
   5497     142.1852      0.00000
   5498     142.2184      0.00000
   5499     142.2454      0.00000
   5500     142.2553      0.00000
   5501     142.2599      0.00000
   5502     142.3067      0.00000
   5503     142.3141      0.00000
   5504     142.3187      0.00000
   5505     142.3252      0.00000
   5506     142.3392      0.00000
   5507     142.3768      0.00000
   5508     142.3966      0.00000
   5509     142.4062      0.00000
   5510     142.4315      0.00000
   5511     142.4649      0.00000
   5512     142.4746      0.00000
   5513     142.4837      0.00000
   5514     142.5118      0.00000
   5515     142.5273      0.00000
   5516     142.5638      0.00000
   5517     142.5800      0.00000
   5518     142.6201      0.00000
   5519     142.6454      0.00000
   5520     142.6701      0.00000
   5521     142.6837      0.00000
   5522     142.6867      0.00000
   5523     142.7095      0.00000
   5524     142.7248      0.00000
   5525     142.7337      0.00000
   5526     142.7418      0.00000
   5527     142.7642      0.00000
   5528     142.7902      0.00000
   5529     142.8187      0.00000
   5530     142.8484      0.00000
   5531     142.8727      0.00000
   5532     142.8852      0.00000
   5533     142.9089      0.00000
   5534     142.9304      0.00000
   5535     142.9495      0.00000
   5536     142.9631      0.00000
   5537     142.9830      0.00000
   5538     143.0141      0.00000
   5539     143.0383      0.00000
   5540     143.0440      0.00000
   5541     143.0704      0.00000
   5542     143.0927      0.00000
   5543     143.1020      0.00000
   5544     143.1057      0.00000
   5545     143.1180      0.00000
   5546     143.1599      0.00000
   5547     143.1722      0.00000
   5548     143.1933      0.00000
   5549     143.2181      0.00000
   5550     143.2501      0.00000
   5551     143.2632      0.00000
   5552     143.2730      0.00000
   5553     143.2862      0.00000
   5554     143.2992      0.00000
   5555     143.3168      0.00000
   5556     143.3285      0.00000
   5557     143.3622      0.00000
   5558     143.3799      0.00000
   5559     143.3929      0.00000
   5560     143.4008      0.00000
   5561     143.4091      0.00000
   5562     143.4325      0.00000
   5563     143.4434      0.00000
   5564     143.4677      0.00000
   5565     143.4846      0.00000
   5566     143.5021      0.00000
   5567     143.5149      0.00000
   5568     143.5362      0.00000
   5569     143.5462      0.00000
   5570     143.5706      0.00000
   5571     143.5818      0.00000
   5572     143.6078      0.00000
   5573     143.6234      0.00000
   5574     143.6375      0.00000
   5575     143.6735      0.00000
   5576     143.6836      0.00000
   5577     143.7175      0.00000
   5578     143.7274      0.00000
   5579     143.7385      0.00000
   5580     143.7519      0.00000
   5581     143.7782      0.00000
   5582     143.7992      0.00000
   5583     143.8114      0.00000
   5584     143.8281      0.00000
   5585     143.8556      0.00000
   5586     143.8814      0.00000
   5587     143.9043      0.00000
   5588     143.9198      0.00000
   5589     143.9439      0.00000
   5590     143.9542      0.00000
   5591     143.9586      0.00000
   5592     143.9904      0.00000
   5593     144.0019      0.00000
   5594     144.0129      0.00000
   5595     144.0302      0.00000
   5596     144.0519      0.00000
   5597     144.0670      0.00000
   5598     144.0778      0.00000
   5599     144.1122      0.00000
   5600     144.1179      0.00000
   5601     144.1370      0.00000
   5602     144.1482      0.00000
   5603     144.1681      0.00000
   5604     144.2016      0.00000
   5605     144.2142      0.00000
   5606     144.2193      0.00000
   5607     144.2567      0.00000
   5608     144.2735      0.00000
   5609     144.3197      0.00000
   5610     144.3265      0.00000
   5611     144.3312      0.00000
   5612     144.3454      0.00000
   5613     144.3692      0.00000
   5614     144.3978      0.00000
   5615     144.4168      0.00000
   5616     144.4239      0.00000
   5617     144.4316      0.00000
   5618     144.4509      0.00000
   5619     144.4664      0.00000
   5620     144.4907      0.00000
   5621     144.5044      0.00000
   5622     144.5494      0.00000
   5623     144.5720      0.00000
   5624     144.5996      0.00000
   5625     144.6378      0.00000
   5626     144.6503      0.00000
   5627     144.6559      0.00000
   5628     144.6778      0.00000
   5629     144.7017      0.00000
   5630     144.7039      0.00000
   5631     144.7167      0.00000
   5632     144.7348      0.00000
   5633     144.7586      0.00000
   5634     144.7763      0.00000
   5635     144.7958      0.00000
   5636     144.8119      0.00000
   5637     144.8362      0.00000
   5638     144.8450      0.00000
   5639     144.8718      0.00000
   5640     144.8841      0.00000
   5641     144.9060      0.00000
   5642     144.9252      0.00000
   5643     144.9329      0.00000
   5644     144.9713      0.00000
   5645     144.9963      0.00000
   5646     145.0039      0.00000
   5647     145.0232      0.00000
   5648     145.0384      0.00000
   5649     145.0549      0.00000
   5650     145.0811      0.00000
   5651     145.0980      0.00000
   5652     145.1004      0.00000
   5653     145.1277      0.00000
   5654     145.1377      0.00000
   5655     145.1676      0.00000
   5656     145.1775      0.00000
   5657     145.2125      0.00000
   5658     145.2208      0.00000
   5659     145.2471      0.00000
   5660     145.2670      0.00000
   5661     145.2940      0.00000
   5662     145.3160      0.00000
   5663     145.3259      0.00000
   5664     145.3443      0.00000
   5665     145.3699      0.00000
   5666     145.3863      0.00000
   5667     145.4108      0.00000
   5668     145.4249      0.00000
   5669     145.4364      0.00000
   5670     145.4604      0.00000
   5671     145.4757      0.00000
   5672     145.5112      0.00000
   5673     145.5428      0.00000
   5674     145.5593      0.00000
   5675     145.5792      0.00000
   5676     145.5975      0.00000
   5677     145.6115      0.00000
   5678     145.6165      0.00000
   5679     145.6556      0.00000
   5680     145.6709      0.00000
   5681     145.7114      0.00000
   5682     145.7263      0.00000
   5683     145.7357      0.00000
   5684     145.7571      0.00000
   5685     145.7789      0.00000
   5686     145.8021      0.00000
   5687     145.8095      0.00000
   5688     145.8267      0.00000
   5689     145.8378      0.00000
   5690     145.8646      0.00000
   5691     145.8903      0.00000
   5692     145.8920      0.00000
   5693     145.9206      0.00000
   5694     145.9347      0.00000
   5695     145.9581      0.00000
   5696     145.9848      0.00000
   5697     146.0032      0.00000
   5698     146.0369      0.00000
   5699     146.0646      0.00000
   5700     146.0777      0.00000
   5701     146.1047      0.00000
   5702     146.1212      0.00000
   5703     146.1362      0.00000
   5704     146.1437      0.00000
   5705     146.1797      0.00000
   5706     146.1974      0.00000
   5707     146.2228      0.00000
   5708     146.2646      0.00000
   5709     146.2831      0.00000
   5710     146.3005      0.00000
   5711     146.3182      0.00000
   5712     146.3278      0.00000
   5713     146.3384      0.00000
   5714     146.3508      0.00000
   5715     146.3719      0.00000
   5716     146.3822      0.00000
   5717     146.4205      0.00000
   5718     146.4294      0.00000
   5719     146.4471      0.00000
   5720     146.4740      0.00000
   5721     146.4838      0.00000
   5722     146.5000      0.00000
   5723     146.5227      0.00000
   5724     146.5479      0.00000
   5725     146.5523      0.00000
   5726     146.5707      0.00000
   5727     146.5926      0.00000
   5728     146.6305      0.00000
   5729     146.6402      0.00000
   5730     146.6552      0.00000
   5731     146.7026      0.00000
   5732     146.7067      0.00000
   5733     146.7168      0.00000
   5734     146.7286      0.00000
   5735     146.7385      0.00000
   5736     146.7475      0.00000
   5737     146.7646      0.00000
   5738     146.7758      0.00000
   5739     146.8104      0.00000
   5740     146.8335      0.00000
   5741     146.8456      0.00000
   5742     146.8643      0.00000
   5743     146.8760      0.00000
   5744     146.9123      0.00000
   5745     146.9265      0.00000
   5746     146.9431      0.00000
   5747     146.9513      0.00000
   5748     146.9767      0.00000
   5749     147.0130      0.00000
   5750     147.0230      0.00000
   5751     147.0344      0.00000
   5752     147.0548      0.00000
   5753     147.0732      0.00000
   5754     147.1140      0.00000
   5755     147.1245      0.00000
   5756     147.1313      0.00000
   5757     147.1453      0.00000
   5758     147.1668      0.00000
   5759     147.1763      0.00000
   5760     147.1932      0.00000
   5761     147.2051      0.00000
   5762     147.2588      0.00000
   5763     147.2670      0.00000
   5764     147.2834      0.00000
   5765     147.2952      0.00000
   5766     147.3087      0.00000
   5767     147.3289      0.00000
   5768     147.3491      0.00000
   5769     147.3692      0.00000
   5770     147.3802      0.00000
   5771     147.3877      0.00000
   5772     147.4068      0.00000
   5773     147.4259      0.00000
   5774     147.4350      0.00000
   5775     147.4541      0.00000
   5776     147.4608      0.00000
   5777     147.4797      0.00000
   5778     147.4890      0.00000
   5779     147.5275      0.00000
   5780     147.5368      0.00000
   5781     147.5508      0.00000
   5782     147.5666      0.00000
   5783     147.5905      0.00000
   5784     147.5945      0.00000
   5785     147.6200      0.00000
   5786     147.6362      0.00000
   5787     147.6593      0.00000
   5788     147.6983      0.00000
   5789     147.7070      0.00000
   5790     147.7314      0.00000
   5791     147.7379      0.00000
   5792     147.7591      0.00000
   5793     147.7633      0.00000
   5794     147.7715      0.00000
   5795     147.7778      0.00000
   5796     147.8247      0.00000
   5797     147.8314      0.00000
   5798     147.8553      0.00000
   5799     147.8890      0.00000
   5800     147.8982      0.00000
   5801     147.9094      0.00000
   5802     147.9120      0.00000
   5803     147.9294      0.00000
   5804     147.9402      0.00000
   5805     147.9686      0.00000
   5806     147.9759      0.00000
   5807     147.9951      0.00000
   5808     148.0042      0.00000
   5809     148.0336      0.00000
   5810     148.0569      0.00000
   5811     148.0641      0.00000
   5812     148.0795      0.00000
   5813     148.0908      0.00000
   5814     148.1047      0.00000
   5815     148.1088      0.00000
   5816     148.1272      0.00000
   5817     148.1377      0.00000
   5818     148.1542      0.00000
   5819     148.1676      0.00000
   5820     148.2048      0.00000
   5821     148.2110      0.00000
   5822     148.2161      0.00000
   5823     148.2388      0.00000
   5824     148.2450      0.00000
   5825     148.2631      0.00000
   5826     148.2676      0.00000
   5827     148.2859      0.00000
   5828     148.3142      0.00000
   5829     148.3299      0.00000
   5830     148.3398      0.00000
   5831     148.3539      0.00000
   5832     148.3761      0.00000
   5833     148.3797      0.00000
   5834     148.4154      0.00000
   5835     148.4223      0.00000
   5836     148.4365      0.00000
   5837     148.4487      0.00000
   5838     148.4747      0.00000
   5839     148.5080      0.00000
   5840     148.5219      0.00000
   5841     148.5389      0.00000
   5842     148.5464      0.00000
   5843     148.5659      0.00000
   5844     148.5749      0.00000
   5845     148.5916      0.00000
   5846     148.6020      0.00000
   5847     148.6191      0.00000
   5848     148.6253      0.00000
   5849     148.6574      0.00000
   5850     148.6747      0.00000
   5851     148.6808      0.00000
   5852     148.7173      0.00000
   5853     148.7265      0.00000
   5854     148.7438      0.00000
   5855     148.7647      0.00000
   5856     148.7741      0.00000
   5857     148.7825      0.00000
   5858     148.8067      0.00000
   5859     148.8151      0.00000
   5860     148.8241      0.00000
   5861     148.8430      0.00000
   5862     148.8497      0.00000
   5863     148.8685      0.00000
   5864     148.8978      0.00000
   5865     148.9335      0.00000
   5866     148.9391      0.00000
   5867     148.9561      0.00000
   5868     148.9855      0.00000
   5869     148.9951      0.00000
   5870     149.0324      0.00000
   5871     149.0340      0.00000
   5872     149.0657      0.00000
   5873     149.0734      0.00000
   5874     149.0855      0.00000
   5875     149.1013      0.00000
   5876     149.1069      0.00000
   5877     149.1270      0.00000
   5878     149.1522      0.00000
   5879     149.1705      0.00000
   5880     149.1836      0.00000
   5881     149.1925      0.00000
   5882     149.2235      0.00000
   5883     149.2304      0.00000
   5884     149.2468      0.00000
   5885     149.2539      0.00000
   5886     149.2729      0.00000
   5887     149.2859      0.00000
   5888     149.3028      0.00000
   5889     149.3263      0.00000
   5890     149.3519      0.00000
   5891     149.3572      0.00000
   5892     149.3878      0.00000
   5893     149.3946      0.00000
   5894     149.4192      0.00000
   5895     149.4287      0.00000
   5896     149.4614      0.00000
   5897     149.4725      0.00000
   5898     149.4953      0.00000
   5899     149.5162      0.00000
   5900     149.5257      0.00000
   5901     149.5450      0.00000
   5902     149.5801      0.00000
   5903     149.5862      0.00000
   5904     149.5948      0.00000
   5905     149.6110      0.00000
   5906     149.6230      0.00000
   5907     149.6489      0.00000
   5908     149.6585      0.00000
   5909     149.6749      0.00000
   5910     149.6923      0.00000
   5911     149.7061      0.00000
   5912     149.7339      0.00000
   5913     149.7525      0.00000
   5914     149.7548      0.00000
   5915     149.7670      0.00000
   5916     149.7946      0.00000
   5917     149.8189      0.00000
   5918     149.8356      0.00000
   5919     149.8405      0.00000
   5920     149.8598      0.00000
   5921     149.8663      0.00000
   5922     149.8721      0.00000
   5923     149.8962      0.00000
   5924     149.9208      0.00000
   5925     149.9276      0.00000
   5926     149.9530      0.00000
   5927     149.9681      0.00000
   5928     149.9811      0.00000
   5929     150.0202      0.00000
   5930     150.0286      0.00000
   5931     150.0348      0.00000
   5932     150.0457      0.00000
   5933     150.0618      0.00000
   5934     150.0699      0.00000
   5935     150.0854      0.00000
   5936     150.0955      0.00000
   5937     150.1280      0.00000
   5938     150.1382      0.00000
   5939     150.1822      0.00000
   5940     150.1901      0.00000
   5941     150.1965      0.00000
   5942     150.2154      0.00000
   5943     150.2225      0.00000
   5944     150.2336      0.00000
   5945     150.2629      0.00000
   5946     150.2818      0.00000
   5947     150.2930      0.00000
   5948     150.3066      0.00000
   5949     150.3406      0.00000
   5950     150.3430      0.00000
   5951     150.3520      0.00000
   5952     150.3987      0.00000
   5953     150.4287      0.00000
   5954     150.4426      0.00000
   5955     150.4475      0.00000
   5956     150.4588      0.00000
   5957     150.4799      0.00000
   5958     150.5052      0.00000
   5959     150.5275      0.00000
   5960     150.5332      0.00000
   5961     150.5532      0.00000
   5962     150.5727      0.00000
   5963     150.5897      0.00000
   5964     150.6067      0.00000
   5965     150.6383      0.00000
   5966     150.6546      0.00000
   5967     150.6674      0.00000
   5968     150.7155      0.00000
   5969     150.7216      0.00000
   5970     150.7375      0.00000
   5971     150.7531      0.00000
   5972     150.7744      0.00000
   5973     150.8034      0.00000
   5974     150.8104      0.00000
   5975     150.8345      0.00000
   5976     150.8422      0.00000
   5977     150.8492      0.00000
   5978     150.8919      0.00000
   5979     150.9004      0.00000
   5980     150.9078      0.00000
   5981     150.9296      0.00000
   5982     150.9569      0.00000
   5983     150.9828      0.00000
   5984     150.9941      0.00000
   5985     151.0128      0.00000
   5986     151.0207      0.00000
   5987     151.0303      0.00000
   5988     151.0439      0.00000
   5989     151.0659      0.00000
   5990     151.0766      0.00000
   5991     151.0865      0.00000
   5992     151.0991      0.00000
   5993     151.1181      0.00000
   5994     151.1399      0.00000
   5995     151.1633      0.00000
   5996     151.1857      0.00000
   5997     151.2084      0.00000
   5998     151.2127      0.00000
   5999     151.2307      0.00000
   6000     151.2504      0.00000
   6001     151.2519      0.00000
   6002     151.2713      0.00000
   6003     151.2908      0.00000
   6004     151.3276      0.00000
   6005     151.3390      0.00000
   6006     151.3468      0.00000
   6007     151.3520      0.00000
   6008     151.3782      0.00000
   6009     151.3995      0.00000
   6010     151.4186      0.00000
   6011     151.4238      0.00000
   6012     151.4311      0.00000
   6013     151.4588      0.00000
   6014     151.4915      0.00000
   6015     151.5092      0.00000
   6016     151.5456      0.00000
   6017     151.5507      0.00000
   6018     151.5792      0.00000
   6019     151.5839      0.00000
   6020     151.5870      0.00000
   6021     151.6146      0.00000
   6022     151.6254      0.00000
   6023     151.6503      0.00000
   6024     151.6804      0.00000
   6025     151.7143      0.00000
   6026     151.7329      0.00000
   6027     151.7478      0.00000
   6028     151.7834      0.00000
   6029     151.7994      0.00000
   6030     151.8052      0.00000
   6031     151.8174      0.00000
   6032     151.8289      0.00000
   6033     151.8536      0.00000
   6034     151.8700      0.00000
   6035     151.8928      0.00000
   6036     151.9061      0.00000
   6037     151.9275      0.00000
   6038     151.9480      0.00000
   6039     151.9535      0.00000
   6040     151.9711      0.00000
   6041     152.0091      0.00000
   6042     152.0375      0.00000
   6043     152.0537      0.00000
   6044     152.0630      0.00000
   6045     152.0861      0.00000
   6046     152.1123      0.00000
   6047     152.1223      0.00000
   6048     152.1526      0.00000
   6049     152.1613      0.00000
   6050     152.1893      0.00000
   6051     152.2048      0.00000
   6052     152.2117      0.00000
   6053     152.2416      0.00000
   6054     152.2565      0.00000
   6055     152.2777      0.00000
   6056     152.2830      0.00000
   6057     152.3039      0.00000
   6058     152.3421      0.00000
   6059     152.3508      0.00000
   6060     152.3596      0.00000
   6061     152.3918      0.00000
   6062     152.4162      0.00000
   6063     152.4234      0.00000
   6064     152.4469      0.00000
   6065     152.4581      0.00000
   6066     152.4695      0.00000
   6067     152.5087      0.00000
   6068     152.5415      0.00000
   6069     152.5537      0.00000
   6070     152.5563      0.00000
   6071     152.6143      0.00000
   6072     152.6254      0.00000
   6073     152.6460      0.00000
   6074     152.6602      0.00000
   6075     152.6682      0.00000
   6076     152.6901      0.00000
   6077     152.7032      0.00000
   6078     152.7201      0.00000
   6079     152.7476      0.00000
   6080     152.7715      0.00000
   6081     152.7913      0.00000
   6082     152.8055      0.00000
   6083     152.8306      0.00000
   6084     152.8589      0.00000
   6085     152.8856      0.00000
   6086     152.9008      0.00000
   6087     152.9177      0.00000
   6088     152.9392      0.00000
   6089     152.9584      0.00000
   6090     152.9870      0.00000
   6091     152.9954      0.00000
   6092     153.0260      0.00000
   6093     153.0360      0.00000
   6094     153.0667      0.00000
   6095     153.0908      0.00000
   6096     153.0994      0.00000
   6097     153.1139      0.00000
   6098     153.1558      0.00000
   6099     153.1687      0.00000
   6100     153.1893      0.00000
   6101     153.2074      0.00000
   6102     153.2107      0.00000
   6103     153.2345      0.00000
   6104     153.2412      0.00000
   6105     153.2835      0.00000
   6106     153.3043      0.00000
   6107     153.3286      0.00000
   6108     153.3486      0.00000
   6109     153.3503      0.00000
   6110     153.3649      0.00000
   6111     153.3917      0.00000
   6112     153.4079      0.00000
   6113     153.4308      0.00000
   6114     153.4393      0.00000
   6115     153.4658      0.00000
   6116     153.4885      0.00000
   6117     153.5017      0.00000
   6118     153.5308      0.00000
   6119     153.5341      0.00000
   6120     153.5482      0.00000
   6121     153.5658      0.00000
   6122     153.5754      0.00000
   6123     153.6060      0.00000
   6124     153.6133      0.00000
   6125     153.6396      0.00000
   6126     153.6555      0.00000
   6127     153.6704      0.00000
   6128     153.6846      0.00000
   6129     153.7277      0.00000
   6130     153.7308      0.00000
   6131     153.7488      0.00000
   6132     153.7748      0.00000
   6133     153.8132      0.00000
   6134     153.8243      0.00000
   6135     153.8501      0.00000
   6136     153.8700      0.00000
   6137     153.8773      0.00000
   6138     153.8987      0.00000
   6139     153.9164      0.00000
   6140     153.9314      0.00000
   6141     153.9485      0.00000
   6142     153.9578      0.00000
   6143     153.9792      0.00000
   6144     153.9956      0.00000
   6145     154.0302      0.00000
   6146     154.0599      0.00000
   6147     154.0680      0.00000
   6148     154.0797      0.00000
   6149     154.0902      0.00000
   6150     154.1243      0.00000
   6151     154.1450      0.00000
   6152     154.1533      0.00000
   6153     154.1595      0.00000
   6154     154.1713      0.00000
   6155     154.1838      0.00000
   6156     154.2146      0.00000
   6157     154.2385      0.00000
   6158     154.2618      0.00000
   6159     154.2712      0.00000
   6160     154.3043      0.00000
   6161     154.3108      0.00000
   6162     154.3218      0.00000
   6163     154.3438      0.00000
   6164     154.3614      0.00000
   6165     154.3639      0.00000
   6166     154.3764      0.00000
   6167     154.3951      0.00000
   6168     154.4112      0.00000
   6169     154.4309      0.00000
   6170     154.4394      0.00000
   6171     154.4545      0.00000
   6172     154.4622      0.00000
   6173     154.4691      0.00000
   6174     154.5063      0.00000
   6175     154.5102      0.00000
   6176     154.5238      0.00000
   6177     154.5464      0.00000
   6178     154.5526      0.00000
   6179     154.5647      0.00000
   6180     154.5871      0.00000
   6181     154.5954      0.00000
   6182     154.6084      0.00000
   6183     154.6367      0.00000
   6184     154.6671      0.00000
   6185     154.6826      0.00000
   6186     154.6873      0.00000
   6187     154.7081      0.00000
   6188     154.7143      0.00000
   6189     154.7399      0.00000
   6190     154.7478      0.00000
   6191     154.7582      0.00000
   6192     154.8038      0.00000
   6193     154.8068      0.00000
   6194     154.8226      0.00000
   6195     154.8431      0.00000
   6196     154.8649      0.00000
   6197     154.8751      0.00000
   6198     154.8935      0.00000
   6199     154.9060      0.00000
   6200     154.9149      0.00000
   6201     154.9238      0.00000
   6202     154.9339      0.00000
   6203     154.9587      0.00000
   6204     154.9759      0.00000
   6205     155.0024      0.00000
   6206     155.0237      0.00000
   6207     155.0357      0.00000
   6208     155.0517      0.00000
   6209     155.0665      0.00000
   6210     155.0870      0.00000
   6211     155.1100      0.00000
   6212     155.1172      0.00000
   6213     155.1298      0.00000
   6214     155.1544      0.00000
   6215     155.1642      0.00000
   6216     155.1688      0.00000
   6217     155.1980      0.00000
   6218     155.2046      0.00000
   6219     155.2248      0.00000
   6220     155.2349      0.00000
   6221     155.2443      0.00000
   6222     155.2520      0.00000
   6223     155.2629      0.00000
   6224     155.2788      0.00000
   6225     155.2886      0.00000
   6226     155.3082      0.00000
   6227     155.3103      0.00000
   6228     155.3310      0.00000
   6229     155.3439      0.00000
   6230     155.3540      0.00000
   6231     155.3703      0.00000
   6232     155.3875      0.00000
   6233     155.3904      0.00000
   6234     155.4124      0.00000
   6235     155.4334      0.00000
   6236     155.4440      0.00000
   6237     155.4622      0.00000
   6238     155.4721      0.00000
   6239     155.4820      0.00000
   6240     155.5096      0.00000
   6241     155.5118      0.00000
   6242     155.5289      0.00000
   6243     155.5358      0.00000
   6244     155.5462      0.00000
   6245     155.5655      0.00000
   6246     155.5908      0.00000
   6247     155.6175      0.00000
   6248     155.6270      0.00000
   6249     155.6355      0.00000
   6250     155.6541      0.00000
   6251     155.6651      0.00000
   6252     155.6919      0.00000
   6253     155.7016      0.00000
   6254     155.7148      0.00000
   6255     155.7387      0.00000
   6256     155.7505      0.00000
   6257     155.7691      0.00000
   6258     155.7766      0.00000
   6259     155.7989      0.00000
   6260     155.8081      0.00000
   6261     155.8399      0.00000
   6262     155.8565      0.00000
   6263     155.8675      0.00000
   6264     155.8835      0.00000
   6265     155.8907      0.00000
   6266     155.9077      0.00000
   6267     155.9105      0.00000
   6268     155.9247      0.00000
   6269     155.9366      0.00000
   6270     155.9584      0.00000
   6271     155.9729      0.00000
   6272     155.9939      0.00000
   6273     156.0092      0.00000
   6274     156.0161      0.00000
   6275     156.0297      0.00000
   6276     156.0321      0.00000
   6277     156.0542      0.00000
   6278     156.0652      0.00000
   6279     156.0719      0.00000
   6280     156.0794      0.00000
   6281     156.0915      0.00000
   6282     156.1056      0.00000
   6283     156.1267      0.00000
   6284     156.1417      0.00000
   6285     156.1644      0.00000
   6286     156.1677      0.00000
   6287     156.1909      0.00000
   6288     156.1943      0.00000
   6289     156.2212      0.00000
   6290     156.2314      0.00000
   6291     156.2384      0.00000
   6292     156.2619      0.00000
   6293     156.2740      0.00000
   6294     156.2865      0.00000
   6295     156.3007      0.00000
   6296     156.3099      0.00000
   6297     156.3285      0.00000
   6298     156.3350      0.00000
   6299     156.3511      0.00000
   6300     156.3643      0.00000
   6301     156.3961      0.00000
   6302     156.4052      0.00000
   6303     156.4143      0.00000
   6304     156.4205      0.00000
   6305     156.4303      0.00000
   6306     156.4514      0.00000
   6307     156.4559      0.00000
   6308     156.4693      0.00000
   6309     156.4751      0.00000
   6310     156.5000      0.00000
   6311     156.5040      0.00000
   6312     156.5155      0.00000
   6313     156.5206      0.00000
   6314     156.5434      0.00000
   6315     156.5785      0.00000
   6316     156.5920      0.00000
   6317     156.6047      0.00000
   6318     156.6194      0.00000
   6319     156.6336      0.00000
   6320     156.6438      0.00000
   6321     156.6484      0.00000
   6322     156.6746      0.00000
   6323     156.6786      0.00000
   6324     156.6982      0.00000
   6325     156.7120      0.00000
   6326     156.7261      0.00000
   6327     156.7286      0.00000
   6328     156.7453      0.00000
   6329     156.7649      0.00000
   6330     156.7851      0.00000
   6331     156.8006      0.00000
   6332     156.8089      0.00000
   6333     156.8252      0.00000
   6334     156.8308      0.00000
   6335     156.8531      0.00000
   6336     156.8627      0.00000
   6337     156.8821      0.00000
   6338     156.8925      0.00000
   6339     156.9015      0.00000
   6340     156.9145      0.00000
   6341     156.9193      0.00000
   6342     156.9321      0.00000
   6343     156.9669      0.00000
   6344     156.9780      0.00000
   6345     156.9914      0.00000
   6346     156.9964      0.00000
   6347     157.0306      0.00000
   6348     157.0350      0.00000
   6349     157.0402      0.00000
   6350     157.0571      0.00000
   6351     157.0680      0.00000
   6352     157.0914      0.00000
   6353     157.0967      0.00000
   6354     157.1043      0.00000
   6355     157.1165      0.00000
   6356     157.1641      0.00000
   6357     157.1877      0.00000
   6358     157.1973      0.00000
   6359     157.2090      0.00000
   6360     157.2175      0.00000
   6361     157.2328      0.00000
   6362     157.2400      0.00000
   6363     157.2465      0.00000
   6364     157.2841      0.00000
   6365     157.3024      0.00000
   6366     157.3125      0.00000
   6367     157.3205      0.00000
   6368     157.3308      0.00000
   6369     157.3488      0.00000
   6370     157.3554      0.00000
   6371     157.3755      0.00000
   6372     157.4101      0.00000
   6373     157.4295      0.00000
   6374     157.4421      0.00000
   6375     157.4553      0.00000
   6376     157.4669      0.00000
   6377     157.4758      0.00000
   6378     157.4901      0.00000
   6379     157.4990      0.00000
   6380     157.5199      0.00000
   6381     157.5442      0.00000
   6382     157.5495      0.00000
   6383     157.5598      0.00000
   6384     157.5893      0.00000
   6385     157.6042      0.00000
   6386     157.6157      0.00000
   6387     157.6356      0.00000
   6388     157.6384      0.00000
   6389     157.6570      0.00000
   6390     157.6728      0.00000
   6391     157.6883      0.00000
   6392     157.7288      0.00000
   6393     157.7373      0.00000
   6394     157.7482      0.00000
   6395     157.7566      0.00000
   6396     157.7883      0.00000
   6397     157.7967      0.00000
   6398     157.8121      0.00000
   6399     157.8238      0.00000
   6400     157.8395      0.00000
   6401     157.8513      0.00000
   6402     157.8620      0.00000
   6403     157.8813      0.00000
   6404     157.9119      0.00000
   6405     157.9146      0.00000
   6406     157.9287      0.00000
   6407     157.9472      0.00000
   6408     157.9565      0.00000
   6409     157.9726      0.00000
   6410     157.9838      0.00000
   6411     157.9958      0.00000
   6412     158.0327      0.00000
   6413     158.0391      0.00000
   6414     158.0495      0.00000
   6415     158.0779      0.00000
   6416     158.0851      0.00000
   6417     158.0940      0.00000
   6418     158.1133      0.00000
   6419     158.1253      0.00000
   6420     158.1392      0.00000
   6421     158.1571      0.00000
   6422     158.1704      0.00000
   6423     158.1888      0.00000
   6424     158.1942      0.00000
   6425     158.2214      0.00000
   6426     158.2326      0.00000
   6427     158.2396      0.00000
   6428     158.2575      0.00000
   6429     158.2772      0.00000
   6430     158.3052      0.00000
   6431     158.3170      0.00000
   6432     158.3320      0.00000
   6433     158.3482      0.00000
   6434     158.3704      0.00000
   6435     158.3762      0.00000
   6436     158.3795      0.00000
   6437     158.4001      0.00000
   6438     158.4121      0.00000
   6439     158.4335      0.00000
   6440     158.4483      0.00000
   6441     158.4712      0.00000
   6442     158.4855      0.00000
   6443     158.4886      0.00000
   6444     158.5014      0.00000
   6445     158.5305      0.00000
   6446     158.5488      0.00000
   6447     158.5575      0.00000
   6448     158.5709      0.00000
   6449     158.5795      0.00000
   6450     158.5888      0.00000
   6451     158.6081      0.00000
   6452     158.6319      0.00000
   6453     158.6503      0.00000
   6454     158.6579      0.00000
   6455     158.6874      0.00000
   6456     158.6934      0.00000
   6457     158.7158      0.00000
   6458     158.7289      0.00000
   6459     158.7441      0.00000
   6460     158.7590      0.00000
   6461     158.7775      0.00000
   6462     158.7916      0.00000
   6463     158.8063      0.00000
   6464     158.8447      0.00000
   6465     158.8519      0.00000
   6466     158.8737      0.00000
   6467     158.8917      0.00000
   6468     158.9072      0.00000
   6469     158.9244      0.00000
   6470     158.9365      0.00000
   6471     158.9600      0.00000
   6472     158.9662      0.00000
   6473     158.9705      0.00000
   6474     159.0003      0.00000
   6475     159.0103      0.00000
   6476     159.0327      0.00000
   6477     159.0574      0.00000
   6478     159.0648      0.00000
   6479     159.0861      0.00000
   6480     159.1063      0.00000
   6481     159.1124      0.00000
   6482     159.1206      0.00000
   6483     159.1396      0.00000
   6484     159.1567      0.00000
   6485     159.1776      0.00000
   6486     159.1933      0.00000
   6487     159.2245      0.00000
   6488     159.2411      0.00000
   6489     159.2761      0.00000
   6490     159.2792      0.00000
   6491     159.3057      0.00000
   6492     159.3120      0.00000
   6493     159.3280      0.00000
   6494     159.3528      0.00000
   6495     159.3633      0.00000
   6496     159.3717      0.00000
   6497     159.3919      0.00000
   6498     159.4007      0.00000
   6499     159.4151      0.00000
   6500     159.4232      0.00000
   6501     159.4638      0.00000
   6502     159.4817      0.00000
   6503     159.4931      0.00000
   6504     159.4996      0.00000
   6505     159.5115      0.00000
   6506     159.5301      0.00000
   6507     159.5439      0.00000
   6508     159.5657      0.00000
   6509     159.6011      0.00000
   6510     159.6195      0.00000
   6511     159.6555      0.00000
   6512     159.6773      0.00000
   6513     159.6883      0.00000
   6514     159.7121      0.00000
   6515     159.7241      0.00000
   6516     159.7543      0.00000
   6517     159.7700      0.00000
   6518     159.7829      0.00000
   6519     159.8203      0.00000
   6520     159.8286      0.00000
   6521     159.8450      0.00000
   6522     159.8608      0.00000
   6523     159.8741      0.00000
   6524     159.8987      0.00000
   6525     159.9096      0.00000
   6526     159.9369      0.00000
   6527     159.9405      0.00000
   6528     159.9681      0.00000
   6529     160.0098      0.00000
   6530     160.0155      0.00000
   6531     160.0528      0.00000
   6532     160.0845      0.00000
   6533     160.0906      0.00000
   6534     160.0949      0.00000
   6535     160.1072      0.00000
   6536     160.1382      0.00000
   6537     160.1464      0.00000
   6538     160.1595      0.00000
   6539     160.1776      0.00000
   6540     160.1932      0.00000
   6541     160.2087      0.00000
   6542     160.2303      0.00000
   6543     160.2658      0.00000
   6544     160.2972      0.00000
   6545     160.3057      0.00000
   6546     160.3286      0.00000
   6547     160.3516      0.00000
   6548     160.3590      0.00000
   6549     160.3796      0.00000
   6550     160.4023      0.00000
   6551     160.4275      0.00000
   6552     160.4465      0.00000
   6553     160.4515      0.00000
   6554     160.4581      0.00000
   6555     160.4643      0.00000
   6556     160.4951      0.00000
   6557     160.5264      0.00000
   6558     160.5337      0.00000
   6559     160.5471      0.00000
   6560     160.5693      0.00000
   6561     160.5843      0.00000
   6562     160.6073      0.00000
   6563     160.6345      0.00000
   6564     160.6466      0.00000
   6565     160.6637      0.00000
   6566     160.6800      0.00000
   6567     160.6992      0.00000
   6568     160.7249      0.00000
   6569     160.7656      0.00000
   6570     160.7906      0.00000
   6571     160.7990      0.00000
   6572     160.8103      0.00000
   6573     160.8210      0.00000
   6574     160.8677      0.00000
   6575     160.8799      0.00000
   6576     160.9005      0.00000
   6577     160.9190      0.00000
   6578     160.9411      0.00000
   6579     160.9464      0.00000
   6580     160.9543      0.00000
   6581     160.9708      0.00000
   6582     160.9892      0.00000
   6583     161.0171      0.00000
   6584     161.0355      0.00000
   6585     161.0568      0.00000
   6586     161.0687      0.00000
   6587     161.0967      0.00000
   6588     161.1025      0.00000
   6589     161.1245      0.00000
   6590     161.1438      0.00000
   6591     161.1505      0.00000
   6592     161.1768      0.00000
   6593     161.1868      0.00000
   6594     161.1987      0.00000
   6595     161.2106      0.00000
   6596     161.2176      0.00000
   6597     161.2493      0.00000
   6598     161.2643      0.00000
   6599     161.2824      0.00000
   6600     161.2955      0.00000
   6601     161.3168      0.00000
   6602     161.3367      0.00000
   6603     161.3435      0.00000
   6604     161.3652      0.00000
   6605     161.3970      0.00000
   6606     161.4018      0.00000
   6607     161.4203      0.00000
   6608     161.4446      0.00000
   6609     161.4511      0.00000
   6610     161.4715      0.00000
   6611     161.4938      0.00000
   6612     161.4976      0.00000
   6613     161.5156      0.00000
   6614     161.5236      0.00000
   6615     161.5445      0.00000
   6616     161.5643      0.00000
   6617     161.5970      0.00000
   6618     161.6033      0.00000
   6619     161.6335      0.00000
   6620     161.6622      0.00000
   6621     161.6708      0.00000
   6622     161.6740      0.00000
   6623     161.6941      0.00000
   6624     161.7065      0.00000
   6625     161.7306      0.00000
   6626     161.7434      0.00000
   6627     161.7567      0.00000
   6628     161.7783      0.00000
   6629     161.7952      0.00000
   6630     161.8278      0.00000
   6631     161.8348      0.00000
   6632     161.8493      0.00000
   6633     161.8599      0.00000
   6634     161.8830      0.00000
   6635     161.8995      0.00000
   6636     161.9210      0.00000
   6637     161.9432      0.00000
   6638     161.9487      0.00000
   6639     161.9677      0.00000
   6640     161.9839      0.00000
   6641     162.0053      0.00000
   6642     162.0153      0.00000
   6643     162.0274      0.00000
   6644     162.0472      0.00000
   6645     162.0652      0.00000
   6646     162.0903      0.00000
   6647     162.1032      0.00000
   6648     162.1243      0.00000
   6649     162.1420      0.00000
   6650     162.1615      0.00000
   6651     162.1784      0.00000
   6652     162.1868      0.00000
   6653     162.2103      0.00000
   6654     162.2262      0.00000
   6655     162.2405      0.00000
   6656     162.2574      0.00000
   6657     162.2788      0.00000
   6658     162.3089      0.00000
   6659     162.3118      0.00000
   6660     162.3183      0.00000
   6661     162.3243      0.00000
   6662     162.3437      0.00000
   6663     162.3605      0.00000
   6664     162.3712      0.00000
   6665     162.4083      0.00000
   6666     162.4236      0.00000
   6667     162.4427      0.00000
   6668     162.4621      0.00000
   6669     162.4798      0.00000
   6670     162.4886      0.00000
   6671     162.4968      0.00000
   6672     162.5122      0.00000
   6673     162.5347      0.00000
   6674     162.5501      0.00000
   6675     162.5614      0.00000
   6676     162.5939      0.00000
   6677     162.6140      0.00000
   6678     162.6305      0.00000
   6679     162.6356      0.00000
   6680     162.6399      0.00000
   6681     162.6582      0.00000
   6682     162.6663      0.00000
   6683     162.7142      0.00000
   6684     162.7273      0.00000
   6685     162.7349      0.00000
   6686     162.7545      0.00000
   6687     162.7707      0.00000
   6688     162.7856      0.00000
   6689     162.7981      0.00000
   6690     162.8111      0.00000
   6691     162.8155      0.00000
   6692     162.8229      0.00000
   6693     162.8417      0.00000
   6694     162.8683      0.00000
   6695     162.8826      0.00000
   6696     162.8961      0.00000
   6697     162.9026      0.00000
   6698     162.9132      0.00000
   6699     162.9178      0.00000
   6700     162.9503      0.00000
   6701     162.9540      0.00000
   6702     162.9876      0.00000
   6703     163.0071      0.00000
   6704     163.0163      0.00000
   6705     163.0286      0.00000
   6706     163.0493      0.00000
   6707     163.0674      0.00000
   6708     163.0838      0.00000
   6709     163.1076      0.00000
   6710     163.1175      0.00000
   6711     163.1271      0.00000
   6712     163.1331      0.00000
   6713     163.1423      0.00000
   6714     163.1722      0.00000
   6715     163.1811      0.00000
   6716     163.1913      0.00000
   6717     163.2174      0.00000
   6718     163.2276      0.00000
   6719     163.2387      0.00000
   6720     163.2531      0.00000
   6721     163.2727      0.00000
   6722     163.2873      0.00000
   6723     163.3002      0.00000
   6724     163.3220      0.00000
   6725     163.3394      0.00000
   6726     163.3499      0.00000
   6727     163.3576      0.00000
   6728     163.3644      0.00000
   6729     163.3767      0.00000
   6730     163.3826      0.00000
   6731     163.3894      0.00000
   6732     163.4071      0.00000
   6733     163.4315      0.00000
   6734     163.4449      0.00000
   6735     163.4564      0.00000
   6736     163.4630      0.00000
   6737     163.4686      0.00000
   6738     163.4835      0.00000
   6739     163.5123      0.00000
   6740     163.5192      0.00000
   6741     163.5263      0.00000
   6742     163.5466      0.00000
   6743     163.5657      0.00000
   6744     163.6024      0.00000
   6745     163.6096      0.00000
   6746     163.6398      0.00000
   6747     163.6565      0.00000
   6748     163.6748      0.00000
   6749     163.6846      0.00000
   6750     163.7040      0.00000
   6751     163.7326      0.00000
   6752     163.7439      0.00000
   6753     163.7533      0.00000
   6754     163.7684      0.00000
   6755     163.8074      0.00000
   6756     163.8192      0.00000
   6757     163.8257      0.00000
   6758     163.8451      0.00000
   6759     163.8501      0.00000
   6760     163.8825      0.00000
   6761     163.8939      0.00000
   6762     163.9130      0.00000
   6763     163.9176      0.00000
   6764     163.9342      0.00000
   6765     163.9388      0.00000
   6766     163.9492      0.00000
   6767     163.9621      0.00000
   6768     163.9827      0.00000
   6769     163.9892      0.00000
   6770     164.0114      0.00000
   6771     164.0255      0.00000
   6772     164.0446      0.00000
   6773     164.0502      0.00000
   6774     164.0798      0.00000
   6775     164.0881      0.00000
   6776     164.0928      0.00000
   6777     164.1119      0.00000
   6778     164.1276      0.00000
   6779     164.1450      0.00000
   6780     164.1505      0.00000
   6781     164.1567      0.00000
   6782     164.1801      0.00000
   6783     164.1901      0.00000
   6784     164.2047      0.00000
   6785     164.2294      0.00000
   6786     164.2360      0.00000
   6787     164.2466      0.00000
   6788     164.2505      0.00000
   6789     164.2804      0.00000
   6790     164.2950      0.00000
   6791     164.3073      0.00000
   6792     164.3386      0.00000
   6793     164.3525      0.00000
   6794     164.3678      0.00000
   6795     164.3746      0.00000
   6796     164.4000      0.00000
   6797     164.4170      0.00000
   6798     164.4272      0.00000
   6799     164.4398      0.00000
   6800     164.4495      0.00000
   6801     164.4737      0.00000
   6802     164.4951      0.00000
   6803     164.5005      0.00000
   6804     164.5173      0.00000
   6805     164.5269      0.00000
   6806     164.5386      0.00000
   6807     164.5518      0.00000
   6808     164.5692      0.00000
   6809     164.5853      0.00000
   6810     164.6091      0.00000
   6811     164.6249      0.00000
   6812     164.6381      0.00000
   6813     164.6464      0.00000
   6814     164.6622      0.00000
   6815     164.6912      0.00000
   6816     164.6938      0.00000
   6817     164.7070      0.00000
   6818     164.7299      0.00000
   6819     164.7470      0.00000
   6820     164.7568      0.00000
   6821     164.7694      0.00000
   6822     164.7784      0.00000
   6823     164.7991      0.00000
   6824     164.8116      0.00000
   6825     164.8258      0.00000
   6826     164.8361      0.00000
   6827     164.8489      0.00000
   6828     164.8545      0.00000
   6829     164.8917      0.00000
   6830     164.9011      0.00000
   6831     164.9151      0.00000
   6832     164.9470      0.00000
   6833     164.9548      0.00000
   6834     164.9701      0.00000
   6835     164.9867      0.00000
   6836     164.9938      0.00000
   6837     165.0192      0.00000
   6838     165.0281      0.00000
   6839     165.0412      0.00000
   6840     165.0620      0.00000
   6841     165.0731      0.00000
   6842     165.1046      0.00000
   6843     165.1113      0.00000
   6844     165.1258      0.00000
   6845     165.1533      0.00000
   6846     165.1612      0.00000
   6847     165.1662      0.00000
   6848     165.1835      0.00000
   6849     165.1947      0.00000
   6850     165.2120      0.00000
   6851     165.2279      0.00000
   6852     165.2358      0.00000
   6853     165.2587      0.00000
   6854     165.2708      0.00000
   6855     165.2730      0.00000
   6856     165.3011      0.00000
   6857     165.3113      0.00000
   6858     165.3244      0.00000
   6859     165.3461      0.00000
   6860     165.3662      0.00000
   6861     165.3847      0.00000
   6862     165.3901      0.00000
   6863     165.4321      0.00000
   6864     165.4363      0.00000
   6865     165.4531      0.00000
   6866     165.4812      0.00000
   6867     165.4910      0.00000
   6868     165.5074      0.00000
   6869     165.5178      0.00000
   6870     165.5361      0.00000
   6871     165.5421      0.00000
   6872     165.5566      0.00000
   6873     165.5670      0.00000
   6874     165.5703      0.00000
   6875     165.5968      0.00000
   6876     165.6009      0.00000
   6877     165.6296      0.00000
   6878     165.6526      0.00000
   6879     165.6625      0.00000
   6880     165.6925      0.00000
   6881     165.7047      0.00000
   6882     165.7088      0.00000
   6883     165.7206      0.00000
   6884     165.7405      0.00000
   6885     165.7681      0.00000
   6886     165.7772      0.00000
   6887     165.7991      0.00000
   6888     165.8018      0.00000
   6889     165.8188      0.00000
   6890     165.8251      0.00000
   6891     165.8364      0.00000
   6892     165.8490      0.00000
   6893     165.8752      0.00000
   6894     165.8791      0.00000
   6895     165.9074      0.00000
   6896     165.9100      0.00000
   6897     165.9184      0.00000
   6898     165.9414      0.00000
   6899     165.9466      0.00000
   6900     165.9708      0.00000
   6901     165.9826      0.00000
   6902     166.0075      0.00000
   6903     166.0095      0.00000
   6904     166.0212      0.00000
   6905     166.0396      0.00000
   6906     166.0425      0.00000
   6907     166.0717      0.00000
   6908     166.0873      0.00000
   6909     166.0996      0.00000
   6910     166.1092      0.00000
   6911     166.1227      0.00000
   6912     166.1283      0.00000
   6913     166.1446      0.00000
   6914     166.1614      0.00000
   6915     166.1916      0.00000
   6916     166.2042      0.00000
   6917     166.2231      0.00000
   6918     166.2449      0.00000
   6919     166.2470      0.00000
   6920     166.2700      0.00000
   6921     166.2844      0.00000
   6922     166.2978      0.00000
   6923     166.3145      0.00000
   6924     166.3304      0.00000
   6925     166.3505      0.00000
   6926     166.3651      0.00000
   6927     166.3740      0.00000
   6928     166.3961      0.00000
   6929     166.4116      0.00000
   6930     166.4277      0.00000
   6931     166.4642      0.00000
   6932     166.4686      0.00000
   6933     166.4803      0.00000
   6934     166.5015      0.00000
   6935     166.5255      0.00000
   6936     166.5410      0.00000
   6937     166.5449      0.00000
   6938     166.5638      0.00000
   6939     166.5774      0.00000
   6940     166.5888      0.00000
   6941     166.6111      0.00000
   6942     166.6187      0.00000
   6943     166.6350      0.00000
   6944     166.6488      0.00000
   6945     166.6608      0.00000
   6946     166.6765      0.00000
   6947     166.6872      0.00000
   6948     166.7081      0.00000
   6949     166.7284      0.00000
   6950     166.7299      0.00000
   6951     166.7414      0.00000
   6952     166.7671      0.00000
   6953     166.7767      0.00000
   6954     166.7912      0.00000
   6955     166.8142      0.00000
   6956     166.8212      0.00000
   6957     166.8393      0.00000
   6958     166.8529      0.00000
   6959     166.8660      0.00000
   6960     166.8870      0.00000
   6961     166.9011      0.00000
   6962     166.9040      0.00000
   6963     166.9286      0.00000
   6964     166.9419      0.00000
   6965     166.9460      0.00000
   6966     166.9937      0.00000
   6967     167.0121      0.00000
   6968     167.0217      0.00000
   6969     167.0253      0.00000
   6970     167.0459      0.00000
   6971     167.0578      0.00000
   6972     167.0752      0.00000
   6973     167.0952      0.00000
   6974     167.1057      0.00000
   6975     167.1231      0.00000
   6976     167.1358      0.00000
   6977     167.1477      0.00000
   6978     167.1608      0.00000
   6979     167.1686      0.00000
   6980     167.1931      0.00000
   6981     167.2087      0.00000
   6982     167.2236      0.00000
   6983     167.2362      0.00000
   6984     167.2617      0.00000
   6985     167.2711      0.00000
   6986     167.2879      0.00000
   6987     167.3056      0.00000
   6988     167.3156      0.00000
   6989     167.3360      0.00000
   6990     167.3489      0.00000
   6991     167.3704      0.00000
   6992     167.3799      0.00000
   6993     167.3993      0.00000
   6994     167.4154      0.00000
   6995     167.4242      0.00000
   6996     167.4320      0.00000
   6997     167.4694      0.00000
   6998     167.4711      0.00000
   6999     167.4864      0.00000
   7000     167.4880      0.00000
   7001     167.5117      0.00000
   7002     167.5435      0.00000
   7003     167.5577      0.00000
   7004     167.5641      0.00000
   7005     167.5925      0.00000
   7006     167.5996      0.00000
   7007     167.6177      0.00000
   7008     167.6276      0.00000
   7009     167.6383      0.00000
   7010     167.6594      0.00000
   7011     167.6638      0.00000
   7012     167.6741      0.00000
   7013     167.6864      0.00000
   7014     167.7062      0.00000
   7015     167.7326      0.00000
   7016     167.7496      0.00000
   7017     167.7654      0.00000
   7018     167.7683      0.00000
   7019     167.7903      0.00000
   7020     167.7930      0.00000
   7021     167.8282      0.00000
   7022     167.8463      0.00000
   7023     167.8541      0.00000
   7024     167.8648      0.00000
   7025     167.8713      0.00000
   7026     167.9027      0.00000
   7027     167.9152      0.00000
   7028     167.9306      0.00000
   7029     167.9431      0.00000
   7030     167.9565      0.00000
   7031     167.9622      0.00000
   7032     167.9851      0.00000
   7033     168.0083      0.00000
   7034     168.0202      0.00000
   7035     168.0348      0.00000
   7036     168.0432      0.00000
   7037     168.0603      0.00000
   7038     168.0717      0.00000
   7039     168.0845      0.00000
   7040     168.0983      0.00000
   7041     168.1148      0.00000
   7042     168.1379      0.00000
   7043     168.1529      0.00000
   7044     168.1624      0.00000
   7045     168.1725      0.00000
   7046     168.1863      0.00000
   7047     168.1990      0.00000
   7048     168.2129      0.00000
   7049     168.2338      0.00000
   7050     168.2394      0.00000
   7051     168.2681      0.00000
   7052     168.2824      0.00000
   7053     168.3098      0.00000
   7054     168.3162      0.00000
   7055     168.3326      0.00000
   7056     168.3398      0.00000
   7057     168.3421      0.00000
   7058     168.3633      0.00000
   7059     168.3699      0.00000
   7060     168.3760      0.00000
   7061     168.4038      0.00000
   7062     168.4224      0.00000
   7063     168.4317      0.00000
   7064     168.4590      0.00000
   7065     168.4744      0.00000
   7066     168.4894      0.00000
   7067     168.5025      0.00000
   7068     168.5222      0.00000
   7069     168.5547      0.00000
   7070     168.5681      0.00000
   7071     168.5746      0.00000
   7072     168.5938      0.00000
   7073     168.6112      0.00000
   7074     168.6291      0.00000
   7075     168.6376      0.00000
   7076     168.6489      0.00000
   7077     168.6601      0.00000
   7078     168.6762      0.00000
   7079     168.6970      0.00000
   7080     168.7104      0.00000
   7081     168.7193      0.00000
   7082     168.7627      0.00000
   7083     168.7672      0.00000
   7084     168.7717      0.00000
   7085     168.7866      0.00000
   7086     168.7956      0.00000
   7087     168.8241      0.00000
   7088     168.8296      0.00000
   7089     168.8652      0.00000
   7090     168.8812      0.00000
   7091     168.8995      0.00000
   7092     168.9054      0.00000
   7093     168.9103      0.00000
   7094     168.9309      0.00000
   7095     168.9640      0.00000
   7096     168.9671      0.00000
   7097     168.9779      0.00000
   7098     168.9898      0.00000
   7099     169.0084      0.00000
   7100     169.0379      0.00000
   7101     169.0489      0.00000
   7102     169.0618      0.00000
   7103     169.0740      0.00000
   7104     169.0872      0.00000
   7105     169.1026      0.00000
   7106     169.1462      0.00000
   7107     169.1531      0.00000
   7108     169.1567      0.00000
   7109     169.1769      0.00000
   7110     169.2006      0.00000
   7111     169.2093      0.00000
   7112     169.2307      0.00000
   7113     169.2391      0.00000
   7114     169.2489      0.00000
   7115     169.2700      0.00000
   7116     169.2896      0.00000
   7117     169.3015      0.00000
   7118     169.3057      0.00000
   7119     169.3288      0.00000
   7120     169.3553      0.00000
   7121     169.3627      0.00000
   7122     169.3876      0.00000
   7123     169.3956      0.00000
   7124     169.4151      0.00000
   7125     169.4471      0.00000
   7126     169.4567      0.00000
   7127     169.4677      0.00000
   7128     169.4950      0.00000
   7129     169.5184      0.00000
   7130     169.5239      0.00000
   7131     169.5419      0.00000
   7132     169.5529      0.00000
   7133     169.5709      0.00000
   7134     169.6022      0.00000
   7135     169.6065      0.00000
   7136     169.6258      0.00000
   7137     169.6498      0.00000
   7138     169.6682      0.00000
   7139     169.6862      0.00000
   7140     169.7006      0.00000
   7141     169.7079      0.00000
   7142     169.7258      0.00000
   7143     169.7404      0.00000
   7144     169.7502      0.00000
   7145     169.7848      0.00000
   7146     169.7916      0.00000
   7147     169.8239      0.00000
   7148     169.8255      0.00000
   7149     169.8644      0.00000
   7150     169.8782      0.00000
   7151     169.9013      0.00000
   7152     169.9124      0.00000
   7153     169.9290      0.00000
   7154     169.9438      0.00000
   7155     169.9791      0.00000
   7156     169.9915      0.00000
   7157     170.0173      0.00000
   7158     170.0282      0.00000
   7159     170.0399      0.00000
   7160     170.0791      0.00000
   7161     170.0820      0.00000
   7162     170.0968      0.00000
   7163     170.1225      0.00000
   7164     170.1415      0.00000
   7165     170.1578      0.00000
   7166     170.1743      0.00000
   7167     170.1834      0.00000
   7168     170.2109      0.00000
   7169     170.2234      0.00000
   7170     170.2502      0.00000
   7171     170.2610      0.00000
   7172     170.2888      0.00000
   7173     170.2957      0.00000
   7174     170.3161      0.00000
   7175     170.3251      0.00000
   7176     170.3442      0.00000
   7177     170.3498      0.00000
   7178     170.3697      0.00000
   7179     170.4031      0.00000
   7180     170.4042      0.00000
   7181     170.4307      0.00000
   7182     170.4560      0.00000
   7183     170.4689      0.00000
   7184     170.4882      0.00000
   7185     170.4915      0.00000
   7186     170.5011      0.00000
   7187     170.5098      0.00000
   7188     170.5474      0.00000
   7189     170.5606      0.00000
   7190     170.5676      0.00000
   7191     170.5907      0.00000
   7192     170.6027      0.00000
   7193     170.6225      0.00000
   7194     170.6439      0.00000
   7195     170.6612      0.00000
   7196     170.6697      0.00000
   7197     170.6857      0.00000
   7198     170.6989      0.00000
   7199     170.7279      0.00000
   7200     170.7456      0.00000
   7201     170.7628      0.00000
   7202     170.7775      0.00000
   7203     170.7889      0.00000
   7204     170.8170      0.00000
   7205     170.8367      0.00000
   7206     170.8633      0.00000
   7207     170.8870      0.00000
   7208     170.9028      0.00000
   7209     170.9131      0.00000
   7210     170.9258      0.00000
   7211     170.9482      0.00000
   7212     170.9782      0.00000
   7213     170.9942      0.00000
   7214     171.0226      0.00000
   7215     171.0252      0.00000
   7216     171.0457      0.00000
   7217     171.0576      0.00000
   7218     171.0616      0.00000
   7219     171.0978      0.00000
   7220     171.1101      0.00000
   7221     171.1373      0.00000
   7222     171.1435      0.00000
   7223     171.1513      0.00000
   7224     171.1671      0.00000
   7225     171.1814      0.00000
   7226     171.1982      0.00000
   7227     171.2061      0.00000
   7228     171.2308      0.00000
   7229     171.2491      0.00000
   7230     171.2527      0.00000
   7231     171.2907      0.00000
   7232     171.2928      0.00000
   7233     171.3073      0.00000
   7234     171.3403      0.00000
   7235     171.3540      0.00000
   7236     171.3732      0.00000
   7237     171.3753      0.00000
   7238     171.3947      0.00000
   7239     171.4374      0.00000
   7240     171.4478      0.00000
   7241     171.4689      0.00000
   7242     171.4828      0.00000
   7243     171.5084      0.00000
   7244     171.5122      0.00000
   7245     171.5354      0.00000
   7246     171.5532      0.00000
   7247     171.5741      0.00000
   7248     171.5909      0.00000
   7249     171.6026      0.00000
   7250     171.6105      0.00000
   7251     171.6211      0.00000
   7252     171.6534      0.00000
   7253     171.6615      0.00000
   7254     171.6673      0.00000
   7255     171.6934      0.00000
   7256     171.6998      0.00000
   7257     171.7066      0.00000
   7258     171.7363      0.00000
   7259     171.7518      0.00000
   7260     171.7824      0.00000
   7261     171.7933      0.00000
   7262     171.8008      0.00000
   7263     171.8148      0.00000
   7264     171.8222      0.00000
   7265     171.8635      0.00000
   7266     171.8781      0.00000
   7267     171.8948      0.00000
   7268     171.9238      0.00000
   7269     171.9433      0.00000
   7270     171.9695      0.00000
   7271     171.9794      0.00000
   7272     171.9918      0.00000
   7273     172.0287      0.00000
   7274     172.0337      0.00000
   7275     172.0412      0.00000
   7276     172.0707      0.00000
   7277     172.0928      0.00000
   7278     172.0957      0.00000
   7279     172.1154      0.00000
   7280     172.1246      0.00000
   7281     172.1397      0.00000
   7282     172.1538      0.00000
   7283     172.1815      0.00000
   7284     172.1931      0.00000
   7285     172.2076      0.00000
   7286     172.2509      0.00000
   7287     172.2540      0.00000
   7288     172.2662      0.00000
   7289     172.2774      0.00000
   7290     172.2867      0.00000
   7291     172.3143      0.00000
   7292     172.3385      0.00000
   7293     172.3513      0.00000
   7294     172.3645      0.00000
   7295     172.3677      0.00000
   7296     172.3849      0.00000
   7297     172.3980      0.00000
   7298     172.4151      0.00000
   7299     172.4358      0.00000
   7300     172.4566      0.00000
   7301     172.4645      0.00000
   7302     172.4772      0.00000
   7303     172.4947      0.00000
   7304     172.5044      0.00000
   7305     172.5156      0.00000
   7306     172.5396      0.00000
   7307     172.5439      0.00000
   7308     172.5797      0.00000
   7309     172.6083      0.00000
   7310     172.6118      0.00000
   7311     172.6353      0.00000
   7312     172.6500      0.00000
   7313     172.6616      0.00000
   7314     172.6877      0.00000
   7315     172.6935      0.00000
   7316     172.7021      0.00000
   7317     172.7113      0.00000
   7318     172.7319      0.00000
   7319     172.7399      0.00000
   7320     172.7594      0.00000
   7321     172.7634      0.00000
   7322     172.7910      0.00000
   7323     172.8131      0.00000
   7324     172.8334      0.00000
   7325     172.8455      0.00000
   7326     172.8603      0.00000
   7327     172.8823      0.00000
   7328     172.8994      0.00000
   7329     172.9126      0.00000
   7330     172.9224      0.00000
   7331     172.9373      0.00000
   7332     172.9648      0.00000
   7333     172.9787      0.00000
   7334     172.9926      0.00000
   7335     173.0072      0.00000
   7336     173.0251      0.00000
   7337     173.0272      0.00000
   7338     173.0399      0.00000
   7339     173.0542      0.00000
   7340     173.0785      0.00000
   7341     173.0959      0.00000
   7342     173.1030      0.00000
   7343     173.1218      0.00000
   7344     173.1275      0.00000
   7345     173.1374      0.00000
   7346     173.1456      0.00000
   7347     173.1857      0.00000
   7348     173.1964      0.00000
   7349     173.2123      0.00000
   7350     173.2297      0.00000
   7351     173.2376      0.00000
   7352     173.2472      0.00000
   7353     173.2726      0.00000
   7354     173.2831      0.00000
   7355     173.2958      0.00000
   7356     173.3093      0.00000
   7357     173.3159      0.00000
   7358     173.3243      0.00000
   7359     173.3345      0.00000
   7360     173.3546      0.00000
   7361     173.3666      0.00000
   7362     173.3843      0.00000
   7363     173.3923      0.00000
   7364     173.4121      0.00000
   7365     173.4194      0.00000
   7366     173.4548      0.00000
   7367     173.4712      0.00000
   7368     173.4731      0.00000
   7369     173.4858      0.00000
   7370     173.5080      0.00000
   7371     173.5173      0.00000
   7372     173.5301      0.00000
   7373     173.5507      0.00000
   7374     173.5752      0.00000
   7375     173.5887      0.00000
   7376     173.6088      0.00000
   7377     173.6274      0.00000
   7378     173.6330      0.00000
   7379     173.6514      0.00000
   7380     173.6550      0.00000
   7381     173.6861      0.00000
   7382     173.6979      0.00000
   7383     173.7141      0.00000
   7384     173.7393      0.00000
   7385     173.7431      0.00000
   7386     173.7619      0.00000
   7387     173.7860      0.00000
   7388     173.7980      0.00000
   7389     173.8041      0.00000
   7390     173.8237      0.00000
   7391     173.8346      0.00000
   7392     173.8561      0.00000
   7393     173.8684      0.00000
   7394     173.8874      0.00000
   7395     173.9009      0.00000
   7396     173.9136      0.00000
   7397     173.9166      0.00000
   7398     173.9365      0.00000
   7399     173.9455      0.00000
   7400     173.9566      0.00000
   7401     173.9682      0.00000
   7402     173.9791      0.00000
   7403     173.9908      0.00000
   7404     174.0113      0.00000
   7405     174.0193      0.00000
   7406     174.0443      0.00000
   7407     174.0500      0.00000
   7408     174.0595      0.00000
   7409     174.0722      0.00000
   7410     174.0934      0.00000
   7411     174.0990      0.00000
   7412     174.1240      0.00000
   7413     174.1414      0.00000
   7414     174.1487      0.00000
   7415     174.1760      0.00000
   7416     174.1850      0.00000
   7417     174.1936      0.00000
   7418     174.2090      0.00000
   7419     174.2204      0.00000
   7420     174.2261      0.00000
   7421     174.2483      0.00000
   7422     174.2642      0.00000
   7423     174.2809      0.00000
   7424     174.2923      0.00000
   7425     174.3042      0.00000
   7426     174.3311      0.00000
   7427     174.3409      0.00000
   7428     174.3524      0.00000
   7429     174.3689      0.00000
   7430     174.3925      0.00000
   7431     174.4148      0.00000
   7432     174.4194      0.00000
   7433     174.4254      0.00000
   7434     174.4402      0.00000
   7435     174.4495      0.00000
   7436     174.4786      0.00000
   7437     174.5163      0.00000
   7438     174.5230      0.00000
   7439     174.5311      0.00000
   7440     174.5424      0.00000
   7441     174.5482      0.00000
   7442     174.5759      0.00000
   7443     174.5835      0.00000
   7444     174.6036      0.00000
   7445     174.6155      0.00000
   7446     174.6227      0.00000
   7447     174.6378      0.00000
   7448     174.6599      0.00000
   7449     174.6744      0.00000
   7450     174.6910      0.00000
   7451     174.7085      0.00000
   7452     174.7147      0.00000
   7453     174.7243      0.00000
   7454     174.7540      0.00000
   7455     174.7613      0.00000
   7456     174.7852      0.00000
   7457     174.7926      0.00000
   7458     174.7973      0.00000
   7459     174.8198      0.00000
   7460     174.8269      0.00000
   7461     174.8372      0.00000
   7462     174.8650      0.00000
   7463     174.8808      0.00000
   7464     174.8822      0.00000
   7465     174.8934      0.00000
   7466     174.9221      0.00000
   7467     174.9346      0.00000
   7468     174.9474      0.00000
   7469     174.9609      0.00000
   7470     174.9654      0.00000
   7471     174.9756      0.00000
   7472     175.0056      0.00000
   7473     175.0256      0.00000
   7474     175.0410      0.00000
   7475     175.0489      0.00000
   7476     175.0629      0.00000
   7477     175.0697      0.00000
   7478     175.0860      0.00000
   7479     175.1065      0.00000
   7480     175.1248      0.00000
   7481     175.1348      0.00000
   7482     175.1574      0.00000
   7483     175.1678      0.00000
   7484     175.1830      0.00000
   7485     175.1994      0.00000
   7486     175.2127      0.00000
   7487     175.2355      0.00000
   7488     175.2537      0.00000
   7489     175.2578      0.00000
   7490     175.2701      0.00000
   7491     175.2879      0.00000
   7492     175.3145      0.00000
   7493     175.3212      0.00000
   7494     175.3246      0.00000
   7495     175.3548      0.00000
   7496     175.3734      0.00000
   7497     175.3807      0.00000
   7498     175.4004      0.00000
   7499     175.4127      0.00000
   7500     175.4403      0.00000
   7501     175.4482      0.00000
   7502     175.4663      0.00000
   7503     175.4859      0.00000
   7504     175.4925      0.00000
   7505     175.5135      0.00000
   7506     175.5336      0.00000
   7507     175.5416      0.00000
   7508     175.5611      0.00000
   7509     175.5778      0.00000
   7510     175.5900      0.00000
   7511     175.5988      0.00000
   7512     175.6127      0.00000
   7513     175.6311      0.00000
   7514     175.6426      0.00000
   7515     175.6693      0.00000
   7516     175.6809      0.00000
   7517     175.6973      0.00000
   7518     175.7087      0.00000
   7519     175.7128      0.00000
   7520     175.7217      0.00000
   7521     175.7262      0.00000
   7522     175.7348      0.00000
   7523     175.7760      0.00000
   7524     175.7812      0.00000
   7525     175.7975      0.00000
   7526     175.8075      0.00000
   7527     175.8191      0.00000
   7528     175.8397      0.00000
   7529     175.8561      0.00000
   7530     175.8831      0.00000
   7531     175.8890      0.00000
   7532     175.8992      0.00000
   7533     175.9126      0.00000
   7534     175.9191      0.00000
   7535     175.9308      0.00000
   7536     175.9418      0.00000
   7537     175.9658      0.00000
   7538     175.9775      0.00000
   7539     175.9950      0.00000
   7540     176.0058      0.00000
   7541     176.0340      0.00000
   7542     176.0426      0.00000
   7543     176.0751      0.00000
   7544     176.0849      0.00000
   7545     176.1002      0.00000
   7546     176.1264      0.00000
   7547     176.1293      0.00000
   7548     176.1422      0.00000
   7549     176.1615      0.00000
   7550     176.1665      0.00000
   7551     176.1836      0.00000
   7552     176.1954      0.00000
   7553     176.2128      0.00000
   7554     176.2242      0.00000
   7555     176.2615      0.00000
   7556     176.2715      0.00000
   7557     176.2771      0.00000
   7558     176.2838      0.00000
   7559     176.2946      0.00000
   7560     176.3119      0.00000
   7561     176.3204      0.00000
   7562     176.3401      0.00000
   7563     176.3658      0.00000
   7564     176.3729      0.00000
   7565     176.3930      0.00000
   7566     176.4024      0.00000
   7567     176.4283      0.00000
   7568     176.4449      0.00000
   7569     176.4597      0.00000
   7570     176.4741      0.00000
   7571     176.4788      0.00000
   7572     176.4975      0.00000
   7573     176.5210      0.00000
   7574     176.5297      0.00000
   7575     176.5479      0.00000
   7576     176.5775      0.00000
   7577     176.5863      0.00000
   7578     176.5980      0.00000
   7579     176.6209      0.00000
   7580     176.6392      0.00000
   7581     176.6528      0.00000
   7582     176.6552      0.00000
   7583     176.6762      0.00000
   7584     176.6815      0.00000
   7585     176.6900      0.00000
   7586     176.7273      0.00000
   7587     176.7362      0.00000
   7588     176.7399      0.00000
   7589     176.7497      0.00000
   7590     176.7772      0.00000
   7591     176.7912      0.00000
   7592     176.7925      0.00000
   7593     176.8213      0.00000
   7594     176.8282      0.00000
   7595     176.8393      0.00000
   7596     176.8594      0.00000
   7597     176.8917      0.00000
   7598     176.9056      0.00000
   7599     176.9258      0.00000
   7600     176.9315      0.00000
   7601     176.9594      0.00000
   7602     176.9771      0.00000
   7603     176.9888      0.00000
   7604     177.0170      0.00000
   7605     177.0222      0.00000
   7606     177.0339      0.00000
   7607     177.0361      0.00000
   7608     177.0664      0.00000
   7609     177.0736      0.00000
   7610     177.0858      0.00000
   7611     177.1043      0.00000
   7612     177.1379      0.00000
   7613     177.1460      0.00000
   7614     177.1617      0.00000
   7615     177.1816      0.00000
   7616     177.1919      0.00000
   7617     177.2021      0.00000
   7618     177.2277      0.00000
   7619     177.2391      0.00000
   7620     177.2529      0.00000
   7621     177.2718      0.00000
   7622     177.3018      0.00000
   7623     177.3050      0.00000
   7624     177.3127      0.00000
   7625     177.3310      0.00000
   7626     177.3566      0.00000
   7627     177.3717      0.00000
   7628     177.3777      0.00000
   7629     177.3965      0.00000
   7630     177.4109      0.00000
   7631     177.4279      0.00000
   7632     177.4416      0.00000
   7633     177.4484      0.00000
   7634     177.4604      0.00000
   7635     177.4836      0.00000
   7636     177.4980      0.00000
   7637     177.5042      0.00000
   7638     177.5237      0.00000
   7639     177.5264      0.00000
   7640     177.5609      0.00000
   7641     177.5840      0.00000
   7642     177.6207      0.00000
   7643     177.6218      0.00000
   7644     177.6303      0.00000
   7645     177.6389      0.00000
   7646     177.6674      0.00000
   7647     177.6882      0.00000
   7648     177.7017      0.00000
   7649     177.7150      0.00000
   7650     177.7386      0.00000
   7651     177.7464      0.00000
   7652     177.7624      0.00000
   7653     177.7728      0.00000
   7654     177.7841      0.00000
   7655     177.8013      0.00000
   7656     177.8200      0.00000
   7657     177.8333      0.00000
   7658     177.8407      0.00000
   7659     177.8685      0.00000
   7660     177.8910      0.00000
   7661     177.8977      0.00000
   7662     177.9121      0.00000
   7663     177.9201      0.00000
   7664     177.9290      0.00000
   7665     177.9390      0.00000
   7666     177.9571      0.00000
   7667     177.9911      0.00000
   7668     177.9934      0.00000
   7669     178.0235      0.00000
   7670     178.0475      0.00000
   7671     178.0714      0.00000
   7672     178.0779      0.00000
   7673     178.0884      0.00000
   7674     178.1108      0.00000
   7675     178.1347      0.00000
   7676     178.1396      0.00000
   7677     178.1551      0.00000
   7678     178.1760      0.00000
   7679     178.1848      0.00000
   7680     178.1960      0.00000
   7681     178.2042      0.00000
   7682     178.2241      0.00000
   7683     178.2398      0.00000
   7684     178.2491      0.00000
   7685     178.2690      0.00000
   7686     178.2802      0.00000
   7687     178.2903      0.00000
   7688     178.3210      0.00000
   7689     178.3249      0.00000
   7690     178.3307      0.00000
   7691     178.3503      0.00000
   7692     178.3632      0.00000
   7693     178.3744      0.00000
   7694     178.3912      0.00000
   7695     178.4182      0.00000
   7696     178.4251      0.00000
   7697     178.4571      0.00000
   7698     178.4620      0.00000
   7699     178.4860      0.00000
   7700     178.4997      0.00000
   7701     178.5069      0.00000
   7702     178.5118      0.00000
   7703     178.5362      0.00000
   7704     178.5587      0.00000
   7705     178.5690      0.00000
   7706     178.5816      0.00000
   7707     178.5894      0.00000
   7708     178.6086      0.00000
   7709     178.6181      0.00000
   7710     178.6245      0.00000
   7711     178.6486      0.00000
   7712     178.6661      0.00000
   7713     178.6917      0.00000
   7714     178.6978      0.00000
   7715     178.7233      0.00000
   7716     178.7349      0.00000
   7717     178.7495      0.00000
   7718     178.7569      0.00000
   7719     178.7732      0.00000
   7720     178.7881      0.00000
   7721     178.7973      0.00000
   7722     178.8316      0.00000
   7723     178.8582      0.00000
   7724     178.8679      0.00000
   7725     178.8893      0.00000
   7726     178.9041      0.00000
   7727     178.9110      0.00000
   7728     178.9412      0.00000
   7729     178.9482      0.00000
   7730     178.9675      0.00000
   7731     178.9716      0.00000
   7732     178.9759      0.00000
   7733     178.9950      0.00000
   7734     179.0095      0.00000
   7735     179.0317      0.00000
   7736     179.0386      0.00000
   7737     179.0660      0.00000
   7738     179.0738      0.00000
   7739     179.0920      0.00000
   7740     179.1086      0.00000
   7741     179.1163      0.00000
   7742     179.1443      0.00000
   7743     179.1666      0.00000
   7744     179.1818      0.00000
   7745     179.1946      0.00000
   7746     179.2010      0.00000
   7747     179.2378      0.00000
   7748     179.2604      0.00000
   7749     179.2661      0.00000
   7750     179.2925      0.00000
   7751     179.3064      0.00000
   7752     179.3319      0.00000
   7753     179.3409      0.00000
   7754     179.3515      0.00000
   7755     179.3645      0.00000
   7756     179.3795      0.00000
   7757     179.4005      0.00000
   7758     179.4076      0.00000
   7759     179.4332      0.00000
   7760     179.4438      0.00000
   7761     179.4623      0.00000
   7762     179.4739      0.00000
   7763     179.4944      0.00000
   7764     179.5092      0.00000
   7765     179.5320      0.00000
   7766     179.5376      0.00000
   7767     179.5573      0.00000
   7768     179.5804      0.00000
   7769     179.6027      0.00000
   7770     179.6081      0.00000
   7771     179.6301      0.00000
   7772     179.6419      0.00000
   7773     179.6769      0.00000
   7774     179.6879      0.00000
   7775     179.7269      0.00000
   7776     179.7378      0.00000
   7777     179.7526      0.00000
   7778     179.7621      0.00000
   7779     179.7718      0.00000
   7780     179.7901      0.00000
   7781     179.8085      0.00000
   7782     179.8339      0.00000
   7783     179.8593      0.00000
   7784     179.8728      0.00000
   7785     179.8824      0.00000
   7786     179.8879      0.00000
   7787     179.9237      0.00000
   7788     179.9334      0.00000
   7789     179.9425      0.00000
   7790     179.9580      0.00000
   7791     179.9722      0.00000
   7792     180.0113      0.00000
   7793     180.0225      0.00000
   7794     180.0355      0.00000
   7795     180.0460      0.00000
   7796     180.0508      0.00000
   7797     180.0702      0.00000
   7798     180.0976      0.00000
   7799     180.1191      0.00000
   7800     180.1258      0.00000
   7801     180.1451      0.00000
   7802     180.1687      0.00000
   7803     180.1817      0.00000
   7804     180.2142      0.00000
   7805     180.2226      0.00000
   7806     180.2387      0.00000
   7807     180.2473      0.00000
   7808     180.2689      0.00000
   7809     180.2802      0.00000
   7810     180.2854      0.00000
   7811     180.3152      0.00000
   7812     180.3360      0.00000
   7813     180.3637      0.00000
   7814     180.3795      0.00000
   7815     180.3871      0.00000
   7816     180.4021      0.00000
   7817     180.4235      0.00000
   7818     180.4394      0.00000
   7819     180.4533      0.00000
   7820     180.4686      0.00000
   7821     180.5023      0.00000
   7822     180.5252      0.00000
   7823     180.5372      0.00000
   7824     180.5748      0.00000
   7825     180.5934      0.00000
   7826     180.6185      0.00000
   7827     180.6466      0.00000
   7828     180.6516      0.00000
   7829     180.6613      0.00000
   7830     180.6790      0.00000
   7831     180.6869      0.00000
   7832     180.7027      0.00000
   7833     180.7134      0.00000
   7834     180.7365      0.00000
   7835     180.7611      0.00000
   7836     180.7755      0.00000
   7837     180.7946      0.00000
   7838     180.8131      0.00000
   7839     180.8292      0.00000
   7840     180.8516      0.00000
   7841     180.8769      0.00000
   7842     180.8881      0.00000
   7843     180.9000      0.00000
   7844     180.9083      0.00000
   7845     180.9267      0.00000
   7846     180.9456      0.00000
   7847     180.9678      0.00000
   7848     180.9861      0.00000
   7849     181.0065      0.00000
   7850     181.0255      0.00000
   7851     181.0399      0.00000
   7852     181.0581      0.00000
   7853     181.0727      0.00000
   7854     181.0747      0.00000
   7855     181.1077      0.00000
   7856     181.1304      0.00000
   7857     181.1472      0.00000
   7858     181.1626      0.00000
   7859     181.1952      0.00000
   7860     181.2045      0.00000
   7861     181.2155      0.00000
   7862     181.2338      0.00000
   7863     181.2477      0.00000
   7864     181.2740      0.00000
   7865     181.2935      0.00000
   7866     181.3128      0.00000
   7867     181.3316      0.00000
   7868     181.3361      0.00000
   7869     181.3597      0.00000
   7870     181.3823      0.00000
   7871     181.3979      0.00000
   7872     181.4128      0.00000
   7873     181.4384      0.00000
   7874     181.4552      0.00000
   7875     181.4745      0.00000
   7876     181.4926      0.00000
   7877     181.5010      0.00000
   7878     181.5142      0.00000
   7879     181.5364      0.00000
   7880     181.5566      0.00000
   7881     181.5640      0.00000
   7882     181.5865      0.00000
   7883     181.6108      0.00000
   7884     181.6428      0.00000
   7885     181.6506      0.00000
   7886     181.6647      0.00000
   7887     181.6766      0.00000
   7888     181.6926      0.00000
   7889     181.7225      0.00000
   7890     181.7258      0.00000
   7891     181.7403      0.00000
   7892     181.7820      0.00000
   7893     181.7901      0.00000
   7894     181.8153      0.00000
   7895     181.8186      0.00000
   7896     181.8436      0.00000
   7897     181.8519      0.00000
   7898     181.8863      0.00000
   7899     181.9046      0.00000
   7900     181.9245      0.00000
   7901     181.9374      0.00000
   7902     181.9433      0.00000
   7903     181.9548      0.00000
   7904     181.9846      0.00000
   7905     181.9992      0.00000
   7906     182.0149      0.00000
   7907     182.0170      0.00000
   7908     182.0391      0.00000
   7909     182.0540      0.00000
   7910     182.0640      0.00000
   7911     182.0874      0.00000
   7912     182.1146      0.00000
   7913     182.1236      0.00000
   7914     182.1337      0.00000
   7915     182.1562      0.00000
   7916     182.1656      0.00000
   7917     182.1824      0.00000
   7918     182.2018      0.00000
   7919     182.2266      0.00000
   7920     182.2328      0.00000
   7921     182.2518      0.00000
   7922     182.2585      0.00000
   7923     182.2810      0.00000
   7924     182.3011      0.00000
   7925     182.3251      0.00000
   7926     182.3308      0.00000
   7927     182.3497      0.00000
   7928     182.3536      0.00000
   7929     182.3697      0.00000
   7930     182.3875      0.00000
   7931     182.4086      0.00000
   7932     182.4278      0.00000
   7933     182.4415      0.00000
   7934     182.4669      0.00000
   7935     182.4912      0.00000
   7936     182.4975      0.00000
   7937     182.5289      0.00000
   7938     182.5436      0.00000
   7939     182.5556      0.00000
   7940     182.5693      0.00000
   7941     182.5844      0.00000
   7942     182.6101      0.00000
   7943     182.6214      0.00000
   7944     182.6269      0.00000
   7945     182.6502      0.00000
   7946     182.6753      0.00000
   7947     182.6793      0.00000
   7948     182.6864      0.00000
   7949     182.7202      0.00000
   7950     182.7235      0.00000
   7951     182.7380      0.00000
   7952     182.7590      0.00000
   7953     182.7622      0.00000
   7954     182.7885      0.00000
   7955     182.8025      0.00000
   7956     182.8114      0.00000
   7957     182.8219      0.00000
   7958     182.8479      0.00000
   7959     182.8632      0.00000
   7960     182.8695      0.00000
   7961     182.8792      0.00000
   7962     182.9090      0.00000
   7963     182.9115      0.00000
   7964     182.9300      0.00000
   7965     182.9566      0.00000
   7966     182.9637      0.00000
   7967     182.9880      0.00000
   7968     182.9952      0.00000
   7969     183.0054      0.00000
   7970     183.0199      0.00000
   7971     183.0312      0.00000
   7972     183.0589      0.00000
   7973     183.0733      0.00000
   7974     183.0869      0.00000
   7975     183.1053      0.00000
   7976     183.1137      0.00000
   7977     183.1198      0.00000
   7978     183.1452      0.00000
   7979     183.1617      0.00000
   7980     183.1768      0.00000
   7981     183.1995      0.00000
   7982     183.2077      0.00000
   7983     183.2303      0.00000
   7984     183.2359      0.00000
   7985     183.2742      0.00000
   7986     183.2841      0.00000
   7987     183.2949      0.00000
   7988     183.3163      0.00000
   7989     183.3253      0.00000
   7990     183.3355      0.00000
   7991     183.3551      0.00000
   7992     183.3732      0.00000
   7993     183.4013      0.00000
   7994     183.4086      0.00000
   7995     183.4297      0.00000
   7996     183.4344      0.00000
   7997     183.4461      0.00000
   7998     183.4534      0.00000
   7999     183.4643      0.00000
   8000     183.4927      0.00000
   8001     183.5317      0.00000
   8002     183.5403      0.00000
   8003     183.5567      0.00000
   8004     183.5718      0.00000
   8005     183.5836      0.00000
   8006     183.5887      0.00000
   8007     183.6109      0.00000
   8008     183.6355      0.00000
   8009     183.6516      0.00000
   8010     183.6598      0.00000
   8011     183.6768      0.00000
   8012     183.7001      0.00000
   8013     183.7121      0.00000
   8014     183.7179      0.00000
   8015     183.7464      0.00000
   8016     183.7562      0.00000
   8017     183.7702      0.00000
   8018     183.7736      0.00000
   8019     183.7835      0.00000
   8020     183.7936      0.00000
   8021     183.8195      0.00000
   8022     183.8281      0.00000
   8023     183.8391      0.00000
   8024     183.8685      0.00000
   8025     183.9003      0.00000
   8026     183.9074      0.00000
   8027     183.9298      0.00000
   8028     183.9424      0.00000
   8029     183.9520      0.00000
   8030     183.9662      0.00000
   8031     183.9898      0.00000
   8032     183.9920      0.00000
   8033     184.0021      0.00000
   8034     184.0315      0.00000
   8035     184.0532      0.00000
   8036     184.0666      0.00000
   8037     184.0790      0.00000
   8038     184.0837      0.00000
   8039     184.0914      0.00000
   8040     184.1110      0.00000
   8041     184.1236      0.00000
   8042     184.1488      0.00000
   8043     184.1528      0.00000
   8044     184.1612      0.00000
   8045     184.1835      0.00000
   8046     184.1983      0.00000
   8047     184.2126      0.00000
   8048     184.2282      0.00000
   8049     184.2366      0.00000
   8050     184.2539      0.00000
   8051     184.2679      0.00000
   8052     184.2857      0.00000
   8053     184.2965      0.00000
   8054     184.3085      0.00000
   8055     184.3167      0.00000
   8056     184.3314      0.00000
   8057     184.3483      0.00000
   8058     184.3653      0.00000
   8059     184.3916      0.00000
   8060     184.3983      0.00000
   8061     184.4030      0.00000
   8062     184.4074      0.00000
   8063     184.4580      0.00000
   8064     184.4631      0.00000
   8065     184.4738      0.00000
   8066     184.4946      0.00000
   8067     184.5094      0.00000
   8068     184.5194      0.00000
   8069     184.5289      0.00000
   8070     184.5418      0.00000
   8071     184.5647      0.00000
   8072     184.5685      0.00000
   8073     184.5808      0.00000
   8074     184.5891      0.00000
   8075     184.6140      0.00000
   8076     184.6256      0.00000
   8077     184.6352      0.00000
   8078     184.6687      0.00000
   8079     184.6717      0.00000
   8080     184.6903      0.00000
   8081     184.7041      0.00000
   8082     184.7292      0.00000
   8083     184.7355      0.00000
   8084     184.7460      0.00000
   8085     184.7547      0.00000
   8086     184.7941      0.00000
   8087     184.8016      0.00000
   8088     184.8174      0.00000
   8089     184.8219      0.00000
   8090     184.8453      0.00000
   8091     184.8506      0.00000
   8092     184.8783      0.00000
   8093     184.8865      0.00000
   8094     184.8934      0.00000
   8095     184.9186      0.00000
   8096     184.9277      0.00000
   8097     184.9533      0.00000
   8098     184.9792      0.00000
   8099     184.9999      0.00000
   8100     185.0076      0.00000
   8101     185.0191      0.00000
   8102     185.0233      0.00000
   8103     185.0382      0.00000
   8104     185.0669      0.00000
   8105     185.0900      0.00000
   8106     185.0947      0.00000
   8107     185.1026      0.00000
   8108     185.1086      0.00000
   8109     185.1222      0.00000
   8110     185.1355      0.00000
   8111     185.1461      0.00000
   8112     185.1727      0.00000
   8113     185.1785      0.00000
   8114     185.1869      0.00000
   8115     185.2073      0.00000
   8116     185.2199      0.00000
   8117     185.2381      0.00000
   8118     185.2504      0.00000
   8119     185.2720      0.00000
   8120     185.3034      0.00000
   8121     185.3076      0.00000
   8122     185.3184      0.00000
   8123     185.3377      0.00000
   8124     185.3408      0.00000
   8125     185.3595      0.00000
   8126     185.3609      0.00000
   8127     185.4090      0.00000
   8128     185.4183      0.00000
   8129     185.4271      0.00000
   8130     185.4506      0.00000
   8131     185.4669      0.00000
   8132     185.4786      0.00000
   8133     185.4855      0.00000
   8134     185.5097      0.00000
   8135     185.5202      0.00000
   8136     185.5349      0.00000
   8137     185.5407      0.00000
   8138     185.5600      0.00000
   8139     185.5777      0.00000
   8140     185.5870      0.00000
   8141     185.6159      0.00000
   8142     185.6296      0.00000
   8143     185.6533      0.00000
   8144     185.6799      0.00000
   8145     185.6883      0.00000
   8146     185.6993      0.00000
   8147     185.7135      0.00000
   8148     185.7359      0.00000
   8149     185.7479      0.00000
   8150     185.7753      0.00000
   8151     185.7824      0.00000
   8152     185.7925      0.00000
   8153     185.8101      0.00000
   8154     185.8197      0.00000
   8155     185.8537      0.00000
   8156     185.8549      0.00000
   8157     185.8746      0.00000
   8158     185.8861      0.00000
   8159     185.8939      0.00000
   8160     185.9163      0.00000
   8161     185.9441      0.00000
   8162     185.9479      0.00000
   8163     185.9588      0.00000
   8164     185.9775      0.00000
   8165     185.9819      0.00000
   8166     185.9954      0.00000
   8167     185.9979      0.00000
   8168     186.0337      0.00000
   8169     186.0469      0.00000
   8170     186.0708      0.00000
   8171     186.0834      0.00000
   8172     186.0886      0.00000
   8173     186.1024      0.00000
   8174     186.1137      0.00000
   8175     186.1397      0.00000
   8176     186.1666      0.00000
   8177     186.1789      0.00000
   8178     186.1806      0.00000
   8179     186.1947      0.00000
   8180     186.2172      0.00000
   8181     186.2342      0.00000
   8182     186.2408      0.00000
   8183     186.2877      0.00000
   8184     186.2893      0.00000
   8185     186.2953      0.00000
   8186     186.3364      0.00000
   8187     186.3453      0.00000
   8188     186.3636      0.00000
   8189     186.3696      0.00000
   8190     186.3776      0.00000
   8191     186.3972      0.00000
   8192     186.4058      0.00000
   8193     186.4266      0.00000
   8194     186.4411      0.00000
   8195     186.4594      0.00000
   8196     186.4755      0.00000
   8197     186.4874      0.00000
   8198     186.4952      0.00000
   8199     186.5162      0.00000
   8200     186.5359      0.00000
   8201     186.5459      0.00000
   8202     186.5575      0.00000
   8203     186.5743      0.00000
   8204     186.5986      0.00000
   8205     186.6140      0.00000
   8206     186.6280      0.00000
   8207     186.6450      0.00000
   8208     186.6557      0.00000
   8209     186.6680      0.00000
   8210     186.6890      0.00000
   8211     186.7113      0.00000
   8212     186.7259      0.00000
   8213     186.7382      0.00000
   8214     186.7656      0.00000
   8215     186.7690      0.00000
   8216     186.7978      0.00000
   8217     186.8116      0.00000
   8218     186.8301      0.00000
   8219     186.8433      0.00000
   8220     186.8569      0.00000
   8221     186.8723      0.00000
   8222     186.8929      0.00000
   8223     186.9114      0.00000
   8224     186.9127      0.00000
   8225     186.9192      0.00000
   8226     186.9479      0.00000
   8227     186.9528      0.00000
   8228     186.9828      0.00000
   8229     186.9887      0.00000
   8230     187.0132      0.00000
   8231     187.0183      0.00000
   8232     187.0461      0.00000
   8233     187.0544      0.00000
   8234     187.0636      0.00000
   8235     187.0739      0.00000
   8236     187.0869      0.00000
   8237     187.0952      0.00000
   8238     187.1179      0.00000
   8239     187.1444      0.00000
   8240     187.1517      0.00000
   8241     187.1593      0.00000
   8242     187.1865      0.00000
   8243     187.1894      0.00000
   8244     187.2042      0.00000
   8245     187.2161      0.00000
   8246     187.2487      0.00000
   8247     187.2613      0.00000
   8248     187.2726      0.00000
   8249     187.2796      0.00000
   8250     187.2821      0.00000
   8251     187.3063      0.00000
   8252     187.3205      0.00000
   8253     187.3344      0.00000
   8254     187.3513      0.00000
   8255     187.3610      0.00000
   8256     187.3925      0.00000
   8257     187.4014      0.00000
   8258     187.4140      0.00000
   8259     187.4316      0.00000
   8260     187.4351      0.00000
   8261     187.4654      0.00000
   8262     187.4772      0.00000
   8263     187.4819      0.00000
   8264     187.4895      0.00000
   8265     187.5197      0.00000
   8266     187.5414      0.00000
   8267     187.5541      0.00000
   8268     187.5651      0.00000
   8269     187.5954      0.00000
   8270     187.5996      0.00000
   8271     187.6326      0.00000
   8272     187.6410      0.00000
   8273     187.6685      0.00000
   8274     187.6714      0.00000
   8275     187.7063      0.00000
   8276     187.7099      0.00000
   8277     187.7206      0.00000
   8278     187.7409      0.00000
   8279     187.7550      0.00000
   8280     187.7633      0.00000
   8281     187.7894      0.00000
   8282     187.7927      0.00000
   8283     187.8003      0.00000
   8284     187.8095      0.00000
   8285     187.8468      0.00000
   8286     187.8488      0.00000
   8287     187.8806      0.00000
   8288     187.8919      0.00000
   8289     187.9237      0.00000
   8290     187.9340      0.00000
   8291     187.9519      0.00000
   8292     187.9608      0.00000
   8293     187.9920      0.00000
   8294     188.0176      0.00000
   8295     188.0294      0.00000
   8296     188.0433      0.00000
   8297     188.0492      0.00000
   8298     188.0720      0.00000
   8299     188.1024      0.00000
   8300     188.1058      0.00000
   8301     188.1276      0.00000
   8302     188.1431      0.00000
   8303     188.1587      0.00000
   8304     188.1876      0.00000
   8305     188.2126      0.00000
   8306     188.2234      0.00000
   8307     188.2383      0.00000
   8308     188.2458      0.00000
   8309     188.2598      0.00000
   8310     188.2812      0.00000
   8311     188.2983      0.00000
   8312     188.3103      0.00000
   8313     188.3345      0.00000
   8314     188.3510      0.00000
   8315     188.3616      0.00000
   8316     188.3936      0.00000
   8317     188.4000      0.00000
   8318     188.4130      0.00000
   8319     188.4360      0.00000
   8320     188.4469      0.00000
   8321     188.4661      0.00000
   8322     188.4746      0.00000
   8323     188.4917      0.00000
   8324     188.5172      0.00000
   8325     188.5372      0.00000
   8326     188.5531      0.00000
   8327     188.5558      0.00000
   8328     188.5797      0.00000
   8329     188.5977      0.00000
   8330     188.6124      0.00000
   8331     188.6152      0.00000
   8332     188.6242      0.00000
   8333     188.6442      0.00000
   8334     188.6585      0.00000
   8335     188.6710      0.00000
   8336     188.7015      0.00000
   8337     188.7124      0.00000
   8338     188.7280      0.00000
   8339     188.7453      0.00000
   8340     188.7545      0.00000
   8341     188.7757      0.00000
   8342     188.7917      0.00000
   8343     188.8042      0.00000
   8344     188.8260      0.00000
   8345     188.8612      0.00000
   8346     188.8689      0.00000
   8347     188.8919      0.00000
   8348     188.8956      0.00000
   8349     188.9183      0.00000
   8350     188.9361      0.00000
   8351     188.9397      0.00000
   8352     188.9614      0.00000
   8353     188.9715      0.00000
   8354     189.0019      0.00000
   8355     189.0110      0.00000
   8356     189.0346      0.00000
   8357     189.0643      0.00000
   8358     189.0668      0.00000
   8359     189.0782      0.00000
   8360     189.0961      0.00000
   8361     189.1068      0.00000
   8362     189.1340      0.00000
   8363     189.1462      0.00000
   8364     189.1656      0.00000
   8365     189.1785      0.00000
   8366     189.1846      0.00000
   8367     189.2031      0.00000
   8368     189.2141      0.00000
   8369     189.2313      0.00000
   8370     189.2429      0.00000
   8371     189.2458      0.00000
   8372     189.2662      0.00000
   8373     189.3113      0.00000
   8374     189.3209      0.00000
   8375     189.3348      0.00000
   8376     189.3521      0.00000
   8377     189.3612      0.00000
   8378     189.3760      0.00000
   8379     189.4020      0.00000
   8380     189.4163      0.00000
   8381     189.4318      0.00000
   8382     189.4609      0.00000
   8383     189.4699      0.00000
   8384     189.4801      0.00000
   8385     189.4949      0.00000
   8386     189.5154      0.00000
   8387     189.5330      0.00000
   8388     189.5435      0.00000
   8389     189.5553      0.00000
   8390     189.5812      0.00000
   8391     189.5903      0.00000
   8392     189.5971      0.00000
   8393     189.6115      0.00000
   8394     189.6291      0.00000
   8395     189.6390      0.00000
   8396     189.6655      0.00000
   8397     189.6782      0.00000
   8398     189.6853      0.00000
   8399     189.7139      0.00000
   8400     189.7188      0.00000
   8401     189.7296      0.00000
   8402     189.7646      0.00000
   8403     189.7745      0.00000
   8404     189.7899      0.00000
   8405     189.8037      0.00000
   8406     189.8174      0.00000
   8407     189.8312      0.00000
   8408     189.8551      0.00000
   8409     189.8700      0.00000
   8410     189.8929      0.00000
   8411     189.9208      0.00000
   8412     189.9431      0.00000
   8413     189.9567      0.00000
   8414     189.9730      0.00000
   8415     189.9862      0.00000
   8416     190.0040      0.00000
   8417     190.0088      0.00000
   8418     190.0314      0.00000
   8419     190.0491      0.00000
   8420     190.0546      0.00000
   8421     190.0695      0.00000
   8422     190.0749      0.00000
   8423     190.0811      0.00000
   8424     190.0982      0.00000
   8425     190.1320      0.00000
   8426     190.1508      0.00000
   8427     190.1729      0.00000
   8428     190.1934      0.00000
   8429     190.2204      0.00000
   8430     190.2375      0.00000
   8431     190.2396      0.00000
   8432     190.2482      0.00000
   8433     190.2722      0.00000
   8434     190.2904      0.00000
   8435     190.3146      0.00000
   8436     190.3256      0.00000
   8437     190.3444      0.00000
   8438     190.3624      0.00000
   8439     190.3805      0.00000
   8440     190.3860      0.00000
   8441     190.4065      0.00000
   8442     190.4115      0.00000
   8443     190.4425      0.00000
   8444     190.4634      0.00000
   8445     190.4713      0.00000
   8446     190.4848      0.00000
   8447     190.5074      0.00000
   8448     190.5296      0.00000
   8449     190.5413      0.00000
   8450     190.5527      0.00000
   8451     190.5618      0.00000
   8452     190.5673      0.00000
   8453     190.5832      0.00000
   8454     190.6105      0.00000
   8455     190.6212      0.00000
   8456     190.6231      0.00000
   8457     190.6382      0.00000
   8458     190.6618      0.00000
   8459     190.6718      0.00000
   8460     190.7004      0.00000
   8461     190.7320      0.00000
   8462     190.7507      0.00000
   8463     190.7575      0.00000
   8464     190.7633      0.00000
   8465     190.7919      0.00000
   8466     190.8145      0.00000
   8467     190.8261      0.00000
   8468     190.8330      0.00000
   8469     190.8566      0.00000
   8470     190.8817      0.00000
   8471     190.8901      0.00000
   8472     190.8991      0.00000
   8473     190.9141      0.00000
   8474     190.9226      0.00000
   8475     190.9404      0.00000
   8476     190.9574      0.00000
   8477     190.9783      0.00000
   8478     190.9897      0.00000
   8479     191.0182      0.00000
   8480     191.0581      0.00000
   8481     191.0669      0.00000
   8482     191.0829      0.00000
   8483     191.1006      0.00000
   8484     191.1058      0.00000
   8485     191.1266      0.00000
   8486     191.1564      0.00000
   8487     191.1601      0.00000
   8488     191.1656      0.00000
   8489     191.1892      0.00000
   8490     191.2098      0.00000
   8491     191.2281      0.00000
   8492     191.2444      0.00000
   8493     191.2557      0.00000
   8494     191.2667      0.00000
   8495     191.2802      0.00000
   8496     191.2943      0.00000
   8497     191.3141      0.00000
   8498     191.3303      0.00000
   8499     191.3366      0.00000
   8500     191.3620      0.00000
   8501     191.3727      0.00000
   8502     191.3857      0.00000
   8503     191.3966      0.00000
   8504     191.4134      0.00000
   8505     191.4243      0.00000
   8506     191.4471      0.00000
   8507     191.4634      0.00000
   8508     191.4686      0.00000
   8509     191.4765      0.00000
   8510     191.5122      0.00000
   8511     191.5244      0.00000
   8512     191.5300      0.00000
   8513     191.5545      0.00000
   8514     191.5597      0.00000
   8515     191.5804      0.00000
   8516     191.5857      0.00000
   8517     191.6093      0.00000
   8518     191.6256      0.00000
   8519     191.6362      0.00000
   8520     191.6568      0.00000
   8521     191.6859      0.00000
   8522     191.7038      0.00000
   8523     191.7124      0.00000
   8524     191.7323      0.00000
   8525     191.7377      0.00000
   8526     191.7491      0.00000
   8527     191.7784      0.00000
   8528     191.8045      0.00000
   8529     191.8169      0.00000
   8530     191.8351      0.00000
   8531     191.8523      0.00000
   8532     191.8561      0.00000
   8533     191.8820      0.00000
   8534     191.8856      0.00000
   8535     191.9109      0.00000
   8536     191.9247      0.00000
   8537     191.9339      0.00000
   8538     191.9396      0.00000
   8539     191.9687      0.00000
   8540     191.9735      0.00000
   8541     191.9868      0.00000
   8542     192.0005      0.00000
   8543     192.0290      0.00000
   8544     192.0404      0.00000
   8545     192.0590      0.00000
   8546     192.0632      0.00000
   8547     192.0946      0.00000
   8548     192.1154      0.00000
   8549     192.1216      0.00000
   8550     192.1490      0.00000
   8551     192.1665      0.00000
   8552     192.1861      0.00000
   8553     192.1985      0.00000
   8554     192.2103      0.00000
   8555     192.2190      0.00000
   8556     192.2221      0.00000
   8557     192.2434      0.00000
   8558     192.2663      0.00000
   8559     192.2702      0.00000
   8560     192.3028      0.00000
   8561     192.3132      0.00000
   8562     192.3371      0.00000
   8563     192.3560      0.00000
   8564     192.3794      0.00000
   8565     192.3831      0.00000
   8566     192.4051      0.00000
   8567     192.4109      0.00000
   8568     192.4314      0.00000
   8569     192.4374      0.00000
   8570     192.4460      0.00000
   8571     192.4633      0.00000
   8572     192.4687      0.00000
   8573     192.4919      0.00000
   8574     192.5077      0.00000
   8575     192.5329      0.00000
   8576     192.5521      0.00000
   8577     192.5657      0.00000
   8578     192.5765      0.00000
   8579     192.5889      0.00000
   8580     192.6029      0.00000
   8581     192.6122      0.00000
   8582     192.6313      0.00000
   8583     192.6382      0.00000
   8584     192.6621      0.00000
   8585     192.6776      0.00000
   8586     192.6937      0.00000
   8587     192.7040      0.00000
   8588     192.7170      0.00000
   8589     192.7318      0.00000
   8590     192.7378      0.00000
   8591     192.7597      0.00000
   8592     192.7794      0.00000
   8593     192.7941      0.00000
   8594     192.8043      0.00000
   8595     192.8293      0.00000
   8596     192.8448      0.00000
   8597     192.8606      0.00000
   8598     192.8652      0.00000
   8599     192.8962      0.00000
   8600     192.9042      0.00000
   8601     192.9279      0.00000
   8602     192.9426      0.00000
   8603     192.9631      0.00000
   8604     192.9701      0.00000
   8605     192.9850      0.00000
   8606     192.9999      0.00000
   8607     193.0205      0.00000
   8608     193.0288      0.00000
   8609     193.0501      0.00000
   8610     193.0733      0.00000
   8611     193.0789      0.00000
   8612     193.1083      0.00000
   8613     193.1156      0.00000
   8614     193.1349      0.00000
   8615     193.1563      0.00000
   8616     193.1623      0.00000
   8617     193.1767      0.00000
   8618     193.1843      0.00000
   8619     193.2077      0.00000
   8620     193.2260      0.00000
   8621     193.2390      0.00000
   8622     193.2486      0.00000
   8623     193.2665      0.00000
   8624     193.2754      0.00000
   8625     193.2961      0.00000
   8626     193.3212      0.00000
   8627     193.3272      0.00000
   8628     193.3477      0.00000
   8629     193.3488      0.00000
   8630     193.3744      0.00000
   8631     193.3961      0.00000
   8632     193.4093      0.00000
   8633     193.4305      0.00000
   8634     193.4484      0.00000
   8635     193.4526      0.00000
   8636     193.4585      0.00000
   8637     193.4792      0.00000
   8638     193.4898      0.00000
   8639     193.5022      0.00000
   8640     193.5296      0.00000
   8641     193.5380      0.00000
   8642     193.5519      0.00000
   8643     193.5703      0.00000
   8644     193.5918      0.00000
   8645     193.6143      0.00000
   8646     193.6265      0.00000
   8647     193.6414      0.00000
   8648     193.6482      0.00000
   8649     193.6562      0.00000
   8650     193.6718      0.00000
   8651     193.6904      0.00000
   8652     193.7142      0.00000
   8653     193.7361      0.00000
   8654     193.7405      0.00000
   8655     193.7513      0.00000
   8656     193.7604      0.00000
   8657     193.7714      0.00000
   8658     193.7892      0.00000
   8659     193.8229      0.00000
   8660     193.8520      0.00000
   8661     193.8653      0.00000
   8662     193.8766      0.00000
   8663     193.8958      0.00000
   8664     193.9016      0.00000
   8665     193.9353      0.00000
   8666     193.9544      0.00000
   8667     193.9656      0.00000
   8668     193.9733      0.00000
   8669     193.9783      0.00000
   8670     193.9993      0.00000
   8671     194.0389      0.00000
   8672     194.0545      0.00000
   8673     194.0648      0.00000
   8674     194.0742      0.00000
   8675     194.0863      0.00000
   8676     194.1051      0.00000
   8677     194.1172      0.00000
   8678     194.1453      0.00000
   8679     194.1665      0.00000
   8680     194.1747      0.00000
   8681     194.1917      0.00000
   8682     194.2084      0.00000
   8683     194.2248      0.00000
   8684     194.2336      0.00000
   8685     194.2593      0.00000
   8686     194.2724      0.00000
   8687     194.2927      0.00000
   8688     194.3049      0.00000
   8689     194.3150      0.00000
   8690     194.3409      0.00000
   8691     194.3579      0.00000
   8692     194.3792      0.00000
   8693     194.3882      0.00000
   8694     194.4001      0.00000
   8695     194.4163      0.00000
   8696     194.4244      0.00000
   8697     194.4437      0.00000
   8698     194.4581      0.00000
   8699     194.4677      0.00000
   8700     194.4851      0.00000
   8701     194.4916      0.00000
   8702     194.5016      0.00000
   8703     194.5233      0.00000
   8704     194.5422      0.00000
   8705     194.5522      0.00000
   8706     194.5675      0.00000
   8707     194.5735      0.00000
   8708     194.5977      0.00000
   8709     194.6114      0.00000
   8710     194.6296      0.00000
   8711     194.6405      0.00000
   8712     194.6614      0.00000
   8713     194.6646      0.00000
   8714     194.6730      0.00000
   8715     194.6933      0.00000
   8716     194.7044      0.00000
   8717     194.7206      0.00000
   8718     194.7297      0.00000
   8719     194.7440      0.00000
   8720     194.7605      0.00000
   8721     194.7685      0.00000
   8722     194.7860      0.00000
   8723     194.8082      0.00000
   8724     194.8320      0.00000
   8725     194.8417      0.00000
   8726     194.8535      0.00000
   8727     194.8646      0.00000
   8728     194.8852      0.00000
   8729     194.8947      0.00000
   8730     194.9151      0.00000
   8731     194.9360      0.00000
   8732     194.9413      0.00000
   8733     194.9646      0.00000
   8734     194.9885      0.00000
   8735     194.9908      0.00000
   8736     195.0037      0.00000
   8737     195.0212      0.00000
   8738     195.0398      0.00000
   8739     195.0537      0.00000
   8740     195.0743      0.00000
   8741     195.0817      0.00000
   8742     195.0839      0.00000
   8743     195.0886      0.00000
   8744     195.1152      0.00000
   8745     195.1229      0.00000
   8746     195.1298      0.00000
   8747     195.1559      0.00000
   8748     195.1623      0.00000
   8749     195.1875      0.00000
   8750     195.2025      0.00000
   8751     195.2182      0.00000
   8752     195.2228      0.00000
   8753     195.2368      0.00000
   8754     195.2574      0.00000
   8755     195.2619      0.00000
   8756     195.2813      0.00000
   8757     195.2958      0.00000
   8758     195.3069      0.00000
   8759     195.3153      0.00000
   8760     195.3387      0.00000
   8761     195.3480      0.00000
   8762     195.3637      0.00000
   8763     195.3760      0.00000
   8764     195.3896      0.00000
   8765     195.3978      0.00000
   8766     195.4167      0.00000
   8767     195.4291      0.00000
   8768     195.4322      0.00000
   8769     195.4570      0.00000
   8770     195.4676      0.00000
   8771     195.4890      0.00000
   8772     195.4944      0.00000
   8773     195.5093      0.00000
   8774     195.5236      0.00000
   8775     195.5524      0.00000
   8776     195.5675      0.00000
   8777     195.5706      0.00000
   8778     195.6051      0.00000
   8779     195.6129      0.00000
   8780     195.6244      0.00000
   8781     195.6284      0.00000
   8782     195.6549      0.00000
   8783     195.6628      0.00000
   8784     195.6743      0.00000
   8785     195.6790      0.00000
   8786     195.7051      0.00000
   8787     195.7220      0.00000
   8788     195.7364      0.00000
   8789     195.7579      0.00000
   8790     195.7712      0.00000
   8791     195.7884      0.00000
   8792     195.7928      0.00000
   8793     195.8093      0.00000
   8794     195.8341      0.00000
   8795     195.8442      0.00000
   8796     195.8489      0.00000
   8797     195.8553      0.00000
   8798     195.8574      0.00000
   8799     195.8875      0.00000
   8800     195.8979      0.00000
   8801     195.9041      0.00000
   8802     195.9185      0.00000
   8803     195.9453      0.00000
   8804     195.9716      0.00000
   8805     195.9853      0.00000
   8806     195.9885      0.00000
   8807     196.0057      0.00000
   8808     196.0126      0.00000
   8809     196.0187      0.00000
   8810     196.0347      0.00000
   8811     196.0552      0.00000
   8812     196.0745      0.00000
   8813     196.0808      0.00000
   8814     196.0989      0.00000
   8815     196.1050      0.00000
   8816     196.1237      0.00000
   8817     196.1333      0.00000
   8818     196.1398      0.00000
   8819     196.1461      0.00000
   8820     196.1709      0.00000
   8821     196.1925      0.00000
   8822     196.2032      0.00000
   8823     196.2099      0.00000
   8824     196.2150      0.00000
   8825     196.2663      0.00000
   8826     196.2678      0.00000
   8827     196.2846      0.00000
   8828     196.2980      0.00000
   8829     196.3031      0.00000
   8830     196.3197      0.00000
   8831     196.3299      0.00000
   8832     196.3489      0.00000
   8833     196.3544      0.00000
   8834     196.3629      0.00000
   8835     196.3757      0.00000
   8836     196.3957      0.00000
   8837     196.4114      0.00000
   8838     196.4171      0.00000
   8839     196.4285      0.00000
   8840     196.4450      0.00000
   8841     196.4508      0.00000
   8842     196.4653      0.00000
   8843     196.4840      0.00000
   8844     196.4972      0.00000
   8845     196.5106      0.00000
   8846     196.5166      0.00000
   8847     196.5311      0.00000
   8848     196.5386      0.00000
   8849     196.5593      0.00000
   8850     196.5754      0.00000
   8851     196.5889      0.00000
   8852     196.6028      0.00000
   8853     196.6137      0.00000
   8854     196.6438      0.00000
   8855     196.6722      0.00000
   8856     196.6815      0.00000
   8857     196.6881      0.00000
   8858     196.7014      0.00000
   8859     196.7108      0.00000
   8860     196.7183      0.00000
   8861     196.7339      0.00000
   8862     196.7511      0.00000
   8863     196.7692      0.00000
   8864     196.7857      0.00000
   8865     196.7991      0.00000
   8866     196.8176      0.00000
   8867     196.8205      0.00000
   8868     196.8344      0.00000
   8869     196.8667      0.00000
   8870     196.8799      0.00000
   8871     196.8852      0.00000
   8872     196.8973      0.00000
   8873     196.9142      0.00000
   8874     196.9303      0.00000
   8875     196.9408      0.00000
   8876     196.9485      0.00000
   8877     196.9622      0.00000
   8878     196.9722      0.00000
   8879     196.9861      0.00000
   8880     197.0154      0.00000
   8881     197.0246      0.00000
   8882     197.0452      0.00000
   8883     197.0497      0.00000
   8884     197.0697      0.00000
   8885     197.0784      0.00000
   8886     197.0907      0.00000
   8887     197.1086      0.00000
   8888     197.1243      0.00000
   8889     197.1454      0.00000
   8890     197.1498      0.00000
   8891     197.1551      0.00000
   8892     197.1724      0.00000
   8893     197.1856      0.00000
   8894     197.1893      0.00000
   8895     197.2206      0.00000
   8896     197.2252      0.00000
   8897     197.2392      0.00000
   8898     197.2543      0.00000
   8899     197.2589      0.00000
   8900     197.2747      0.00000
   8901     197.2956      0.00000
   8902     197.3040      0.00000
   8903     197.3214      0.00000
   8904     197.3308      0.00000
   8905     197.3482      0.00000
   8906     197.3570      0.00000
   8907     197.3670      0.00000
   8908     197.3944      0.00000
   8909     197.4077      0.00000
   8910     197.4132      0.00000
   8911     197.4250      0.00000
   8912     197.4364      0.00000
   8913     197.4393      0.00000
   8914     197.4771      0.00000
   8915     197.4922      0.00000
   8916     197.4960      0.00000
   8917     197.5198      0.00000
   8918     197.5272      0.00000
   8919     197.5471      0.00000
   8920     197.5539      0.00000
   8921     197.5730      0.00000
   8922     197.5853      0.00000
   8923     197.6052      0.00000
   8924     197.6136      0.00000
   8925     197.6353      0.00000
   8926     197.6412      0.00000
   8927     197.6572      0.00000
   8928     197.6663      0.00000
   8929     197.6937      0.00000
   8930     197.7097      0.00000
   8931     197.7285      0.00000
   8932     197.7337      0.00000
   8933     197.7432      0.00000
   8934     197.7618      0.00000
   8935     197.7652      0.00000
   8936     197.7739      0.00000
   8937     197.7941      0.00000
   8938     197.7988      0.00000
   8939     197.8315      0.00000
   8940     197.8405      0.00000
   8941     197.8530      0.00000
   8942     197.8784      0.00000
   8943     197.8842      0.00000
   8944     197.9026      0.00000
   8945     197.9144      0.00000
   8946     197.9287      0.00000
   8947     197.9332      0.00000
   8948     197.9612      0.00000
   8949     197.9743      0.00000
   8950     197.9830      0.00000
   8951     197.9942      0.00000
   8952     198.0235      0.00000
   8953     198.0475      0.00000
   8954     198.0537      0.00000
   8955     198.0610      0.00000
   8956     198.0978      0.00000
   8957     198.1032      0.00000
   8958     198.1209      0.00000
   8959     198.1467      0.00000
   8960     198.1592      0.00000
   8961     198.1753      0.00000
   8962     198.1846      0.00000
   8963     198.1950      0.00000
   8964     198.2060      0.00000
   8965     198.2247      0.00000
   8966     198.2470      0.00000
   8967     198.2617      0.00000
   8968     198.2765      0.00000
   8969     198.3009      0.00000
   8970     198.3245      0.00000
   8971     198.3351      0.00000
   8972     198.3446      0.00000
   8973     198.3670      0.00000
   8974     198.3694      0.00000
   8975     198.4067      0.00000
   8976     198.4210      0.00000
   8977     198.4324      0.00000
   8978     198.4371      0.00000
   8979     198.4545      0.00000
   8980     198.4679      0.00000
   8981     198.4901      0.00000
   8982     198.4963      0.00000
   8983     198.5108      0.00000
   8984     198.5481      0.00000
   8985     198.5768      0.00000
   8986     198.5851      0.00000
   8987     198.5948      0.00000
   8988     198.6146      0.00000
   8989     198.6296      0.00000
   8990     198.6562      0.00000
   8991     198.6679      0.00000
   8992     198.6942      0.00000
   8993     198.7038      0.00000
   8994     198.7159      0.00000
   8995     198.7197      0.00000
   8996     198.7396      0.00000
   8997     198.7533      0.00000
   8998     198.7654      0.00000
   8999     198.7816      0.00000
   9000     198.8238      0.00000
   9001     198.8356      0.00000
   9002     198.8491      0.00000
   9003     198.8593      0.00000
   9004     198.8795      0.00000
   9005     198.8855      0.00000
   9006     198.9020      0.00000
   9007     198.9158      0.00000
   9008     198.9286      0.00000
   9009     198.9462      0.00000
   9010     198.9632      0.00000
   9011     198.9785      0.00000
   9012     198.9873      0.00000
   9013     199.0032      0.00000
   9014     199.0252      0.00000
   9015     199.0469      0.00000
   9016     199.0620      0.00000
   9017     199.0824      0.00000
   9018     199.0920      0.00000
   9019     199.1204      0.00000
   9020     199.1263      0.00000
   9021     199.1376      0.00000
   9022     199.1495      0.00000
   9023     199.1659      0.00000
   9024     199.1891      0.00000
   9025     199.1931      0.00000
   9026     199.2252      0.00000
   9027     199.2345      0.00000
   9028     199.2520      0.00000
   9029     199.2644      0.00000
   9030     199.2710      0.00000
   9031     199.3019      0.00000
   9032     199.3095      0.00000
   9033     199.3108      0.00000
   9034     199.3138      0.00000
   9035     199.3429      0.00000
   9036     199.3669      0.00000
   9037     199.3855      0.00000
   9038     199.4085      0.00000
   9039     199.4311      0.00000
   9040     199.4429      0.00000
   9041     199.4557      0.00000
   9042     199.4705      0.00000
   9043     199.4826      0.00000
   9044     199.4907      0.00000
   9045     199.5022      0.00000
   9046     199.5227      0.00000
   9047     199.5290      0.00000
   9048     199.5384      0.00000
   9049     199.5684      0.00000
   9050     199.5729      0.00000
   9051     199.5868      0.00000
   9052     199.6088      0.00000
   9053     199.6278      0.00000
   9054     199.6352      0.00000
   9055     199.6508      0.00000
   9056     199.6626      0.00000
   9057     199.6883      0.00000
   9058     199.6965      0.00000
   9059     199.7257      0.00000
   9060     199.7397      0.00000
   9061     199.7475      0.00000
   9062     199.7512      0.00000
   9063     199.7766      0.00000
   9064     199.7966      0.00000
   9065     199.8237      0.00000
   9066     199.8321      0.00000
   9067     199.8361      0.00000
   9068     199.8531      0.00000
   9069     199.8806      0.00000
   9070     199.8859      0.00000
   9071     199.8880      0.00000
   9072     199.9031      0.00000
   9073     199.9179      0.00000
   9074     199.9364      0.00000
   9075     199.9442      0.00000
   9076     199.9691      0.00000
   9077     199.9740      0.00000
   9078     199.9896      0.00000
   9079     199.9987      0.00000
   9080     200.0206      0.00000
   9081     200.0224      0.00000
   9082     200.0488      0.00000
   9083     200.0558      0.00000
   9084     200.0731      0.00000
   9085     200.0974      0.00000
   9086     200.1022      0.00000
   9087     200.1124      0.00000
   9088     200.1460      0.00000
   9089     200.1549      0.00000
   9090     200.1717      0.00000
   9091     200.1737      0.00000
   9092     200.2057      0.00000
   9093     200.2221      0.00000
   9094     200.2288      0.00000
   9095     200.2368      0.00000
   9096     200.2518      0.00000
   9097     200.2768      0.00000
   9098     200.2930      0.00000
   9099     200.3096      0.00000
   9100     200.3197      0.00000
   9101     200.3438      0.00000
   9102     200.3696      0.00000
   9103     200.3868      0.00000
   9104     200.3959      0.00000
   9105     200.4083      0.00000
   9106     200.4238      0.00000
   9107     200.4286      0.00000
   9108     200.4318      0.00000
   9109     200.4664      0.00000
   9110     200.4838      0.00000
   9111     200.4939      0.00000
   9112     200.5041      0.00000
   9113     200.5215      0.00000
   9114     200.5357      0.00000
   9115     200.5511      0.00000
   9116     200.5784      0.00000
   9117     200.6030      0.00000
   9118     200.6069      0.00000
   9119     200.6298      0.00000
   9120     200.6369      0.00000
   9121     200.6632      0.00000
   9122     200.6765      0.00000
   9123     200.6932      0.00000
   9124     200.7066      0.00000
   9125     200.7211      0.00000
   9126     200.7387      0.00000
   9127     200.7408      0.00000
   9128     200.7515      0.00000
   9129     200.7695      0.00000
   9130     200.7875      0.00000
   9131     200.8078      0.00000
   9132     200.8236      0.00000
   9133     200.8458      0.00000
   9134     200.8522      0.00000
   9135     200.8568      0.00000
   9136     200.8819      0.00000
   9137     200.8933      0.00000
   9138     200.8981      0.00000
   9139     200.9137      0.00000
   9140     200.9345      0.00000
   9141     200.9573      0.00000
   9142     200.9745      0.00000
   9143     200.9932      0.00000
   9144     201.0033      0.00000
   9145     201.0241      0.00000
   9146     201.0376      0.00000
   9147     201.0553      0.00000
   9148     201.0620      0.00000
   9149     201.0867      0.00000
   9150     201.0891      0.00000
   9151     201.1099      0.00000
   9152     201.1256      0.00000
   9153     201.1396      0.00000
   9154     201.1589      0.00000
   9155     201.1704      0.00000
   9156     201.1874      0.00000
   9157     201.2096      0.00000
   9158     201.2196      0.00000
   9159     201.2237      0.00000
   9160     201.2513      0.00000
   9161     201.2533      0.00000
   9162     201.2636      0.00000
   9163     201.2943      0.00000
   9164     201.3096      0.00000
   9165     201.3337      0.00000
   9166     201.3391      0.00000
   9167     201.3600      0.00000
   9168     201.3706      0.00000
   9169     201.3931      0.00000
   9170     201.4179      0.00000
   9171     201.4210      0.00000
   9172     201.4367      0.00000
   9173     201.4744      0.00000
   9174     201.4836      0.00000
   9175     201.4924      0.00000
   9176     201.5013      0.00000
   9177     201.5256      0.00000
   9178     201.5346      0.00000
   9179     201.5503      0.00000
   9180     201.5656      0.00000
   9181     201.5677      0.00000
   9182     201.5927      0.00000
   9183     201.6194      0.00000
   9184     201.6323      0.00000
   9185     201.6353      0.00000
   9186     201.6529      0.00000
   9187     201.6600      0.00000
   9188     201.6765      0.00000
   9189     201.6947      0.00000
   9190     201.7088      0.00000
   9191     201.7230      0.00000
   9192     201.7290      0.00000
   9193     201.7518      0.00000
   9194     201.7709      0.00000
   9195     201.7871      0.00000
   9196     201.7968      0.00000
   9197     201.8206      0.00000
   9198     201.8225      0.00000
   9199     201.8558      0.00000
   9200     201.8704      0.00000
   9201     201.8826      0.00000
   9202     201.8899      0.00000
   9203     201.9163      0.00000
   9204     201.9205      0.00000
   9205     201.9364      0.00000
   9206     201.9450      0.00000
   9207     201.9716      0.00000
   9208     201.9882      0.00000
   9209     201.9893      0.00000
   9210     202.0025      0.00000
   9211     202.0168      0.00000
   9212     202.0430      0.00000
   9213     202.0529      0.00000
   9214     202.0633      0.00000
   9215     202.0687      0.00000
   9216     202.0863      0.00000
   9217     202.1082      0.00000
   9218     202.1321      0.00000
   9219     202.1371      0.00000
   9220     202.1611      0.00000
   9221     202.1752      0.00000
   9222     202.1817      0.00000
   9223     202.2015      0.00000
   9224     202.2211      0.00000
   9225     202.2287      0.00000
   9226     202.2421      0.00000
   9227     202.2608      0.00000
   9228     202.2739      0.00000
   9229     202.2943      0.00000
   9230     202.3027      0.00000
   9231     202.3095      0.00000
   9232     202.3298      0.00000
   9233     202.3453      0.00000
   9234     202.3535      0.00000
   9235     202.3601      0.00000
   9236     202.3998      0.00000
   9237     202.4119      0.00000
   9238     202.4194      0.00000
   9239     202.4372      0.00000
   9240     202.4490      0.00000
   9241     202.4637      0.00000
   9242     202.4952      0.00000
   9243     202.4976      0.00000
   9244     202.5059      0.00000
   9245     202.5233      0.00000
   9246     202.5332      0.00000
   9247     202.5489      0.00000
   9248     202.5751      0.00000
   9249     202.5790      0.00000
   9250     202.5969      0.00000
   9251     202.6325      0.00000
   9252     202.6446      0.00000
   9253     202.6490      0.00000
   9254     202.6577      0.00000
   9255     202.6906      0.00000
   9256     202.7080      0.00000
   9257     202.7132      0.00000
   9258     202.7273      0.00000
   9259     202.7377      0.00000
   9260     202.7537      0.00000
   9261     202.7678      0.00000
   9262     202.7804      0.00000
   9263     202.7849      0.00000
   9264     202.7923      0.00000
   9265     202.8230      0.00000
   9266     202.8279      0.00000
   9267     202.8429      0.00000
   9268     202.8760      0.00000
   9269     202.8870      0.00000
   9270     202.8924      0.00000
   9271     202.9118      0.00000
   9272     202.9206      0.00000
   9273     202.9299      0.00000
   9274     202.9487      0.00000
   9275     202.9669      0.00000
   9276     202.9734      0.00000
   9277     202.9866      0.00000
   9278     203.0121      0.00000
   9279     203.0160      0.00000
   9280     203.0359      0.00000
   9281     203.0553      0.00000
   9282     203.0709      0.00000
   9283     203.0984      0.00000
   9284     203.1090      0.00000
   9285     203.1209      0.00000
   9286     203.1290      0.00000
   9287     203.1482      0.00000
   9288     203.1590      0.00000
   9289     203.1877      0.00000
   9290     203.1974      0.00000
   9291     203.2199      0.00000
   9292     203.2301      0.00000
   9293     203.2351      0.00000
   9294     203.2452      0.00000
   9295     203.2510      0.00000
   9296     203.2908      0.00000
   9297     203.2925      0.00000
   9298     203.3005      0.00000
   9299     203.3205      0.00000
   9300     203.3426      0.00000
   9301     203.3653      0.00000
   9302     203.3703      0.00000
   9303     203.3838      0.00000
   9304     203.4104      0.00000
   9305     203.4310      0.00000
   9306     203.4410      0.00000
   9307     203.4491      0.00000
   9308     203.4535      0.00000
   9309     203.4801      0.00000
   9310     203.5131      0.00000
   9311     203.5269      0.00000
   9312     203.5469      0.00000
   9313     203.5594      0.00000
   9314     203.5663      0.00000
   9315     203.5891      0.00000
   9316     203.5916      0.00000
   9317     203.6226      0.00000
   9318     203.6310      0.00000
   9319     203.6443      0.00000
   9320     203.6462      0.00000
   9321     203.6762      0.00000
   9322     203.6874      0.00000
   9323     203.7019      0.00000
   9324     203.7101      0.00000
   9325     203.7338      0.00000
   9326     203.7569      0.00000
   9327     203.7719      0.00000
   9328     203.7756      0.00000
   9329     203.7893      0.00000
   9330     203.8038      0.00000
   9331     203.8251      0.00000
   9332     203.8390      0.00000
   9333     203.8483      0.00000
   9334     203.8559      0.00000
   9335     203.8984      0.00000
   9336     203.9099      0.00000
   9337     203.9161      0.00000
   9338     203.9428      0.00000
   9339     203.9498      0.00000
   9340     203.9683      0.00000
   9341     203.9751      0.00000
   9342     204.0012      0.00000
   9343     204.0064      0.00000
   9344     204.0268      0.00000
   9345     204.0469      0.00000
   9346     204.0704      0.00000
   9347     204.0739      0.00000
   9348     204.1115      0.00000
   9349     204.1135      0.00000
   9350     204.1313      0.00000
   9351     204.1352      0.00000
   9352     204.1535      0.00000
   9353     204.1714      0.00000
   9354     204.1873      0.00000
   9355     204.1975      0.00000
   9356     204.2218      0.00000
   9357     204.2257      0.00000
   9358     204.2461      0.00000
   9359     204.2589      0.00000
   9360     204.2943      0.00000
   9361     204.2974      0.00000
   9362     204.3117      0.00000
   9363     204.3236      0.00000
   9364     204.3436      0.00000
   9365     204.3569      0.00000
   9366     204.3701      0.00000
   9367     204.3786      0.00000
   9368     204.4313      0.00000
   9369     204.4388      0.00000
   9370     204.4592      0.00000
   9371     204.4719      0.00000
   9372     204.4925      0.00000
   9373     204.5281      0.00000
   9374     204.5426      0.00000
   9375     204.5518      0.00000
   9376     204.5799      0.00000
   9377     204.5874      0.00000
   9378     204.5963      0.00000
   9379     204.6169      0.00000
   9380     204.6371      0.00000
   9381     204.6447      0.00000
   9382     204.6573      0.00000
   9383     204.6706      0.00000
   9384     204.7060      0.00000
   9385     204.7268      0.00000
   9386     204.7295      0.00000
   9387     204.7422      0.00000
   9388     204.7612      0.00000
   9389     204.7729      0.00000
   9390     204.7973      0.00000
   9391     204.8147      0.00000
   9392     204.8295      0.00000
   9393     204.8461      0.00000
   9394     204.8528      0.00000
   9395     204.8734      0.00000
   9396     204.8815      0.00000
   9397     204.8950      0.00000
   9398     204.9082      0.00000
   9399     204.9273      0.00000
   9400     204.9340      0.00000
   9401     204.9424      0.00000
   9402     204.9813      0.00000
   9403     204.9859      0.00000
   9404     205.0124      0.00000
   9405     205.0249      0.00000
   9406     205.0635      0.00000
   9407     205.0770      0.00000
   9408     205.0944      0.00000
   9409     205.1020      0.00000
   9410     205.1213      0.00000
   9411     205.1258      0.00000
   9412     205.1326      0.00000
   9413     205.1516      0.00000
   9414     205.1732      0.00000
   9415     205.1997      0.00000
   9416     205.2041      0.00000
   9417     205.2078      0.00000
   9418     205.2243      0.00000
   9419     205.2500      0.00000
   9420     205.2513      0.00000
   9421     205.2653      0.00000
   9422     205.2727      0.00000
   9423     205.2957      0.00000
   9424     205.3093      0.00000
   9425     205.3462      0.00000
   9426     205.3529      0.00000
   9427     205.3650      0.00000
   9428     205.3909      0.00000
   9429     205.4017      0.00000
   9430     205.4128      0.00000
   9431     205.4298      0.00000
   9432     205.4426      0.00000
   9433     205.4570      0.00000
   9434     205.4727      0.00000
   9435     205.4811      0.00000
   9436     205.5012      0.00000
   9437     205.5311      0.00000
   9438     205.5399      0.00000
   9439     205.5605      0.00000
   9440     205.5695      0.00000
   9441     205.6036      0.00000
   9442     205.6102      0.00000
   9443     205.6182      0.00000
   9444     205.6229      0.00000
   9445     205.6429      0.00000
   9446     205.6489      0.00000
   9447     205.6896      0.00000
   9448     205.7007      0.00000
   9449     205.7027      0.00000
   9450     205.7167      0.00000
   9451     205.7338      0.00000
   9452     205.7535      0.00000
   9453     205.7612      0.00000
   9454     205.7821      0.00000
   9455     205.8000      0.00000
   9456     205.8317      0.00000
   9457     205.8374      0.00000
   9458     205.8555      0.00000
   9459     205.8740      0.00000
   9460     205.8912      0.00000
   9461     205.9190      0.00000
   9462     205.9346      0.00000
   9463     205.9494      0.00000
   9464     205.9582      0.00000
   9465     205.9681      0.00000
   9466     205.9724      0.00000
   9467     205.9897      0.00000
   9468     206.0019      0.00000
   9469     206.0190      0.00000
   9470     206.0320      0.00000
   9471     206.0512      0.00000
   9472     206.0684      0.00000
   9473     206.0802      0.00000
   9474     206.1135      0.00000
   9475     206.1192      0.00000
   9476     206.1334      0.00000
   9477     206.1412      0.00000
   9478     206.1632      0.00000
   9479     206.1671      0.00000
   9480     206.1951      0.00000
   9481     206.2091      0.00000
   9482     206.2289      0.00000
   9483     206.2345      0.00000
   9484     206.2425      0.00000
   9485     206.2522      0.00000
   9486     206.2541      0.00000
   9487     206.3034      0.00000
   9488     206.3097      0.00000
   9489     206.3166      0.00000
   9490     206.3413      0.00000
   9491     206.3443      0.00000
   9492     206.3606      0.00000
   9493     206.3670      0.00000
   9494     206.3837      0.00000
   9495     206.4094      0.00000
   9496     206.4118      0.00000
   9497     206.4151      0.00000
   9498     206.4338      0.00000
   9499     206.4537      0.00000
   9500     206.4661      0.00000
   9501     206.4808      0.00000
   9502     206.4824      0.00000
   9503     206.5073      0.00000
   9504     206.5374      0.00000
   9505     206.5412      0.00000
   9506     206.5517      0.00000
   9507     206.5568      0.00000
   9508     206.5700      0.00000
   9509     206.5986      0.00000
   9510     206.6158      0.00000
   9511     206.6200      0.00000
   9512     206.6241      0.00000
   9513     206.6453      0.00000
   9514     206.6543      0.00000
   9515     206.6663      0.00000
   9516     206.6810      0.00000
   9517     206.6940      0.00000
   9518     206.7128      0.00000
   9519     206.7308      0.00000
   9520     206.7342      0.00000
   9521     206.7549      0.00000
   9522     206.7729      0.00000
   9523     206.7791      0.00000
   9524     206.7901      0.00000
   9525     206.8125      0.00000
   9526     206.8348      0.00000
   9527     206.8371      0.00000
   9528     206.8594      0.00000
   9529     206.8669      0.00000
   9530     206.8866      0.00000
   9531     206.8941      0.00000
   9532     206.9080      0.00000
   9533     206.9401      0.00000
   9534     206.9498      0.00000
   9535     206.9635      0.00000
   9536     206.9691      0.00000
   9537     206.9785      0.00000
   9538     206.9928      0.00000
   9539     207.0270      0.00000
   9540     207.0329      0.00000
   9541     207.0483      0.00000
   9542     207.0679      0.00000
   9543     207.0835      0.00000
   9544     207.0929      0.00000
   9545     207.1005      0.00000
   9546     207.1120      0.00000
   9547     207.1243      0.00000
   9548     207.1370      0.00000
   9549     207.1602      0.00000
   9550     207.1703      0.00000
   9551     207.1787      0.00000
   9552     207.1936      0.00000
   9553     207.2159      0.00000
   9554     207.2216      0.00000
   9555     207.2363      0.00000
   9556     207.2530      0.00000
   9557     207.2628      0.00000
   9558     207.2672      0.00000
   9559     207.2754      0.00000
   9560     207.2988      0.00000
   9561     207.3089      0.00000
   9562     207.3253      0.00000
   9563     207.3431      0.00000
   9564     207.3600      0.00000
   9565     207.3747      0.00000
   9566     207.3867      0.00000
   9567     207.3991      0.00000
   9568     207.4054      0.00000
   9569     207.4174      0.00000
   9570     207.4518      0.00000
   9571     207.4641      0.00000
   9572     207.4841      0.00000
   9573     207.4863      0.00000
   9574     207.4979      0.00000
   9575     207.5241      0.00000
   9576     207.5400      0.00000
   9577     207.5587      0.00000
   9578     207.5699      0.00000
   9579     207.5765      0.00000
   9580     207.5919      0.00000
   9581     207.5990      0.00000
   9582     207.6059      0.00000
   9583     207.6264      0.00000
   9584     207.6362      0.00000
   9585     207.6512      0.00000
   9586     207.6694      0.00000
   9587     207.6743      0.00000
   9588     207.6843      0.00000
   9589     207.7056      0.00000
   9590     207.7110      0.00000
   9591     207.7376      0.00000
   9592     207.7414      0.00000
   9593     207.7665      0.00000
   9594     207.7709      0.00000
   9595     207.7811      0.00000
   9596     207.7978      0.00000
   9597     207.7987      0.00000
   9598     207.8100      0.00000
   9599     207.8239      0.00000
   9600     207.8325      0.00000
   9601     207.8567      0.00000
   9602     207.8636      0.00000
   9603     207.8836      0.00000
   9604     207.8932      0.00000
   9605     207.9076      0.00000
   9606     207.9188      0.00000
   9607     207.9269      0.00000
   9608     207.9440      0.00000
   9609     207.9609      0.00000
   9610     207.9768      0.00000
   9611     207.9859      0.00000
   9612     207.9890      0.00000
   9613     208.0085      0.00000
   9614     208.0152      0.00000
   9615     208.0328      0.00000
   9616     208.0525      0.00000
   9617     208.0664      0.00000
   9618     208.0855      0.00000
   9619     208.1000      0.00000
   9620     208.1045      0.00000
   9621     208.1169      0.00000
   9622     208.1248      0.00000
   9623     208.1360      0.00000
   9624     208.1510      0.00000
   9625     208.1622      0.00000
   9626     208.1750      0.00000
   9627     208.1850      0.00000
   9628     208.1940      0.00000
   9629     208.2068      0.00000
   9630     208.2143      0.00000
   9631     208.2267      0.00000
   9632     208.2373      0.00000
   9633     208.2605      0.00000
   9634     208.2709      0.00000
   9635     208.2811      0.00000
   9636     208.2893      0.00000
   9637     208.3089      0.00000
   9638     208.3126      0.00000
   9639     208.3262      0.00000
   9640     208.3347      0.00000
   9641     208.3534      0.00000
   9642     208.3622      0.00000
   9643     208.3672      0.00000
   9644     208.3803      0.00000
   9645     208.3918      0.00000
   9646     208.3958      0.00000
   9647     208.4185      0.00000
   9648     208.4307      0.00000
   9649     208.4432      0.00000
   9650     208.4680      0.00000
   9651     208.4782      0.00000
   9652     208.4916      0.00000
   9653     208.4962      0.00000
   9654     208.5048      0.00000
   9655     208.5135      0.00000
   9656     208.5312      0.00000
   9657     208.5458      0.00000
   9658     208.5475      0.00000
   9659     208.5653      0.00000
   9660     208.5884      0.00000
   9661     208.5972      0.00000
   9662     208.6075      0.00000
   9663     208.6129      0.00000
   9664     208.6279      0.00000
   9665     208.6394      0.00000
   9666     208.6610      0.00000
   9667     208.6733      0.00000
   9668     208.7027      0.00000
   9669     208.7103      0.00000
   9670     208.7120      0.00000
   9671     208.7253      0.00000
   9672     208.7414      0.00000
   9673     208.7515      0.00000
   9674     208.7592      0.00000
   9675     208.7648      0.00000
   9676     208.7805      0.00000
   9677     208.7983      0.00000
   9678     208.8108      0.00000
   9679     208.8275      0.00000
   9680     208.8387      0.00000
   9681     208.8452      0.00000
   9682     208.8588      0.00000
   9683     208.8760      0.00000
   9684     208.8884      0.00000
   9685     208.8996      0.00000
   9686     208.9111      0.00000
   9687     208.9286      0.00000
   9688     208.9352      0.00000
   9689     208.9533      0.00000
   9690     208.9663      0.00000
   9691     208.9781      0.00000
   9692     208.9898      0.00000
   9693     208.9978      0.00000
   9694     209.0085      0.00000
   9695     209.0182      0.00000
   9696     209.0511      0.00000
   9697     209.0673      0.00000
   9698     209.0752      0.00000
   9699     209.0930      0.00000
   9700     209.1038      0.00000
   9701     209.1114      0.00000
   9702     209.1218      0.00000
   9703     209.1340      0.00000
   9704     209.1491      0.00000
   9705     209.1630      0.00000
   9706     209.1792      0.00000
   9707     209.1883      0.00000
   9708     209.2014      0.00000
   9709     209.2147      0.00000
   9710     209.2390      0.00000
   9711     209.2436      0.00000
   9712     209.2507      0.00000
   9713     209.2542      0.00000
   9714     209.2813      0.00000
   9715     209.2922      0.00000
   9716     209.3001      0.00000
   9717     209.3150      0.00000
   9718     209.3272      0.00000
   9719     209.3347      0.00000
   9720     209.3478      0.00000
   9721     209.3593      0.00000
   9722     209.3807      0.00000
   9723     209.3862      0.00000
   9724     209.4057      0.00000
   9725     209.4123      0.00000
   9726     209.4303      0.00000
   9727     209.4387      0.00000
   9728     209.4428      0.00000
   9729     209.4545      0.00000
   9730     209.4706      0.00000
   9731     209.4833      0.00000
   9732     209.4934      0.00000
   9733     209.5076      0.00000
   9734     209.5226      0.00000
   9735     209.5517      0.00000
   9736     209.5797      0.00000
   9737     209.5850      0.00000
   9738     209.5941      0.00000
   9739     209.6015      0.00000
   9740     209.6187      0.00000
   9741     209.6307      0.00000
   9742     209.6326      0.00000
   9743     209.6540      0.00000
   9744     209.6737      0.00000
   9745     209.6954      0.00000
   9746     209.7001      0.00000
   9747     209.7106      0.00000
   9748     209.7185      0.00000
   9749     209.7347      0.00000
   9750     209.7560      0.00000
   9751     209.7621      0.00000
   9752     209.7758      0.00000
   9753     209.7786      0.00000
   9754     209.7981      0.00000
   9755     209.8148      0.00000
   9756     209.8197      0.00000
   9757     209.8282      0.00000
   9758     209.8592      0.00000
   9759     209.8688      0.00000
   9760     209.8836      0.00000
   9761     209.8898      0.00000
   9762     209.8965      0.00000
   9763     209.9059      0.00000
   9764     209.9364      0.00000
   9765     209.9545      0.00000
   9766     209.9700      0.00000
   9767     209.9825      0.00000
   9768     209.9910      0.00000
   9769     209.9970      0.00000
   9770     210.0215      0.00000
   9771     210.0338      0.00000
   9772     210.0504      0.00000
   9773     210.0545      0.00000
   9774     210.0732      0.00000
   9775     210.0945      0.00000
   9776     210.0966      0.00000
   9777     210.1135      0.00000
   9778     210.1368      0.00000
   9779     210.1451      0.00000
   9780     210.1626      0.00000
   9781     210.1876      0.00000
   9782     210.1901      0.00000
   9783     210.2022      0.00000
   9784     210.2295      0.00000
   9785     210.2404      0.00000
   9786     210.2448      0.00000
   9787     210.2721      0.00000
   9788     210.2734      0.00000
   9789     210.2912      0.00000
   9790     210.3196      0.00000
   9791     210.3232      0.00000
   9792     210.3451      0.00000
   9793     210.3671      0.00000
   9794     210.3756      0.00000
   9795     210.3860      0.00000
   9796     210.3957      0.00000
   9797     210.4190      0.00000
   9798     210.4251      0.00000
   9799     210.4547      0.00000
   9800     210.4579      0.00000
   9801     210.4771      0.00000
   9802     210.4848      0.00000
   9803     210.4946      0.00000
   9804     210.5000      0.00000
   9805     210.5090      0.00000
   9806     210.5318      0.00000
   9807     210.5426      0.00000
   9808     210.5518      0.00000
   9809     210.5714      0.00000
   9810     210.5937      0.00000
   9811     210.6099      0.00000
   9812     210.6222      0.00000
   9813     210.6348      0.00000
   9814     210.6515      0.00000
   9815     210.6529      0.00000
   9816     210.7007      0.00000
   9817     210.7144      0.00000
   9818     210.7264      0.00000
   9819     210.7382      0.00000
   9820     210.7434      0.00000
   9821     210.7529      0.00000
   9822     210.7668      0.00000
   9823     210.7740      0.00000
   9824     210.7780      0.00000
   9825     210.7982      0.00000
   9826     210.8089      0.00000
   9827     210.8250      0.00000
   9828     210.8412      0.00000
   9829     210.8721      0.00000
   9830     210.8827      0.00000
   9831     210.8981      0.00000
   9832     210.9105      0.00000
   9833     210.9138      0.00000
   9834     210.9389      0.00000
   9835     210.9429      0.00000
   9836     210.9548      0.00000
   9837     210.9665      0.00000
   9838     210.9748      0.00000
   9839     210.9913      0.00000
   9840     211.0006      0.00000
   9841     211.0165      0.00000
   9842     211.0193      0.00000
   9843     211.0333      0.00000
   9844     211.0420      0.00000
   9845     211.0654      0.00000
   9846     211.0802      0.00000
   9847     211.0866      0.00000
   9848     211.1103      0.00000
   9849     211.1151      0.00000
   9850     211.1307      0.00000
   9851     211.1563      0.00000
   9852     211.1674      0.00000
   9853     211.1829      0.00000
   9854     211.2012      0.00000
   9855     211.2150      0.00000
   9856     211.2274      0.00000
   9857     211.2307      0.00000
   9858     211.2399      0.00000
   9859     211.2519      0.00000
   9860     211.2794      0.00000
   9861     211.2857      0.00000
   9862     211.2911      0.00000
   9863     211.3043      0.00000
   9864     211.3163      0.00000
   9865     211.3280      0.00000
   9866     211.3455      0.00000
   9867     211.3538      0.00000
   9868     211.3643      0.00000
   9869     211.3995      0.00000
   9870     211.4075      0.00000
   9871     211.4245      0.00000
   9872     211.4349      0.00000
   9873     211.4467      0.00000
   9874     211.4649      0.00000
   9875     211.4812      0.00000
   9876     211.4990      0.00000
   9877     211.5159      0.00000
   9878     211.5277      0.00000
   9879     211.5410      0.00000
   9880     211.5693      0.00000
   9881     211.5723      0.00000
   9882     211.5930      0.00000
   9883     211.6051      0.00000
   9884     211.6082      0.00000
   9885     211.6179      0.00000
   9886     211.6341      0.00000
   9887     211.6520      0.00000
   9888     211.6613      0.00000
   9889     211.6810      0.00000
   9890     211.6934      0.00000
   9891     211.7083      0.00000
   9892     211.7166      0.00000
   9893     211.7384      0.00000
   9894     211.7485      0.00000
   9895     211.7586      0.00000
   9896     211.7632      0.00000
   9897     211.7773      0.00000
   9898     211.8011      0.00000
   9899     211.8165      0.00000
   9900     211.8298      0.00000
   9901     211.8405      0.00000
   9902     211.8467      0.00000
   9903     211.8653      0.00000
   9904     211.8793      0.00000
   9905     211.8839      0.00000
   9906     211.8987      0.00000
   9907     211.9212      0.00000
   9908     211.9284      0.00000
   9909     211.9517      0.00000
   9910     211.9661      0.00000
   9911     211.9783      0.00000
   9912     211.9818      0.00000
   9913     212.0135      0.00000
   9914     212.0268      0.00000
   9915     212.0350      0.00000
   9916     212.0630      0.00000
   9917     212.0708      0.00000
   9918     212.0858      0.00000
   9919     212.0867      0.00000
   9920     212.0990      0.00000
   9921     212.1100      0.00000
   9922     212.1193      0.00000
   9923     212.1352      0.00000
   9924     212.1450      0.00000
   9925     212.1580      0.00000
   9926     212.1720      0.00000
   9927     212.1815      0.00000
   9928     212.2103      0.00000
   9929     212.2165      0.00000
   9930     212.2231      0.00000
   9931     212.2498      0.00000
   9932     212.2705      0.00000
   9933     212.2733      0.00000
   9934     212.2837      0.00000
   9935     212.2899      0.00000
   9936     212.3249      0.00000
   9937     212.3414      0.00000
   9938     212.3511      0.00000
   9939     212.3663      0.00000
   9940     212.3811      0.00000
   9941     212.4041      0.00000
   9942     212.4177      0.00000
   9943     212.4267      0.00000
   9944     212.4340      0.00000
   9945     212.4361      0.00000
   9946     212.4566      0.00000
   9947     212.4661      0.00000
   9948     212.4682      0.00000
   9949     212.4889      0.00000
   9950     212.5039      0.00000
   9951     212.5091      0.00000
   9952     212.5273      0.00000
   9953     212.5402      0.00000
   9954     212.5626      0.00000
   9955     212.5691      0.00000
   9956     212.5960      0.00000
   9957     212.6099      0.00000
   9958     212.6170      0.00000
   9959     212.6414      0.00000
   9960     212.6469      0.00000
   9961     212.6609      0.00000
   9962     212.6735      0.00000
   9963     212.6849      0.00000
   9964     212.7005      0.00000
   9965     212.7074      0.00000
   9966     212.7160      0.00000
   9967     212.7320      0.00000
   9968     212.7565      0.00000
   9969     212.7724      0.00000
   9970     212.7734      0.00000
   9971     212.7835      0.00000
   9972     212.7957      0.00000
   9973     212.8104      0.00000
   9974     212.8251      0.00000
   9975     212.8325      0.00000
   9976     212.8451      0.00000
   9977     212.8600      0.00000
   9978     212.8716      0.00000
   9979     212.8850      0.00000
   9980     212.9059      0.00000
   9981     212.9145      0.00000
   9982     212.9270      0.00000
   9983     212.9486      0.00000
   9984     212.9576      0.00000
   9985     212.9813      0.00000
   9986     212.9854      0.00000
   9987     212.9895      0.00000
   9988     213.0207      0.00000
   9989     213.0352      0.00000
   9990     213.0383      0.00000
   9991     213.0673      0.00000
   9992     213.0770      0.00000
   9993     213.0958      0.00000
   9994     213.0991      0.00000
   9995     213.1188      0.00000
   9996     213.1531      0.00000
   9997     213.1556      0.00000
   9998     213.1753      0.00000
   9999     213.1864      0.00000
  10000     213.1930      0.00000
  10001     213.2166      0.00000
  10002     213.2256      0.00000
  10003     213.2374      0.00000
  10004     213.2622      0.00000
  10005     213.2718      0.00000
  10006     213.2862      0.00000
  10007     213.3071      0.00000
  10008     213.3189      0.00000
  10009     213.3232      0.00000
  10010     213.3329      0.00000
  10011     213.3478      0.00000
  10012     213.3574      0.00000
  10013     213.3839      0.00000
  10014     213.4212      0.00000
  10015     213.4309      0.00000
  10016     213.4413      0.00000
  10017     213.4639      0.00000
  10018     213.4727      0.00000
  10019     213.4900      0.00000
  10020     213.4993      0.00000
  10021     213.5060      0.00000
  10022     213.5299      0.00000
  10023     213.5489      0.00000
  10024     213.5562      0.00000
  10025     213.5768      0.00000
  10026     213.5943      0.00000
  10027     213.5980      0.00000
  10028     213.6124      0.00000
  10029     213.6144      0.00000
  10030     213.6311      0.00000
  10031     213.6528      0.00000
  10032     213.6670      0.00000
  10033     213.6818      0.00000
  10034     213.6853      0.00000
  10035     213.7064      0.00000
  10036     213.7278      0.00000
  10037     213.7312      0.00000
  10038     213.7390      0.00000
  10039     213.7415      0.00000
  10040     213.7759      0.00000
  10041     213.7779      0.00000
  10042     213.7886      0.00000
  10043     213.7943      0.00000
  10044     213.8043      0.00000
  10045     213.8054      0.00000
  10046     213.8384      0.00000
  10047     213.8554      0.00000
  10048     213.8679      0.00000
  10049     213.8756      0.00000
  10050     213.8917      0.00000
  10051     213.9098      0.00000
  10052     213.9210      0.00000
  10053     213.9363      0.00000
  10054     213.9503      0.00000
  10055     213.9540      0.00000
  10056     213.9643      0.00000
  10057     213.9891      0.00000
  10058     214.0048      0.00000
  10059     214.0305      0.00000
  10060     214.0417      0.00000
  10061     214.0623      0.00000
  10062     214.0688      0.00000
  10063     214.0850      0.00000
  10064     214.0924      0.00000
  10065     214.1169      0.00000
  10066     214.1308      0.00000
  10067     214.1470      0.00000
  10068     214.1580      0.00000
  10069     214.1751      0.00000
  10070     214.1820      0.00000
  10071     214.1954      0.00000
  10072     214.2089      0.00000
  10073     214.2185      0.00000
  10074     214.2242      0.00000
  10075     214.2366      0.00000
  10076     214.2502      0.00000
  10077     214.2668      0.00000
  10078     214.2883      0.00000
  10079     214.3159      0.00000
  10080     214.3234      0.00000
  10081     214.3309      0.00000
  10082     214.3417      0.00000
  10083     214.3543      0.00000
  10084     214.3634      0.00000
  10085     214.3722      0.00000
  10086     214.3891      0.00000
  10087     214.3903      0.00000
  10088     214.3981      0.00000
  10089     214.4181      0.00000
  10090     214.4454      0.00000
  10091     214.4610      0.00000
  10092     214.4657      0.00000
  10093     214.4756      0.00000
  10094     214.4948      0.00000
  10095     214.5052      0.00000
  10096     214.5103      0.00000
  10097     214.5194      0.00000
  10098     214.5454      0.00000
  10099     214.5532      0.00000
  10100     214.5763      0.00000
  10101     214.5876      0.00000
  10102     214.5938      0.00000
  10103     214.6185      0.00000
  10104     214.6249      0.00000
  10105     214.6350      0.00000
  10106     214.6395      0.00000
  10107     214.6636      0.00000
  10108     214.6756      0.00000
  10109     214.6873      0.00000
  10110     214.6954      0.00000
  10111     214.7082      0.00000
  10112     214.7155      0.00000
  10113     214.7322      0.00000
  10114     214.7396      0.00000
  10115     214.7480      0.00000
  10116     214.7642      0.00000
  10117     214.7693      0.00000
  10118     214.7836      0.00000
  10119     214.7899      0.00000
  10120     214.8058      0.00000
  10121     214.8256      0.00000
  10122     214.8375      0.00000
  10123     214.8487      0.00000
  10124     214.8778      0.00000
  10125     214.8907      0.00000
  10126     214.8969      0.00000
  10127     214.9128      0.00000
  10128     214.9186      0.00000
  10129     214.9229      0.00000
  10130     214.9337      0.00000
  10131     214.9520      0.00000
  10132     214.9797      0.00000
  10133     214.9871      0.00000
  10134     215.0115      0.00000
  10135     215.0256      0.00000
  10136     215.0381      0.00000
  10137     215.0510      0.00000
  10138     215.0661      0.00000
  10139     215.0889      0.00000
  10140     215.0930      0.00000
  10141     215.1067      0.00000
  10142     215.1154      0.00000
  10143     215.1409      0.00000
  10144     215.1498      0.00000
  10145     215.1661      0.00000
  10146     215.1759      0.00000
  10147     215.1898      0.00000
  10148     215.1925      0.00000
  10149     215.2024      0.00000
  10150     215.2125      0.00000
  10151     215.2328      0.00000
  10152     215.2412      0.00000
  10153     215.2583      0.00000
  10154     215.3010      0.00000
  10155     215.3102      0.00000
  10156     215.3129      0.00000
  10157     215.3261      0.00000
  10158     215.3348      0.00000
  10159     215.3409      0.00000
  10160     215.3638      0.00000
  10161     215.3786      0.00000
  10162     215.3947      0.00000
  10163     215.4143      0.00000
  10164     215.4199      0.00000
  10165     215.4395      0.00000
  10166     215.4504      0.00000
  10167     215.4612      0.00000
  10168     215.4713      0.00000
  10169     215.4964      0.00000
  10170     215.5027      0.00000
  10171     215.5246      0.00000
  10172     215.5366      0.00000
  10173     215.5429      0.00000
  10174     215.5770      0.00000
  10175     215.5842      0.00000
  10176     215.5951      0.00000
  10177     215.6130      0.00000
  10178     215.6352      0.00000
  10179     215.6402      0.00000
  10180     215.6553      0.00000
  10181     215.6772      0.00000
  10182     215.6819      0.00000
  10183     215.6956      0.00000
  10184     215.7153      0.00000
  10185     215.7199      0.00000
  10186     215.7262      0.00000
  10187     215.7402      0.00000
  10188     215.7646      0.00000
  10189     215.7728      0.00000
  10190     215.7866      0.00000
  10191     215.7957      0.00000
  10192     215.8117      0.00000
  10193     215.8276      0.00000
  10194     215.8428      0.00000
  10195     215.8495      0.00000
  10196     215.8599      0.00000
  10197     215.8693      0.00000
  10198     215.8882      0.00000
  10199     215.9016      0.00000
  10200     215.9042      0.00000
  10201     215.9205      0.00000
  10202     215.9440      0.00000
  10203     215.9593      0.00000
  10204     215.9753      0.00000
  10205     215.9919      0.00000
  10206     216.0106      0.00000
  10207     216.0212      0.00000
  10208     216.0535      0.00000
  10209     216.0561      0.00000
  10210     216.0636      0.00000
  10211     216.0762      0.00000
  10212     216.0807      0.00000
  10213     216.0941      0.00000
  10214     216.1177      0.00000
  10215     216.1443      0.00000
  10216     216.1514      0.00000
  10217     216.1679      0.00000
  10218     216.1921      0.00000
  10219     216.1962      0.00000
  10220     216.2225      0.00000
  10221     216.2307      0.00000
  10222     216.2335      0.00000
  10223     216.2453      0.00000
  10224     216.2478      0.00000
  10225     216.2759      0.00000
  10226     216.2980      0.00000
  10227     216.3030      0.00000
  10228     216.3110      0.00000
  10229     216.3213      0.00000
  10230     216.3358      0.00000
  10231     216.3403      0.00000
  10232     216.3613      0.00000
  10233     216.3857      0.00000
  10234     216.3993      0.00000
  10235     216.4201      0.00000
  10236     216.4430      0.00000
  10237     216.4504      0.00000
  10238     216.4640      0.00000
  10239     216.4746      0.00000
  10240     216.4925      0.00000
  10241     216.5108      0.00000
  10242     216.5355      0.00000
  10243     216.5414      0.00000
  10244     216.5531      0.00000
  10245     216.5667      0.00000
  10246     216.5762      0.00000
  10247     216.5962      0.00000
  10248     216.6291      0.00000
  10249     216.6424      0.00000
  10250     216.6534      0.00000
  10251     216.6683      0.00000
  10252     216.6785      0.00000
  10253     216.6909      0.00000
  10254     216.7143      0.00000
  10255     216.7243      0.00000
  10256     216.7415      0.00000
  10257     216.7453      0.00000
  10258     216.7719      0.00000
  10259     216.7785      0.00000
  10260     216.7958      0.00000
  10261     216.8051      0.00000
  10262     216.8109      0.00000
  10263     216.8234      0.00000
  10264     216.8375      0.00000
  10265     216.8549      0.00000
  10266     216.8625      0.00000
  10267     216.8931      0.00000
  10268     216.9396      0.00000
  10269     216.9419      0.00000
  10270     216.9655      0.00000
  10271     216.9676      0.00000
  10272     216.9867      0.00000
  10273     216.9931      0.00000
  10274     216.9962      0.00000
  10275     217.0133      0.00000
  10276     217.0249      0.00000
  10277     217.0445      0.00000
  10278     217.0613      0.00000
  10279     217.0739      0.00000
  10280     217.0833      0.00000
  10281     217.1057      0.00000
  10282     217.1254      0.00000
  10283     217.1317      0.00000
  10284     217.1490      0.00000
  10285     217.1529      0.00000
  10286     217.1665      0.00000
  10287     217.1814      0.00000
  10288     217.1984      0.00000
  10289     217.2076      0.00000
  10290     217.2217      0.00000
  10291     217.2316      0.00000
  10292     217.2427      0.00000
  10293     217.2530      0.00000
  10294     217.2736      0.00000
  10295     217.2861      0.00000
  10296     217.3008      0.00000
  10297     217.3119      0.00000
  10298     217.3260      0.00000
  10299     217.3383      0.00000
  10300     217.3452      0.00000
  10301     217.3571      0.00000
  10302     217.3757      0.00000
  10303     217.3918      0.00000
  10304     217.4081      0.00000
  10305     217.4261      0.00000
  10306     217.4421      0.00000
  10307     217.4548      0.00000
  10308     217.4674      0.00000
  10309     217.4757      0.00000
  10310     217.4963      0.00000
  10311     217.5178      0.00000
  10312     217.5214      0.00000
  10313     217.5451      0.00000
  10314     217.5703      0.00000
  10315     217.5753      0.00000
  10316     217.5915      0.00000
  10317     217.5993      0.00000
  10318     217.6107      0.00000
  10319     217.6266      0.00000
  10320     217.6384      0.00000
  10321     217.6692      0.00000
  10322     217.6831      0.00000
  10323     217.6962      0.00000
  10324     217.7213      0.00000
  10325     217.7269      0.00000
  10326     217.7343      0.00000
  10327     217.7569      0.00000
  10328     217.7776      0.00000
  10329     217.7833      0.00000
  10330     217.7863      0.00000
  10331     217.8203      0.00000
  10332     217.8323      0.00000
  10333     217.8471      0.00000
  10334     217.8558      0.00000
  10335     217.8620      0.00000
  10336     217.8842      0.00000
  10337     217.9028      0.00000
  10338     217.9076      0.00000
  10339     217.9298      0.00000
  10340     217.9462      0.00000
  10341     217.9550      0.00000
  10342     217.9725      0.00000
  10343     217.9839      0.00000
  10344     218.0005      0.00000
  10345     218.0096      0.00000
  10346     218.0317      0.00000
  10347     218.0352      0.00000
  10348     218.0559      0.00000
  10349     218.0828      0.00000
  10350     218.0988      0.00000
  10351     218.1066      0.00000
  10352     218.1243      0.00000
  10353     218.1300      0.00000
  10354     218.1362      0.00000
  10355     218.1516      0.00000
  10356     218.1794      0.00000
  10357     218.1891      0.00000
  10358     218.2152      0.00000
  10359     218.2221      0.00000
  10360     218.2319      0.00000
  10361     218.2335      0.00000
  10362     218.2570      0.00000
  10363     218.2728      0.00000
  10364     218.2985      0.00000
  10365     218.3067      0.00000
  10366     218.3483      0.00000
  10367     218.3656      0.00000
  10368     218.3666      0.00000
  10369     218.3745      0.00000
  10370     218.3899      0.00000
  10371     218.3992      0.00000
  10372     218.4278      0.00000
  10373     218.4436      0.00000
  10374     218.4524      0.00000
  10375     218.4764      0.00000
  10376     218.4908      0.00000
  10377     218.5158      0.00000
  10378     218.5401      0.00000
  10379     218.5494      0.00000
  10380     218.5670      0.00000
  10381     218.5823      0.00000
  10382     218.5912      0.00000
  10383     218.5954      0.00000
  10384     218.6273      0.00000
  10385     218.6340      0.00000
  10386     218.6437      0.00000
  10387     218.6563      0.00000
  10388     218.6717      0.00000
  10389     218.6913      0.00000
  10390     218.7025      0.00000
  10391     218.7210      0.00000
  10392     218.7382      0.00000
  10393     218.7466      0.00000
  10394     218.7593      0.00000
  10395     218.7786      0.00000
  10396     218.7933      0.00000
  10397     218.8055      0.00000
  10398     218.8101      0.00000
  10399     218.8190      0.00000
  10400     218.8443      0.00000
  10401     218.8532      0.00000
  10402     218.8834      0.00000
  10403     218.8986      0.00000
  10404     218.9102      0.00000
  10405     218.9228      0.00000
  10406     218.9583      0.00000
  10407     218.9655      0.00000
  10408     218.9760      0.00000
  10409     218.9869      0.00000
  10410     218.9992      0.00000
  10411     219.0088      0.00000
  10412     219.0254      0.00000
  10413     219.0280      0.00000
  10414     219.0407      0.00000
  10415     219.0510      0.00000
  10416     219.0746      0.00000
  10417     219.0760      0.00000
  10418     219.0952      0.00000
  10419     219.1206      0.00000
  10420     219.1248      0.00000
  10421     219.1354      0.00000
  10422     219.1508      0.00000
  10423     219.1766      0.00000
  10424     219.1911      0.00000
  10425     219.1982      0.00000
  10426     219.2086      0.00000
  10427     219.2291      0.00000
  10428     219.2399      0.00000
  10429     219.2561      0.00000
  10430     219.2686      0.00000
  10431     219.2926      0.00000
  10432     219.3010      0.00000
  10433     219.3038      0.00000
  10434     219.3191      0.00000
  10435     219.3347      0.00000
  10436     219.3664      0.00000
  10437     219.3783      0.00000
  10438     219.3802      0.00000
  10439     219.3953      0.00000
  10440     219.4037      0.00000
  10441     219.4175      0.00000
  10442     219.4459      0.00000
  10443     219.4562      0.00000
  10444     219.4704      0.00000
  10445     219.4925      0.00000
  10446     219.5078      0.00000
  10447     219.5195      0.00000
  10448     219.5408      0.00000
  10449     219.5649      0.00000
  10450     219.5824      0.00000
  10451     219.5952      0.00000
  10452     219.6058      0.00000
  10453     219.6177      0.00000
  10454     219.6317      0.00000
  10455     219.6530      0.00000
  10456     219.6712      0.00000
  10457     219.6806      0.00000
  10458     219.6889      0.00000
  10459     219.7019      0.00000
  10460     219.7227      0.00000
  10461     219.7299      0.00000
  10462     219.7383      0.00000
  10463     219.7502      0.00000
  10464     219.7575      0.00000
  10465     219.7893      0.00000
  10466     219.8015      0.00000
  10467     219.8217      0.00000
  10468     219.8408      0.00000
  10469     219.8640      0.00000
  10470     219.8814      0.00000
  10471     219.8925      0.00000
  10472     219.9115      0.00000
  10473     219.9232      0.00000
  10474     219.9329      0.00000
  10475     219.9528      0.00000
  10476     219.9663      0.00000
  10477     219.9833      0.00000
  10478     219.9947      0.00000
  10479     220.0192      0.00000
  10480     220.0294      0.00000
  10481     220.0403      0.00000
  10482     220.0504      0.00000
  10483     220.0601      0.00000
  10484     220.0936      0.00000
  10485     220.0992      0.00000
  10486     220.1033      0.00000
  10487     220.1247      0.00000
  10488     220.1436      0.00000
  10489     220.1655      0.00000
  10490     220.1697      0.00000
  10491     220.1842      0.00000
  10492     220.1971      0.00000
  10493     220.2063      0.00000
  10494     220.2260      0.00000
  10495     220.2384      0.00000
  10496     220.2576      0.00000
  10497     220.2637      0.00000
  10498     220.2788      0.00000
  10499     220.2999      0.00000
  10500     220.3054      0.00000
  10501     220.3135      0.00000
  10502     220.3263      0.00000
  10503     220.3579      0.00000
  10504     220.3728      0.00000
  10505     220.3788      0.00000
  10506     220.3910      0.00000
  10507     220.4106      0.00000
  10508     220.4210      0.00000
  10509     220.4291      0.00000
  10510     220.4517      0.00000
  10511     220.4638      0.00000
  10512     220.5040      0.00000
  10513     220.5091      0.00000
  10514     220.5185      0.00000
  10515     220.5347      0.00000
  10516     220.5509      0.00000
  10517     220.5644      0.00000
  10518     220.5787      0.00000
  10519     220.5858      0.00000
  10520     220.5979      0.00000
  10521     220.6084      0.00000
  10522     220.6345      0.00000
  10523     220.6454      0.00000
  10524     220.6515      0.00000
  10525     220.6590      0.00000
  10526     220.6814      0.00000
  10527     220.6892      0.00000
  10528     220.7172      0.00000
  10529     220.7259      0.00000
  10530     220.7328      0.00000
  10531     220.7482      0.00000
  10532     220.7556      0.00000
  10533     220.7709      0.00000
  10534     220.7795      0.00000
  10535     220.7901      0.00000
  10536     220.8218      0.00000
  10537     220.8366      0.00000
  10538     220.8477      0.00000
  10539     220.8581      0.00000
  10540     220.8674      0.00000
  10541     220.8826      0.00000
  10542     220.8943      0.00000
  10543     220.9080      0.00000
  10544     220.9103      0.00000
  10545     220.9292      0.00000
  10546     220.9552      0.00000
  10547     220.9599      0.00000
  10548     220.9793      0.00000
  10549     220.9864      0.00000
  10550     220.9924      0.00000
  10551     221.0177      0.00000
  10552     221.0244      0.00000
  10553     221.0440      0.00000
  10554     221.0540      0.00000
  10555     221.0665      0.00000
  10556     221.0935      0.00000
  10557     221.1077      0.00000
  10558     221.1122      0.00000
  10559     221.1294      0.00000
  10560     221.1353      0.00000
  10561     221.1636      0.00000
  10562     221.1681      0.00000
  10563     221.1960      0.00000
  10564     221.2086      0.00000
  10565     221.2379      0.00000
  10566     221.2424      0.00000
  10567     221.2524      0.00000
  10568     221.2607      0.00000
  10569     221.2672      0.00000
  10570     221.2862      0.00000
  10571     221.3038      0.00000
  10572     221.3124      0.00000
  10573     221.3172      0.00000
  10574     221.3409      0.00000
  10575     221.3468      0.00000
  10576     221.3822      0.00000
  10577     221.3844      0.00000
  10578     221.3990      0.00000
  10579     221.4126      0.00000
  10580     221.4388      0.00000
  10581     221.4436      0.00000
  10582     221.4608      0.00000
  10583     221.4673      0.00000
  10584     221.4752      0.00000
  10585     221.4866      0.00000
  10586     221.5055      0.00000
  10587     221.5430      0.00000
  10588     221.5501      0.00000
  10589     221.5567      0.00000
  10590     221.5610      0.00000
  10591     221.5841      0.00000
  10592     221.6012      0.00000
  10593     221.6116      0.00000
  10594     221.6220      0.00000
  10595     221.6294      0.00000
  10596     221.6390      0.00000
  10597     221.6693      0.00000
  10598     221.6806      0.00000
  10599     221.6838      0.00000
  10600     221.7231      0.00000
  10601     221.7372      0.00000
  10602     221.7455      0.00000
  10603     221.7538      0.00000
  10604     221.7699      0.00000
  10605     221.7881      0.00000
  10606     221.8048      0.00000
  10607     221.8208      0.00000
  10608     221.8276      0.00000
  10609     221.8361      0.00000
  10610     221.8514      0.00000
  10611     221.8676      0.00000
  10612     221.8781      0.00000
  10613     221.8965      0.00000
  10614     221.8970      0.00000
  10615     221.9180      0.00000
  10616     221.9370      0.00000
  10617     221.9474      0.00000
  10618     221.9596      0.00000
  10619     221.9721      0.00000
  10620     221.9835      0.00000
  10621     222.0035      0.00000
  10622     222.0259      0.00000
  10623     222.0484      0.00000
  10624     222.0543      0.00000
  10625     222.0675      0.00000
  10626     222.0883      0.00000
  10627     222.0957      0.00000
  10628     222.1112      0.00000
  10629     222.1142      0.00000
  10630     222.1353      0.00000
  10631     222.1436      0.00000
  10632     222.1615      0.00000
  10633     222.1843      0.00000
  10634     222.1949      0.00000
  10635     222.2210      0.00000
  10636     222.2250      0.00000
  10637     222.2388      0.00000
  10638     222.2635      0.00000
  10639     222.2736      0.00000
  10640     222.2762      0.00000
  10641     222.2963      0.00000
  10642     222.3110      0.00000
  10643     222.3155      0.00000
  10644     222.3379      0.00000
  10645     222.3548      0.00000
  10646     222.3568      0.00000
  10647     222.3736      0.00000
  10648     222.3780      0.00000
  10649     222.4083      0.00000
  10650     222.4207      0.00000
  10651     222.4346      0.00000
  10652     222.4455      0.00000
  10653     222.4586      0.00000
  10654     222.4777      0.00000
  10655     222.4870      0.00000
  10656     222.4934      0.00000
  10657     222.5113      0.00000
  10658     222.5202      0.00000
  10659     222.5280      0.00000
  10660     222.5413      0.00000
  10661     222.5610      0.00000
  10662     222.5665      0.00000
  10663     222.5863      0.00000
  10664     222.5992      0.00000
  10665     222.6098      0.00000
  10666     222.6296      0.00000
  10667     222.6320      0.00000
  10668     222.6492      0.00000
  10669     222.6602      0.00000
  10670     222.6680      0.00000
  10671     222.6985      0.00000
  10672     222.7150      0.00000
  10673     222.7289      0.00000
  10674     222.7391      0.00000
  10675     222.7421      0.00000
  10676     222.7525      0.00000
  10677     222.7804      0.00000
  10678     222.7976      0.00000
  10679     222.8052      0.00000
  10680     222.8122      0.00000
  10681     222.8181      0.00000
  10682     222.8370      0.00000
  10683     222.8759      0.00000
  10684     222.8926      0.00000
  10685     222.9023      0.00000
  10686     222.9224      0.00000
  10687     222.9325      0.00000
  10688     222.9374      0.00000
  10689     222.9452      0.00000
  10690     222.9666      0.00000
  10691     222.9760      0.00000
  10692     222.9841      0.00000
  10693     222.9999      0.00000
  10694     223.0042      0.00000
  10695     223.0094      0.00000
  10696     223.0296      0.00000
  10697     223.0432      0.00000
  10698     223.0515      0.00000
  10699     223.0629      0.00000
  10700     223.0802      0.00000
  10701     223.0972      0.00000
  10702     223.1127      0.00000
  10703     223.1229      0.00000
  10704     223.1272      0.00000
  10705     223.1326      0.00000
  10706     223.1479      0.00000
  10707     223.1643      0.00000
  10708     223.1687      0.00000
  10709     223.1938      0.00000
  10710     223.2112      0.00000
  10711     223.2116      0.00000
  10712     223.2207      0.00000
  10713     223.2406      0.00000
  10714     223.2572      0.00000
  10715     223.2850      0.00000
  10716     223.2929      0.00000
  10717     223.3009      0.00000
  10718     223.3133      0.00000
  10719     223.3300      0.00000
  10720     223.3381      0.00000
  10721     223.3556      0.00000
  10722     223.3615      0.00000
  10723     223.3769      0.00000
  10724     223.3858      0.00000
  10725     223.3915      0.00000
  10726     223.4156      0.00000
  10727     223.4221      0.00000
  10728     223.4295      0.00000
  10729     223.4387      0.00000
  10730     223.4572      0.00000
  10731     223.4838      0.00000
  10732     223.4974      0.00000
  10733     223.5048      0.00000
  10734     223.5344      0.00000
  10735     223.5411      0.00000
  10736     223.5445      0.00000
  10737     223.5627      0.00000
  10738     223.5704      0.00000
  10739     223.6051      0.00000
  10740     223.6158      0.00000
  10741     223.6259      0.00000
  10742     223.6479      0.00000
  10743     223.6546      0.00000
  10744     223.6650      0.00000
  10745     223.6743      0.00000
  10746     223.6801      0.00000
  10747     223.6967      0.00000
  10748     223.7166      0.00000
  10749     223.7310      0.00000
  10750     223.7463      0.00000
  10751     223.7508      0.00000
  10752     223.7570      0.00000
  10753     223.7632      0.00000
  10754     223.7720      0.00000
  10755     223.7936      0.00000
  10756     223.8023      0.00000
  10757     223.8065      0.00000
  10758     223.8256      0.00000
  10759     223.8415      0.00000
  10760     223.8555      0.00000
  10761     223.8822      0.00000
  10762     223.8962      0.00000
  10763     223.9080      0.00000
  10764     223.9239      0.00000
  10765     223.9278      0.00000
  10766     223.9455      0.00000
  10767     223.9622      0.00000
  10768     223.9661      0.00000
  10769     223.9810      0.00000
  10770     223.9998      0.00000
  10771     224.0065      0.00000
  10772     224.0207      0.00000
  10773     224.0226      0.00000
  10774     224.0341      0.00000
  10775     224.0472      0.00000
  10776     224.0565      0.00000
  10777     224.0765      0.00000
  10778     224.0849      0.00000
  10779     224.1007      0.00000
  10780     224.1018      0.00000
  10781     224.1064      0.00000
  10782     224.1197      0.00000
  10783     224.1368      0.00000
  10784     224.1607      0.00000
  10785     224.1778      0.00000
  10786     224.1817      0.00000
  10787     224.2002      0.00000
  10788     224.2138      0.00000
  10789     224.2253      0.00000
  10790     224.2447      0.00000
  10791     224.2476      0.00000
  10792     224.2550      0.00000
  10793     224.2715      0.00000
  10794     224.2949      0.00000
  10795     224.3073      0.00000
  10796     224.3141      0.00000
  10797     224.3225      0.00000
  10798     224.3302      0.00000
  10799     224.3367      0.00000
  10800     224.3579      0.00000
  10801     224.3709      0.00000
  10802     224.3784      0.00000
  10803     224.3993      0.00000
  10804     224.4200      0.00000
  10805     224.4345      0.00000
  10806     224.4509      0.00000
  10807     224.4671      0.00000
  10808     224.4745      0.00000
  10809     224.4874      0.00000
  10810     224.4970      0.00000
  10811     224.5044      0.00000
  10812     224.5099      0.00000
  10813     224.5382      0.00000
  10814     224.5416      0.00000
  10815     224.5569      0.00000
  10816     224.5835      0.00000
  10817     224.5896      0.00000
  10818     224.6019      0.00000
  10819     224.6079      0.00000
  10820     224.6256      0.00000
  10821     224.6426      0.00000
  10822     224.6557      0.00000
  10823     224.6675      0.00000
  10824     224.6775      0.00000
  10825     224.6875      0.00000
  10826     224.7093      0.00000
  10827     224.7180      0.00000
  10828     224.7328      0.00000
  10829     224.7381      0.00000
  10830     224.7555      0.00000
  10831     224.7729      0.00000
  10832     224.7759      0.00000
  10833     224.7907      0.00000
  10834     224.7915      0.00000
  10835     224.8045      0.00000
  10836     224.8207      0.00000
  10837     224.8306      0.00000
  10838     224.8472      0.00000
  10839     224.8661      0.00000
  10840     224.8804      0.00000
  10841     224.8916      0.00000
  10842     224.8947      0.00000
  10843     224.9203      0.00000
  10844     224.9399      0.00000
  10845     224.9520      0.00000
  10846     224.9598      0.00000
  10847     224.9723      0.00000
  10848     224.9809      0.00000
  10849     225.0075      0.00000
  10850     225.0193      0.00000
  10851     225.0302      0.00000
  10852     225.0443      0.00000
  10853     225.0516      0.00000
  10854     225.0580      0.00000
  10855     225.0641      0.00000
  10856     225.0964      0.00000
  10857     225.1125      0.00000
  10858     225.1208      0.00000
  10859     225.1489      0.00000
  10860     225.1583      0.00000
  10861     225.1622      0.00000
  10862     225.1763      0.00000
  10863     225.1825      0.00000
  10864     225.1890      0.00000
  10865     225.2015      0.00000
  10866     225.2115      0.00000
  10867     225.2245      0.00000
  10868     225.2376      0.00000
  10869     225.2426      0.00000
  10870     225.2671      0.00000
  10871     225.3037      0.00000
  10872     225.3151      0.00000
  10873     225.3217      0.00000
  10874     225.3327      0.00000
  10875     225.3349      0.00000
  10876     225.3455      0.00000
  10877     225.3547      0.00000
  10878     225.3765      0.00000
  10879     225.3872      0.00000
  10880     225.3957      0.00000
  10881     225.4084      0.00000
  10882     225.4212      0.00000
  10883     225.4369      0.00000
  10884     225.4423      0.00000
  10885     225.4709      0.00000
  10886     225.4810      0.00000
  10887     225.4883      0.00000
  10888     225.5078      0.00000
  10889     225.5121      0.00000
  10890     225.5185      0.00000
  10891     225.5296      0.00000
  10892     225.5467      0.00000
  10893     225.5510      0.00000
  10894     225.5631      0.00000
  10895     225.5846      0.00000
  10896     225.5912      0.00000
  10897     225.5968      0.00000
  10898     225.6040      0.00000
  10899     225.6199      0.00000
  10900     225.6302      0.00000
  10901     225.6372      0.00000
  10902     225.6543      0.00000
  10903     225.6609      0.00000
  10904     225.6810      0.00000
  10905     225.6984      0.00000
  10906     225.7147      0.00000
  10907     225.7227      0.00000
  10908     225.7291      0.00000
  10909     225.7414      0.00000
  10910     225.7585      0.00000
  10911     225.7612      0.00000
  10912     225.7812      0.00000
  10913     225.7957      0.00000
  10914     225.8151      0.00000
  10915     225.8243      0.00000
  10916     225.8277      0.00000
  10917     225.8425      0.00000
  10918     225.8570      0.00000
  10919     225.8712      0.00000
  10920     225.8927      0.00000
  10921     225.9137      0.00000
  10922     225.9250      0.00000
  10923     225.9281      0.00000
  10924     225.9494      0.00000
  10925     225.9597      0.00000
  10926     225.9847      0.00000
  10927     225.9975      0.00000
  10928     226.0000      0.00000
  10929     226.0034      0.00000
  10930     226.0219      0.00000
  10931     226.0467      0.00000
  10932     226.0521      0.00000
  10933     226.0688      0.00000
  10934     226.0859      0.00000
  10935     226.0949      0.00000
  10936     226.1061      0.00000
  10937     226.1168      0.00000
  10938     226.1270      0.00000
  10939     226.1492      0.00000
  10940     226.1593      0.00000
  10941     226.1829      0.00000
  10942     226.1951      0.00000
  10943     226.2048      0.00000
  10944     226.2233      0.00000
  10945     226.2420      0.00000
  10946     226.2550      0.00000
  10947     226.2626      0.00000
  10948     226.2688      0.00000
  10949     226.2798      0.00000
  10950     226.3008      0.00000
  10951     226.3168      0.00000
  10952     226.3226      0.00000
  10953     226.3440      0.00000
  10954     226.3579      0.00000
  10955     226.3626      0.00000
  10956     226.3772      0.00000
  10957     226.3929      0.00000
  10958     226.4113      0.00000
  10959     226.4283      0.00000
  10960     226.4299      0.00000
  10961     226.4519      0.00000
  10962     226.4670      0.00000
  10963     226.4785      0.00000
  10964     226.4870      0.00000
  10965     226.4968      0.00000
  10966     226.5351      0.00000
  10967     226.5423      0.00000
  10968     226.5522      0.00000
  10969     226.5624      0.00000
  10970     226.5740      0.00000
  10971     226.5868      0.00000
  10972     226.6064      0.00000
  10973     226.6211      0.00000
  10974     226.6309      0.00000
  10975     226.6386      0.00000
  10976     226.6537      0.00000
  10977     226.6693      0.00000
  10978     226.6758      0.00000
  10979     226.6945      0.00000
  10980     226.7125      0.00000
  10981     226.7254      0.00000
  10982     226.7378      0.00000
  10983     226.7436      0.00000
  10984     226.7647      0.00000
  10985     226.7692      0.00000
  10986     226.7913      0.00000
  10987     226.8012      0.00000
  10988     226.8197      0.00000
  10989     226.8509      0.00000
  10990     226.8544      0.00000
  10991     226.8697      0.00000
  10992     226.8788      0.00000
  10993     226.9039      0.00000
  10994     226.9202      0.00000
  10995     226.9261      0.00000
  10996     226.9471      0.00000
  10997     226.9514      0.00000
  10998     226.9674      0.00000
  10999     226.9826      0.00000
  11000     226.9968      0.00000
  11001     227.0020      0.00000
  11002     227.0329      0.00000
  11003     227.0500      0.00000
  11004     227.0576      0.00000
  11005     227.0763      0.00000
  11006     227.0818      0.00000
  11007     227.0930      0.00000
  11008     227.1083      0.00000
  11009     227.1170      0.00000
  11010     227.1284      0.00000
  11011     227.1550      0.00000
  11012     227.1663      0.00000
  11013     227.1913      0.00000
  11014     227.2026      0.00000
  11015     227.2105      0.00000
  11016     227.2247      0.00000
  11017     227.2466      0.00000
  11018     227.2528      0.00000
  11019     227.2643      0.00000
  11020     227.2831      0.00000
  11021     227.3018      0.00000
  11022     227.3121      0.00000
  11023     227.3368      0.00000
  11024     227.3419      0.00000
  11025     227.3487      0.00000
  11026     227.3609      0.00000
  11027     227.3883      0.00000
  11028     227.3960      0.00000
  11029     227.4056      0.00000
  11030     227.4183      0.00000
  11031     227.4419      0.00000
  11032     227.4599      0.00000
  11033     227.4699      0.00000
  11034     227.4795      0.00000
  11035     227.4969      0.00000
  11036     227.5075      0.00000
  11037     227.5109      0.00000
  11038     227.5463      0.00000
  11039     227.5613      0.00000
  11040     227.5727      0.00000
  11041     227.5793      0.00000
  11042     227.5898      0.00000
  11043     227.5998      0.00000
  11044     227.6276      0.00000
  11045     227.6363      0.00000
  11046     227.6584      0.00000
  11047     227.6690      0.00000
  11048     227.6951      0.00000
  11049     227.7068      0.00000
  11050     227.7265      0.00000
  11051     227.7289      0.00000
  11052     227.7544      0.00000
  11053     227.7912      0.00000
  11054     227.7988      0.00000
  11055     227.8192      0.00000
  11056     227.8326      0.00000
  11057     227.8472      0.00000
  11058     227.8521      0.00000
  11059     227.8713      0.00000
  11060     227.8971      0.00000
  11061     227.9092      0.00000
  11062     227.9187      0.00000
  11063     227.9450      0.00000
  11064     227.9556      0.00000
  11065     227.9723      0.00000
  11066     228.0092      0.00000
  11067     228.0176      0.00000
  11068     228.0275      0.00000
  11069     228.0550      0.00000
  11070     228.0755      0.00000
  11071     228.0839      0.00000
  11072     228.1036      0.00000
  11073     228.1320      0.00000
  11074     228.1421      0.00000
  11075     228.1560      0.00000
  11076     228.1723      0.00000
  11077     228.1940      0.00000
  11078     228.2048      0.00000
  11079     228.2384      0.00000
  11080     228.2466      0.00000
  11081     228.2626      0.00000
  11082     228.2835      0.00000
  11083     228.2983      0.00000
  11084     228.3105      0.00000
  11085     228.3241      0.00000
  11086     228.3510      0.00000
  11087     228.3640      0.00000
  11088     228.3649      0.00000
  11089     228.3804      0.00000
  11090     228.4195      0.00000
  11091     228.4337      0.00000
  11092     228.4354      0.00000
  11093     228.4551      0.00000
  11094     228.4844      0.00000
  11095     228.5128      0.00000
  11096     228.5398      0.00000
  11097     228.5500      0.00000
  11098     228.5740      0.00000
  11099     228.5807      0.00000
  11100     228.6174      0.00000
  11101     228.6314      0.00000
  11102     228.6421      0.00000
  11103     228.6494      0.00000
  11104     228.6675      0.00000
  11105     228.6888      0.00000
  11106     228.7036      0.00000
  11107     228.7198      0.00000
  11108     228.7422      0.00000
  11109     228.7659      0.00000
  11110     228.7785      0.00000
  11111     228.7951      0.00000
  11112     228.8049      0.00000
  11113     228.8259      0.00000
  11114     228.8410      0.00000
  11115     228.8533      0.00000
  11116     228.8880      0.00000
  11117     228.8984      0.00000
  11118     228.9089      0.00000
  11119     228.9180      0.00000
  11120     228.9329      0.00000
  11121     228.9499      0.00000
  11122     228.9510      0.00000
  11123     228.9804      0.00000
  11124     228.9954      0.00000
  11125     229.0009      0.00000
  11126     229.0107      0.00000
  11127     229.0525      0.00000
  11128     229.0658      0.00000
  11129     229.0690      0.00000
  11130     229.0910      0.00000
  11131     229.1098      0.00000
  11132     229.1334      0.00000
  11133     229.1478      0.00000
  11134     229.1644      0.00000
  11135     229.1752      0.00000
  11136     229.2053      0.00000
  11137     229.2279      0.00000
  11138     229.2524      0.00000
  11139     229.2588      0.00000
  11140     229.2760      0.00000
  11141     229.2870      0.00000
  11142     229.2974      0.00000
  11143     229.3097      0.00000
  11144     229.3221      0.00000
  11145     229.3397      0.00000
  11146     229.3614      0.00000
  11147     229.3692      0.00000
  11148     229.3926      0.00000
  11149     229.4132      0.00000
  11150     229.4256      0.00000
  11151     229.4720      0.00000
  11152     229.4746      0.00000
  11153     229.4929      0.00000
  11154     229.5178      0.00000
  11155     229.5250      0.00000
  11156     229.5340      0.00000
  11157     229.5551      0.00000
  11158     229.5668      0.00000
  11159     229.5792      0.00000
  11160     229.5980      0.00000
  11161     229.6071      0.00000
  11162     229.6395      0.00000
  11163     229.6597      0.00000
  11164     229.6802      0.00000
  11165     229.7091      0.00000
  11166     229.7267      0.00000
  11167     229.7401      0.00000
  11168     229.7576      0.00000
  11169     229.7803      0.00000
  11170     229.7886      0.00000
  11171     229.7947      0.00000
  11172     229.8035      0.00000
  11173     229.8261      0.00000
  11174     229.8556      0.00000
  11175     229.8577      0.00000
  11176     229.8839      0.00000
  11177     229.9001      0.00000
  11178     229.9218      0.00000
  11179     229.9311      0.00000
  11180     229.9563      0.00000
  11181     229.9682      0.00000
  11182     229.9847      0.00000
  11183     229.9975      0.00000
  11184     230.0100      0.00000
  11185     230.0284      0.00000
  11186     230.0531      0.00000
  11187     230.0667      0.00000
  11188     230.0817      0.00000
  11189     230.0944      0.00000
  11190     230.0976      0.00000
  11191     230.1252      0.00000
  11192     230.1515      0.00000
  11193     230.1605      0.00000
  11194     230.1776      0.00000
  11195     230.1815      0.00000
  11196     230.2001      0.00000
  11197     230.2126      0.00000
  11198     230.2275      0.00000
  11199     230.2334      0.00000
  11200     230.2607      0.00000
  11201     230.2663      0.00000
  11202     230.2979      0.00000
  11203     230.3211      0.00000
  11204     230.3312      0.00000
  11205     230.3463      0.00000
  11206     230.3622      0.00000
  11207     230.3656      0.00000
  11208     230.3682      0.00000
  11209     230.4101      0.00000
  11210     230.4158      0.00000
  11211     230.4217      0.00000
  11212     230.4374      0.00000
  11213     230.4591      0.00000
  11214     230.4751      0.00000
  11215     230.4979      0.00000
  11216     230.5079      0.00000
  11217     230.5175      0.00000
  11218     230.5428      0.00000
  11219     230.5691      0.00000
  11220     230.5931      0.00000
  11221     230.5965      0.00000
  11222     230.6047      0.00000
  11223     230.6262      0.00000
  11224     230.6361      0.00000
  11225     230.6449      0.00000
  11226     230.6629      0.00000
  11227     230.6785      0.00000
  11228     230.7010      0.00000
  11229     230.7135      0.00000
  11230     230.7288      0.00000
  11231     230.7308      0.00000
  11232     230.7538      0.00000
  11233     230.7588      0.00000
  11234     230.7769      0.00000
  11235     230.7859      0.00000
  11236     230.8069      0.00000
  11237     230.8135      0.00000
  11238     230.8316      0.00000
  11239     230.8417      0.00000
  11240     230.8517      0.00000
  11241     230.8693      0.00000
  11242     230.8842      0.00000
  11243     230.8868      0.00000
  11244     230.9073      0.00000
  11245     230.9108      0.00000
  11246     230.9232      0.00000
  11247     230.9432      0.00000
  11248     230.9743      0.00000
  11249     230.9780      0.00000
  11250     230.9900      0.00000
  11251     231.0044      0.00000
  11252     231.0286      0.00000
  11253     231.0379      0.00000
  11254     231.0443      0.00000
  11255     231.0648      0.00000
  11256     231.0879      0.00000
  11257     231.1122      0.00000
  11258     231.1184      0.00000
  11259     231.1290      0.00000
  11260     231.1393      0.00000
  11261     231.1652      0.00000
  11262     231.1838      0.00000
  11263     231.1964      0.00000
  11264     231.2041      0.00000
  11265     231.2182      0.00000
  11266     231.2343      0.00000
  11267     231.2475      0.00000
  11268     231.2699      0.00000
  11269     231.2867      0.00000
  11270     231.2964      0.00000
  11271     231.3007      0.00000
  11272     231.3159      0.00000
  11273     231.3277      0.00000
  11274     231.3445      0.00000
  11275     231.3622      0.00000
  11276     231.3699      0.00000
  11277     231.3803      0.00000
  11278     231.3948      0.00000
  11279     231.4059      0.00000
  11280     231.4198      0.00000
  11281     231.4381      0.00000
  11282     231.4513      0.00000
  11283     231.4538      0.00000
  11284     231.4632      0.00000
  11285     231.4822      0.00000
  11286     231.4957      0.00000
  11287     231.5086      0.00000
  11288     231.5217      0.00000
  11289     231.5302      0.00000
  11290     231.5419      0.00000
  11291     231.5520      0.00000
  11292     231.5727      0.00000
  11293     231.5901      0.00000
  11294     231.6085      0.00000
  11295     231.6192      0.00000
  11296     231.6423      0.00000
  11297     231.6468      0.00000
  11298     231.6687      0.00000
  11299     231.6850      0.00000
  11300     231.6935      0.00000
  11301     231.7029      0.00000
  11302     231.7211      0.00000
  11303     231.7365      0.00000
  11304     231.7382      0.00000
  11305     231.7702      0.00000
  11306     231.7753      0.00000
  11307     231.7987      0.00000
  11308     231.8060      0.00000
  11309     231.8244      0.00000
  11310     231.8355      0.00000
  11311     231.8475      0.00000
  11312     231.8584      0.00000
  11313     231.8649      0.00000
  11314     231.8796      0.00000
  11315     231.9044      0.00000
  11316     231.9213      0.00000
  11317     231.9359      0.00000
  11318     231.9629      0.00000
  11319     231.9640      0.00000
  11320     231.9777      0.00000
  11321     231.9897      0.00000
  11322     232.0052      0.00000
  11323     232.0145      0.00000
  11324     232.0332      0.00000
  11325     232.0364      0.00000
  11326     232.0518      0.00000
  11327     232.0783      0.00000
  11328     232.0835      0.00000
  11329     232.0892      0.00000
  11330     232.1153      0.00000
  11331     232.1221      0.00000
  11332     232.1240      0.00000
  11333     232.1549      0.00000
  11334     232.1565      0.00000
  11335     232.1763      0.00000
  11336     232.1934      0.00000
  11337     232.2033      0.00000
  11338     232.2067      0.00000
  11339     232.2347      0.00000
  11340     232.2383      0.00000
  11341     232.2529      0.00000
  11342     232.2588      0.00000
  11343     232.2637      0.00000
  11344     232.2892      0.00000
  11345     232.2995      0.00000
  11346     232.3115      0.00000
  11347     232.3164      0.00000
  11348     232.3279      0.00000
  11349     232.3335      0.00000
  11350     232.3423      0.00000
  11351     232.3638      0.00000
  11352     232.3885      0.00000
  11353     232.4055      0.00000
  11354     232.4141      0.00000
  11355     232.4354      0.00000
  11356     232.4427      0.00000
  11357     232.4662      0.00000
  11358     232.4781      0.00000
  11359     232.4913      0.00000
  11360     232.4950      0.00000
  11361     232.5179      0.00000
  11362     232.5368      0.00000
  11363     232.5403      0.00000
  11364     232.5526      0.00000
  11365     232.5722      0.00000
  11366     232.5832      0.00000
  11367     232.5938      0.00000
  11368     232.6021      0.00000
  11369     232.6279      0.00000
  11370     232.6329      0.00000
  11371     232.6494      0.00000
  11372     232.6628      0.00000
  11373     232.6737      0.00000
  11374     232.6786      0.00000
  11375     232.7018      0.00000
  11376     232.7131      0.00000
  11377     232.7228      0.00000
  11378     232.7374      0.00000
  11379     232.7411      0.00000
  11380     232.7588      0.00000
  11381     232.7750      0.00000
  11382     232.8094      0.00000
  11383     232.8176      0.00000
  11384     232.8228      0.00000
  11385     232.8305      0.00000
  11386     232.8578      0.00000
  11387     232.8685      0.00000
  11388     232.8832      0.00000
  11389     232.9092      0.00000
  11390     232.9156      0.00000
  11391     232.9265      0.00000
  11392     232.9441      0.00000
  11393     232.9499      0.00000
  11394     232.9649      0.00000
  11395     232.9710      0.00000
  11396     233.0016      0.00000
  11397     233.0125      0.00000
  11398     233.0297      0.00000
  11399     233.0448      0.00000
  11400     233.0556      0.00000
  11401     233.0609      0.00000
  11402     233.0844      0.00000
  11403     233.0949      0.00000
  11404     233.1051      0.00000
  11405     233.1090      0.00000
  11406     233.1278      0.00000
  11407     233.1394      0.00000
  11408     233.1496      0.00000
  11409     233.1606      0.00000
  11410     233.1664      0.00000
  11411     233.1790      0.00000
  11412     233.2016      0.00000
  11413     233.2035      0.00000
  11414     233.2111      0.00000
  11415     233.2356      0.00000
  11416     233.2496      0.00000
  11417     233.2724      0.00000
  11418     233.2793      0.00000
  11419     233.2952      0.00000
  11420     233.3119      0.00000
  11421     233.3248      0.00000
  11422     233.3329      0.00000
  11423     233.3508      0.00000
  11424     233.3636      0.00000
  11425     233.3672      0.00000
  11426     233.3879      0.00000
  11427     233.4026      0.00000
  11428     233.4107      0.00000
  11429     233.4437      0.00000
  11430     233.4540      0.00000
  11431     233.4720      0.00000
  11432     233.4953      0.00000
  11433     233.5008      0.00000
  11434     233.5157      0.00000
  11435     233.5298      0.00000
  11436     233.5551      0.00000
  11437     233.5715      0.00000
  11438     233.5744      0.00000
  11439     233.5857      0.00000
  11440     233.5917      0.00000
  11441     233.6175      0.00000
  11442     233.6275      0.00000
  11443     233.6471      0.00000
  11444     233.6752      0.00000
  11445     233.7015      0.00000
  11446     233.7056      0.00000
  11447     233.7124      0.00000
  11448     233.7404      0.00000
  11449     233.7524      0.00000
  11450     233.7559      0.00000
  11451     233.7727      0.00000
  11452     233.7895      0.00000
  11453     233.8005      0.00000
  11454     233.8244      0.00000
  11455     233.8278      0.00000
  11456     233.8395      0.00000
  11457     233.8619      0.00000
  11458     233.8785      0.00000
  11459     233.8969      0.00000
  11460     233.9200      0.00000
  11461     233.9305      0.00000
  11462     233.9474      0.00000
  11463     233.9634      0.00000
  11464     233.9693      0.00000
  11465     233.9951      0.00000
  11466     234.0089      0.00000
  11467     234.0184      0.00000
  11468     234.0435      0.00000
  11469     234.0447      0.00000
  11470     234.0703      0.00000
  11471     234.0779      0.00000
  11472     234.0848      0.00000
  11473     234.0922      0.00000
  11474     234.1198      0.00000
  11475     234.1414      0.00000
  11476     234.1513      0.00000
  11477     234.1736      0.00000
  11478     234.1872      0.00000
  11479     234.1973      0.00000
  11480     234.2244      0.00000
  11481     234.2305      0.00000
  11482     234.2518      0.00000
  11483     234.2621      0.00000
  11484     234.2759      0.00000
  11485     234.2832      0.00000
  11486     234.3061      0.00000
  11487     234.3133      0.00000
  11488     234.3332      0.00000
  11489     234.3519      0.00000
  11490     234.3590      0.00000
  11491     234.3714      0.00000
  11492     234.3913      0.00000
  11493     234.4070      0.00000
  11494     234.4138      0.00000
  11495     234.4231      0.00000
  11496     234.4315      0.00000
  11497     234.4517      0.00000
  11498     234.4654      0.00000
  11499     234.5026      0.00000
  11500     234.5121      0.00000
  11501     234.5167      0.00000
  11502     234.5513      0.00000
  11503     234.5589      0.00000
  11504     234.5642      0.00000
  11505     234.5748      0.00000
  11506     234.5866      0.00000
  11507     234.5984      0.00000
  11508     234.6265      0.00000
  11509     234.6392      0.00000
  11510     234.6478      0.00000
  11511     234.6738      0.00000
  11512     234.6911      0.00000
  11513     234.7022      0.00000
  11514     234.7081      0.00000
  11515     234.7183      0.00000
  11516     234.7359      0.00000
  11517     234.7507      0.00000
  11518     234.7576      0.00000
  11519     234.7726      0.00000
  11520     234.7834      0.00000
  11521     234.8065      0.00000
  11522     234.8191      0.00000
  11523     234.8449      0.00000
  11524     234.8497      0.00000
  11525     234.8561      0.00000
  11526     234.8846      0.00000
  11527     234.8914      0.00000
  11528     234.8946      0.00000
  11529     234.9358      0.00000
  11530     234.9394      0.00000
  11531     234.9505      0.00000
  11532     234.9622      0.00000
  11533     234.9660      0.00000
  11534     235.0095      0.00000
  11535     235.0163      0.00000
  11536     235.0257      0.00000
  11537     235.0447      0.00000
  11538     235.0578      0.00000
  11539     235.0738      0.00000
  11540     235.0768      0.00000
  11541     235.0888      0.00000
  11542     235.1073      0.00000
  11543     235.1158      0.00000
  11544     235.1334      0.00000
  11545     235.1458      0.00000
  11546     235.1669      0.00000
  11547     235.1720      0.00000
  11548     235.1784      0.00000
  11549     235.1856      0.00000
  11550     235.1994      0.00000
  11551     235.2149      0.00000
  11552     235.2301      0.00000
  11553     235.2410      0.00000
  11554     235.2579      0.00000
  11555     235.2716      0.00000
  11556     235.2887      0.00000
  11557     235.3049      0.00000
  11558     235.3269      0.00000
  11559     235.3376      0.00000
  11560     235.3462      0.00000
  11561     235.3471      0.00000
  11562     235.3747      0.00000
  11563     235.4088      0.00000
  11564     235.4118      0.00000
  11565     235.4207      0.00000
  11566     235.4345      0.00000
  11567     235.4513      0.00000
  11568     235.4733      0.00000
  11569     235.4879      0.00000
  11570     235.5026      0.00000
  11571     235.5186      0.00000
  11572     235.5251      0.00000
  11573     235.5335      0.00000
  11574     235.5402      0.00000
  11575     235.5635      0.00000
  11576     235.5729      0.00000
  11577     235.5871      0.00000
  11578     235.5966      0.00000
  11579     235.6077      0.00000
  11580     235.6287      0.00000
  11581     235.6291      0.00000
  11582     235.6480      0.00000
  11583     235.6545      0.00000
  11584     235.6605      0.00000
  11585     235.6754      0.00000
  11586     235.7041      0.00000
  11587     235.7151      0.00000
  11588     235.7282      0.00000
  11589     235.7572      0.00000
  11590     235.7684      0.00000
  11591     235.7745      0.00000
  11592     235.7825      0.00000
  11593     235.7956      0.00000
  11594     235.8102      0.00000
  11595     235.8279      0.00000
  11596     235.8559      0.00000
  11597     235.8645      0.00000
  11598     235.8875      0.00000
  11599     235.8991      0.00000
  11600     235.9070      0.00000
  11601     235.9196      0.00000
  11602     235.9316      0.00000
  11603     235.9478      0.00000
  11604     235.9623      0.00000
  11605     235.9711      0.00000
  11606     235.9814      0.00000
  11607     235.9914      0.00000
  11608     236.0056      0.00000
  11609     236.0136      0.00000
  11610     236.0275      0.00000
  11611     236.0503      0.00000
  11612     236.0614      0.00000
  11613     236.0695      0.00000
  11614     236.0876      0.00000
  11615     236.0898      0.00000
  11616     236.1017      0.00000
  11617     236.1104      0.00000
  11618     236.1124      0.00000
  11619     236.1338      0.00000
  11620     236.1444      0.00000
  11621     236.1658      0.00000
  11622     236.1775      0.00000
  11623     236.2001      0.00000
  11624     236.2080      0.00000
  11625     236.2264      0.00000
  11626     236.2378      0.00000
  11627     236.2428      0.00000
  11628     236.2751      0.00000
  11629     236.2765      0.00000
  11630     236.2892      0.00000
  11631     236.3137      0.00000
  11632     236.3256      0.00000
  11633     236.3373      0.00000
  11634     236.3437      0.00000
  11635     236.3570      0.00000
  11636     236.3793      0.00000
  11637     236.3952      0.00000
  11638     236.4112      0.00000
  11639     236.4193      0.00000
  11640     236.4235      0.00000
  11641     236.4429      0.00000
  11642     236.4614      0.00000
  11643     236.4734      0.00000
  11644     236.5052      0.00000
  11645     236.5109      0.00000
  11646     236.5346      0.00000
  11647     236.5423      0.00000
  11648     236.5562      0.00000
  11649     236.5697      0.00000
  11650     236.5850      0.00000
  11651     236.5933      0.00000
  11652     236.6082      0.00000
  11653     236.6299      0.00000
  11654     236.6333      0.00000
  11655     236.6497      0.00000
  11656     236.6526      0.00000
  11657     236.6660      0.00000
  11658     236.6751      0.00000
  11659     236.6908      0.00000
  11660     236.7023      0.00000
  11661     236.7228      0.00000
  11662     236.7471      0.00000
  11663     236.7561      0.00000
  11664     236.7616      0.00000
  11665     236.7822      0.00000
  11666     236.7900      0.00000
  11667     236.8142      0.00000
  11668     236.8180      0.00000
  11669     236.8277      0.00000
  11670     236.8392      0.00000
  11671     236.8623      0.00000
  11672     236.8731      0.00000
  11673     236.8764      0.00000
  11674     236.9000      0.00000
  11675     236.9129      0.00000
  11676     236.9277      0.00000
  11677     236.9471      0.00000
  11678     236.9529      0.00000
  11679     236.9607      0.00000
  11680     236.9817      0.00000
  11681     237.0031      0.00000
  11682     237.0154      0.00000
  11683     237.0372      0.00000
  11684     237.0413      0.00000
  11685     237.0559      0.00000
  11686     237.0667      0.00000
  11687     237.0803      0.00000
  11688     237.0895      0.00000
  11689     237.0977      0.00000
  11690     237.1055      0.00000
  11691     237.1246      0.00000
  11692     237.1389      0.00000
  11693     237.1511      0.00000
  11694     237.1649      0.00000
  11695     237.1811      0.00000
  11696     237.1911      0.00000
  11697     237.2205      0.00000
  11698     237.2233      0.00000
  11699     237.2313      0.00000
  11700     237.2496      0.00000
  11701     237.2515      0.00000
  11702     237.2597      0.00000
  11703     237.2779      0.00000
  11704     237.2800      0.00000
  11705     237.2997      0.00000
  11706     237.3209      0.00000
  11707     237.3318      0.00000
  11708     237.3421      0.00000
  11709     237.3551      0.00000
  11710     237.3651      0.00000
  11711     237.3751      0.00000
  11712     237.3888      0.00000
  11713     237.3989      0.00000
  11714     237.4013      0.00000
  11715     237.4134      0.00000
  11716     237.4291      0.00000
  11717     237.4652      0.00000
  11718     237.4800      0.00000
  11719     237.4851      0.00000
  11720     237.4991      0.00000
  11721     237.5081      0.00000
  11722     237.5159      0.00000
  11723     237.5322      0.00000
  11724     237.5480      0.00000
  11725     237.5765      0.00000
  11726     237.5806      0.00000
  11727     237.6014      0.00000
  11728     237.6050      0.00000
  11729     237.6195      0.00000
  11730     237.6308      0.00000
  11731     237.6425      0.00000
  11732     237.6516      0.00000
  11733     237.6609      0.00000
  11734     237.6699      0.00000
  11735     237.6884      0.00000
  11736     237.6969      0.00000
  11737     237.7194      0.00000
  11738     237.7292      0.00000
  11739     237.7392      0.00000
  11740     237.7437      0.00000
  11741     237.7536      0.00000
  11742     237.7748      0.00000
  11743     237.7865      0.00000
  11744     237.7941      0.00000
  11745     237.7965      0.00000
  11746     237.8202      0.00000
  11747     237.8311      0.00000
  11748     237.8625      0.00000
  11749     237.8656      0.00000
  11750     237.8838      0.00000
  11751     237.8894      0.00000
  11752     237.8978      0.00000
  11753     237.9016      0.00000
  11754     237.9236      0.00000
  11755     237.9314      0.00000
  11756     237.9513      0.00000
  11757     237.9659      0.00000
  11758     237.9748      0.00000
  11759     237.9938      0.00000
  11760     238.0068      0.00000
  11761     238.0082      0.00000
  11762     238.0170      0.00000
  11763     238.0372      0.00000
  11764     238.0524      0.00000
  11765     238.0748      0.00000
  11766     238.0798      0.00000
  11767     238.0885      0.00000
  11768     238.1027      0.00000
  11769     238.1155      0.00000
  11770     238.1328      0.00000
  11771     238.1488      0.00000
  11772     238.1564      0.00000
  11773     238.1679      0.00000
  11774     238.1696      0.00000
  11775     238.2063      0.00000
  11776     238.2085      0.00000
  11777     238.2143      0.00000
  11778     238.2416      0.00000
  11779     238.2486      0.00000
  11780     238.2609      0.00000
  11781     238.2778      0.00000
  11782     238.2828      0.00000
  11783     238.2874      0.00000
  11784     238.3092      0.00000
  11785     238.3273      0.00000
  11786     238.3368      0.00000
  11787     238.3433      0.00000
  11788     238.3609      0.00000
  11789     238.3690      0.00000
  11790     238.3758      0.00000
  11791     238.3963      0.00000
  11792     238.4069      0.00000
  11793     238.4253      0.00000
  11794     238.4370      0.00000
  11795     238.4478      0.00000
  11796     238.4531      0.00000
  11797     238.4618      0.00000
  11798     238.4852      0.00000
  11799     238.4965      0.00000
  11800     238.5021      0.00000
  11801     238.5073      0.00000
  11802     238.5298      0.00000
  11803     238.5420      0.00000
  11804     238.5559      0.00000
  11805     238.5673      0.00000
  11806     238.5761      0.00000
  11807     238.5825      0.00000
  11808     238.5950      0.00000
  11809     238.6025      0.00000
  11810     238.6226      0.00000
  11811     238.6243      0.00000
  11812     238.6261      0.00000
  11813     238.6544      0.00000
  11814     238.6693      0.00000
  11815     238.6803      0.00000
  11816     238.6946      0.00000
  11817     238.7095      0.00000
  11818     238.7189      0.00000
  11819     238.7362      0.00000
  11820     238.7428      0.00000
  11821     238.7572      0.00000
  11822     238.7709      0.00000
  11823     238.7931      0.00000
  11824     238.7989      0.00000
  11825     238.8043      0.00000
  11826     238.8132      0.00000
  11827     238.8185      0.00000
  11828     238.8279      0.00000
  11829     238.8469      0.00000
  11830     238.8669      0.00000
  11831     238.8760      0.00000
  11832     238.8855      0.00000
  11833     238.9088      0.00000
  11834     238.9120      0.00000
  11835     238.9381      0.00000
  11836     238.9410      0.00000
  11837     238.9527      0.00000
  11838     238.9656      0.00000
  11839     238.9706      0.00000
  11840     238.9874      0.00000
  11841     239.0047      0.00000
  11842     239.0250      0.00000
  11843     239.0403      0.00000
  11844     239.0450      0.00000
  11845     239.0492      0.00000
  11846     239.0750      0.00000
  11847     239.0816      0.00000
  11848     239.0972      0.00000
  11849     239.1126      0.00000
  11850     239.1209      0.00000
  11851     239.1321      0.00000
  11852     239.1498      0.00000
  11853     239.1531      0.00000
  11854     239.1615      0.00000
  11855     239.1731      0.00000
  11856     239.1923      0.00000
  11857     239.1977      0.00000
  11858     239.2146      0.00000
  11859     239.2290      0.00000
  11860     239.2431      0.00000
  11861     239.2504      0.00000
  11862     239.2713      0.00000
  11863     239.2801      0.00000
  11864     239.2818      0.00000
  11865     239.2981      0.00000
  11866     239.3195      0.00000
  11867     239.3245      0.00000
  11868     239.3286      0.00000
  11869     239.3335      0.00000
  11870     239.3583      0.00000
  11871     239.3727      0.00000
  11872     239.3807      0.00000
  11873     239.3842      0.00000
  11874     239.4011      0.00000
  11875     239.4073      0.00000
  11876     239.4231      0.00000
  11877     239.4280      0.00000
  11878     239.4354      0.00000
  11879     239.4642      0.00000
  11880     239.4689      0.00000
  11881     239.4824      0.00000
  11882     239.5000      0.00000
  11883     239.5121      0.00000
  11884     239.5205      0.00000
  11885     239.5366      0.00000
  11886     239.5498      0.00000
  11887     239.5555      0.00000
  11888     239.5631      0.00000
  11889     239.5834      0.00000
  11890     239.5971      0.00000
  11891     239.6051      0.00000
  11892     239.6230      0.00000
  11893     239.6305      0.00000
  11894     239.6390      0.00000
  11895     239.6451      0.00000
  11896     239.6671      0.00000
  11897     239.6718      0.00000
  11898     239.6914      0.00000
  11899     239.6939      0.00000
  11900     239.7048      0.00000
  11901     239.7187      0.00000
  11902     239.7280      0.00000
  11903     239.7436      0.00000
  11904     239.7453      0.00000
  11905     239.7769      0.00000
  11906     239.7839      0.00000
  11907     239.7961      0.00000
  11908     239.8067      0.00000
  11909     239.8210      0.00000
  11910     239.8307      0.00000
  11911     239.8445      0.00000
  11912     239.8467      0.00000
  11913     239.8632      0.00000
  11914     239.8903      0.00000
  11915     239.8974      0.00000
  11916     239.8992      0.00000
  11917     239.9131      0.00000
  11918     239.9260      0.00000
  11919     239.9452      0.00000
  11920     239.9652      0.00000
  11921     239.9736      0.00000
  11922     239.9935      0.00000
  11923     240.0156      0.00000
  11924     240.0212      0.00000
  11925     240.0326      0.00000
  11926     240.0386      0.00000
  11927     240.0458      0.00000
  11928     240.0631      0.00000
  11929     240.0797      0.00000
  11930     240.0926      0.00000
  11931     240.1025      0.00000
  11932     240.1113      0.00000
  11933     240.1229      0.00000
  11934     240.1344      0.00000
  11935     240.1424      0.00000
  11936     240.1544      0.00000
  11937     240.1586      0.00000
  11938     240.1811      0.00000
  11939     240.1886      0.00000
  11940     240.2033      0.00000
  11941     240.2099      0.00000
  11942     240.2271      0.00000
  11943     240.2417      0.00000
  11944     240.2573      0.00000
  11945     240.2589      0.00000
  11946     240.2687      0.00000
  11947     240.2843      0.00000
  11948     240.2981      0.00000
  11949     240.3048      0.00000
  11950     240.3198      0.00000
  11951     240.3509      0.00000
  11952     240.3567      0.00000
  11953     240.3631      0.00000
  11954     240.3741      0.00000
  11955     240.3830      0.00000
  11956     240.3953      0.00000
  11957     240.4104      0.00000
  11958     240.4206      0.00000
  11959     240.4344      0.00000
  11960     240.4435      0.00000
  11961     240.4669      0.00000
  11962     240.4765      0.00000
  11963     240.4814      0.00000
  11964     240.4890      0.00000
  11965     240.5113      0.00000
  11966     240.5269      0.00000
  11967     240.5408      0.00000
  11968     240.5545      0.00000
  11969     240.5680      0.00000
  11970     240.5826      0.00000
  11971     240.5963      0.00000
  11972     240.6000      0.00000
  11973     240.6188      0.00000
  11974     240.6333      0.00000
  11975     240.6414      0.00000
  11976     240.6475      0.00000
  11977     240.6594      0.00000
  11978     240.6634      0.00000
  11979     240.6827      0.00000
  11980     240.6942      0.00000
  11981     240.7049      0.00000
  11982     240.7173      0.00000
  11983     240.7294      0.00000
  11984     240.7359      0.00000
  11985     240.7606      0.00000
  11986     240.7646      0.00000
  11987     240.7824      0.00000
  11988     240.7923      0.00000
  11989     240.8100      0.00000
  11990     240.8347      0.00000
  11991     240.8374      0.00000
  11992     240.8475      0.00000
  11993     240.8670      0.00000
  11994     240.8749      0.00000
  11995     240.8793      0.00000
  11996     240.9055      0.00000
  11997     240.9106      0.00000
  11998     240.9202      0.00000
  11999     240.9226      0.00000
  12000     240.9351      0.00000
  12001     240.9605      0.00000
  12002     240.9784      0.00000
  12003     240.9978      0.00000
  12004     241.0039      0.00000
  12005     241.0158      0.00000
  12006     241.0230      0.00000
  12007     241.0283      0.00000
  12008     241.0378      0.00000
  12009     241.0626      0.00000
  12010     241.0706      0.00000
  12011     241.0802      0.00000
  12012     241.0967      0.00000
  12013     241.1025      0.00000
  12014     241.1186      0.00000
  12015     241.1381      0.00000
  12016     241.1474      0.00000
  12017     241.1677      0.00000
  12018     241.1708      0.00000
  12019     241.1853      0.00000
  12020     241.2005      0.00000
  12021     241.2048      0.00000
  12022     241.2236      0.00000
  12023     241.2324      0.00000
  12024     241.2368      0.00000
  12025     241.2458      0.00000
  12026     241.2644      0.00000
  12027     241.2660      0.00000
  12028     241.2872      0.00000
  12029     241.3044      0.00000
  12030     241.3105      0.00000
  12031     241.3170      0.00000
  12032     241.3319      0.00000
  12033     241.3352      0.00000
  12034     241.3652      0.00000
  12035     241.3678      0.00000
  12036     241.3872      0.00000
  12037     241.3904      0.00000
  12038     241.4158      0.00000
  12039     241.4344      0.00000
  12040     241.4395      0.00000
  12041     241.4519      0.00000
  12042     241.4644      0.00000
  12043     241.4706      0.00000
  12044     241.4865      0.00000
  12045     241.5066      0.00000
  12046     241.5208      0.00000
  12047     241.5386      0.00000
  12048     241.5546      0.00000
  12049     241.5613      0.00000
  12050     241.5788      0.00000
  12051     241.5851      0.00000
  12052     241.5955      0.00000
  12053     241.6111      0.00000
  12054     241.6216      0.00000
  12055     241.6332      0.00000
  12056     241.6412      0.00000
  12057     241.6449      0.00000
  12058     241.6557      0.00000
  12059     241.6609      0.00000
  12060     241.6864      0.00000
  12061     241.7056      0.00000
  12062     241.7318      0.00000
  12063     241.7423      0.00000
  12064     241.7444      0.00000
  12065     241.7540      0.00000
  12066     241.7719      0.00000
  12067     241.7771      0.00000
  12068     241.7867      0.00000
  12069     241.7951      0.00000
  12070     241.8038      0.00000
  12071     241.8179      0.00000
  12072     241.8333      0.00000
  12073     241.8431      0.00000
  12074     241.8470      0.00000
  12075     241.8547      0.00000
  12076     241.8890      0.00000
  12077     241.9005      0.00000
  12078     241.9109      0.00000
  12079     241.9204      0.00000
  12080     241.9404      0.00000
  12081     241.9461      0.00000
  12082     241.9552      0.00000
  12083     241.9632      0.00000
  12084     241.9689      0.00000
  12085     241.9876      0.00000
  12086     241.9981      0.00000
  12087     242.0392      0.00000
  12088     242.0449      0.00000
  12089     242.0514      0.00000
  12090     242.0682      0.00000
  12091     242.0758      0.00000
  12092     242.0891      0.00000
  12093     242.0982      0.00000
  12094     242.1125      0.00000
  12095     242.1213      0.00000
  12096     242.1333      0.00000
  12097     242.1518      0.00000
  12098     242.1629      0.00000
  12099     242.1731      0.00000
  12100     242.1961      0.00000
  12101     242.2057      0.00000
  12102     242.2386      0.00000
  12103     242.2420      0.00000
  12104     242.2514      0.00000
  12105     242.2576      0.00000
  12106     242.2634      0.00000
  12107     242.2924      0.00000
  12108     242.3163      0.00000
  12109     242.3179      0.00000
  12110     242.3353      0.00000
  12111     242.3466      0.00000
  12112     242.3610      0.00000
  12113     242.3812      0.00000
  12114     242.3859      0.00000
  12115     242.3968      0.00000
  12116     242.4250      0.00000
  12117     242.4396      0.00000
  12118     242.4483      0.00000
  12119     242.4584      0.00000
  12120     242.4813      0.00000
  12121     242.4875      0.00000
  12122     242.5048      0.00000
  12123     242.5320      0.00000
  12124     242.5368      0.00000
  12125     242.5537      0.00000
  12126     242.5719      0.00000
  12127     242.5785      0.00000
  12128     242.5919      0.00000
  12129     242.6120      0.00000
  12130     242.6393      0.00000
  12131     242.6479      0.00000
  12132     242.6558      0.00000
  12133     242.6663      0.00000
  12134     242.6877      0.00000
  12135     242.7102      0.00000
  12136     242.7214      0.00000
  12137     242.7233      0.00000
  12138     242.7390      0.00000
  12139     242.7468      0.00000
  12140     242.7606      0.00000
  12141     242.7684      0.00000
  12142     242.7738      0.00000
  12143     242.7865      0.00000
  12144     242.8264      0.00000
  12145     242.8406      0.00000
  12146     242.8510      0.00000
  12147     242.8776      0.00000
  12148     242.9035      0.00000
  12149     242.9114      0.00000
  12150     242.9217      0.00000
  12151     242.9423      0.00000
  12152     242.9478      0.00000
  12153     242.9614      0.00000
  12154     242.9755      0.00000
  12155     242.9901      0.00000
  12156     242.9981      0.00000
  12157     243.0075      0.00000
  12158     243.0157      0.00000
  12159     243.0382      0.00000
  12160     243.0599      0.00000
  12161     243.0758      0.00000
  12162     243.0992      0.00000
  12163     243.1080      0.00000
  12164     243.1362      0.00000
  12165     243.1549      0.00000
  12166     243.1619      0.00000
  12167     243.1768      0.00000
  12168     243.2028      0.00000
  12169     243.2063      0.00000
  12170     243.2167      0.00000
  12171     243.2416      0.00000
  12172     243.2560      0.00000
  12173     243.2601      0.00000
  12174     243.2724      0.00000
  12175     243.2747      0.00000
  12176     243.3028      0.00000
  12177     243.3181      0.00000
  12178     243.3317      0.00000
  12179     243.3512      0.00000
  12180     243.3656      0.00000
  12181     243.3754      0.00000
  12182     243.3854      0.00000
  12183     243.4083      0.00000
  12184     243.4395      0.00000
  12185     243.4523      0.00000
  12186     243.4582      0.00000
  12187     243.4977      0.00000
  12188     243.5098      0.00000
  12189     243.5331      0.00000
  12190     243.5404      0.00000
  12191     243.5620      0.00000
  12192     243.5629      0.00000
  12193     243.5841      0.00000
  12194     243.6018      0.00000
  12195     243.6169      0.00000
  12196     243.6232      0.00000
  12197     243.6591      0.00000
  12198     243.6735      0.00000
  12199     243.6817      0.00000
  12200     243.6846      0.00000
  12201     243.7181      0.00000
  12202     243.7542      0.00000
  12203     243.7598      0.00000
  12204     243.7674      0.00000
  12205     243.7793      0.00000
  12206     243.7877      0.00000
  12207     243.8294      0.00000
  12208     243.8418      0.00000
  12209     243.8578      0.00000
  12210     243.8657      0.00000
  12211     243.9044      0.00000
  12212     243.9207      0.00000
  12213     243.9348      0.00000
  12214     243.9612      0.00000
  12215     243.9861      0.00000
  12216     243.9938      0.00000
  12217     244.0139      0.00000
  12218     244.0264      0.00000
  12219     244.0441      0.00000
  12220     244.0531      0.00000
  12221     244.0942      0.00000
  12222     244.1005      0.00000
  12223     244.1184      0.00000
  12224     244.1370      0.00000
  12225     244.1510      0.00000
  12226     244.1647      0.00000
  12227     244.1689      0.00000
  12228     244.1882      0.00000
  12229     244.1955      0.00000
  12230     244.2229      0.00000
  12231     244.2345      0.00000
  12232     244.2479      0.00000
  12233     244.2510      0.00000
  12234     244.2867      0.00000
  12235     244.2908      0.00000
  12236     244.3165      0.00000
  12237     244.3500      0.00000
  12238     244.3559      0.00000
  12239     244.3742      0.00000
  12240     244.3926      0.00000
  12241     244.4092      0.00000
  12242     244.4126      0.00000
  12243     244.4258      0.00000
  12244     244.4463      0.00000
  12245     244.4751      0.00000
  12246     244.4898      0.00000
  12247     244.5094      0.00000
  12248     244.5191      0.00000
  12249     244.5328      0.00000
  12250     244.5410      0.00000
  12251     244.5636      0.00000
  12252     244.5817      0.00000
  12253     244.5972      0.00000
  12254     244.6169      0.00000
  12255     244.6262      0.00000
  12256     244.6381      0.00000
  12257     244.6549      0.00000
  12258     244.6680      0.00000
  12259     244.7040      0.00000
  12260     244.7081      0.00000
  12261     244.7208      0.00000
  12262     244.7338      0.00000
  12263     244.7434      0.00000
  12264     244.7590      0.00000
  12265     244.7867      0.00000
  12266     244.8046      0.00000
  12267     244.8188      0.00000
  12268     244.8321      0.00000
  12269     244.8439      0.00000
  12270     244.8680      0.00000
  12271     244.8846      0.00000
  12272     244.8950      0.00000
  12273     244.9020      0.00000
  12274     244.9276      0.00000
  12275     244.9304      0.00000
  12276     244.9514      0.00000
  12277     244.9654      0.00000
  12278     244.9890      0.00000
  12279     244.9968      0.00000
  12280     245.0004      0.00000
  12281     245.0163      0.00000
  12282     245.0301      0.00000
  12283     245.0569      0.00000
  12284     245.0642      0.00000
  12285     245.0722      0.00000
  12286     245.0931      0.00000
  12287     245.1110      0.00000
  12288     245.1244      0.00000
  12289     245.1453      0.00000
  12290     245.1612      0.00000
  12291     245.1702      0.00000
  12292     245.1930      0.00000
  12293     245.2022      0.00000
  12294     245.2138      0.00000
  12295     245.2246      0.00000
  12296     245.2436      0.00000
  12297     245.2551      0.00000
  12298     245.2716      0.00000
  12299     245.2909      0.00000
  12300     245.2992      0.00000
  12301     245.3083      0.00000
  12302     245.3257      0.00000
  12303     245.3407      0.00000
  12304     245.3456      0.00000
  12305     245.3650      0.00000
  12306     245.3722      0.00000
  12307     245.3797      0.00000
  12308     245.3907      0.00000
  12309     245.4141      0.00000
  12310     245.4231      0.00000
  12311     245.4245      0.00000
  12312     245.4529      0.00000
  12313     245.4703      0.00000
  12314     245.4831      0.00000
  12315     245.4989      0.00000
  12316     245.5104      0.00000
  12317     245.5340      0.00000
  12318     245.5452      0.00000
  12319     245.5650      0.00000
  12320     245.5850      0.00000
  12321     245.5912      0.00000
  12322     245.5990      0.00000
  12323     245.6149      0.00000
  12324     245.6279      0.00000
  12325     245.6404      0.00000
  12326     245.6582      0.00000
  12327     245.6700      0.00000
  12328     245.6805      0.00000
  12329     245.7045      0.00000
  12330     245.7178      0.00000
  12331     245.7374      0.00000
  12332     245.7559      0.00000
  12333     245.7717      0.00000
  12334     245.7814      0.00000
  12335     245.7944      0.00000
  12336     245.8125      0.00000
  12337     245.8135      0.00000
  12338     245.8230      0.00000
  12339     245.8316      0.00000
  12340     245.8505      0.00000
  12341     245.8594      0.00000
  12342     245.8734      0.00000
  12343     245.8925      0.00000
  12344     245.9111      0.00000
  12345     245.9175      0.00000
  12346     245.9315      0.00000
  12347     245.9521      0.00000
  12348     245.9649      0.00000
  12349     245.9750      0.00000
  12350     245.9936      0.00000
  12351     246.0097      0.00000
  12352     246.0263      0.00000
  12353     246.0418      0.00000
  12354     246.0667      0.00000
  12355     246.0682      0.00000
  12356     246.0813      0.00000
  12357     246.1070      0.00000
  12358     246.1301      0.00000
  12359     246.1385      0.00000
  12360     246.1509      0.00000
  12361     246.1517      0.00000
  12362     246.1746      0.00000
  12363     246.1817      0.00000
  12364     246.1997      0.00000
  12365     246.2334      0.00000
  12366     246.2385      0.00000
  12367     246.2484      0.00000
  12368     246.2623      0.00000
  12369     246.2721      0.00000
  12370     246.2959      0.00000
  12371     246.3066      0.00000
  12372     246.3199      0.00000
  12373     246.3322      0.00000
  12374     246.3650      0.00000
  12375     246.3700      0.00000
  12376     246.3947      0.00000
  12377     246.4081      0.00000
  12378     246.4131      0.00000
  12379     246.4291      0.00000
  12380     246.4469      0.00000
  12381     246.4670      0.00000
  12382     246.4870      0.00000
  12383     246.4984      0.00000
  12384     246.5150      0.00000
  12385     246.5213      0.00000
  12386     246.5366      0.00000
  12387     246.5416      0.00000
  12388     246.5649      0.00000
  12389     246.5720      0.00000
  12390     246.5809      0.00000
  12391     246.6075      0.00000
  12392     246.6236      0.00000
  12393     246.6254      0.00000
  12394     246.6325      0.00000
  12395     246.6534      0.00000
  12396     246.6674      0.00000
  12397     246.6830      0.00000
  12398     246.6891      0.00000
  12399     246.7084      0.00000
  12400     246.7217      0.00000
  12401     246.7446      0.00000
  12402     246.7546      0.00000
  12403     246.7570      0.00000
  12404     246.7650      0.00000
  12405     246.7974      0.00000
  12406     246.8115      0.00000
  12407     246.8254      0.00000
  12408     246.8356      0.00000
  12409     246.8625      0.00000
  12410     246.8765      0.00000
  12411     246.8876      0.00000
  12412     246.9063      0.00000
  12413     246.9244      0.00000
  12414     246.9313      0.00000
  12415     246.9468      0.00000
  12416     246.9532      0.00000
  12417     246.9727      0.00000
  12418     246.9817      0.00000
  12419     247.0028      0.00000
  12420     247.0032      0.00000
  12421     247.0337      0.00000
  12422     247.0525      0.00000
  12423     247.0760      0.00000
  12424     247.0938      0.00000
  12425     247.1145      0.00000
  12426     247.1186      0.00000
  12427     247.1426      0.00000
  12428     247.1581      0.00000
  12429     247.1662      0.00000
  12430     247.1770      0.00000
  12431     247.1911      0.00000
  12432     247.2031      0.00000
  12433     247.2189      0.00000
  12434     247.2220      0.00000
  12435     247.2343      0.00000
  12436     247.2705      0.00000
  12437     247.2877      0.00000
  12438     247.2957      0.00000
  12439     247.3026      0.00000
  12440     247.3121      0.00000
  12441     247.3373      0.00000
  12442     247.3540      0.00000
  12443     247.3544      0.00000
  12444     247.3874      0.00000
  12445     247.3900      0.00000
  12446     247.4063      0.00000
  12447     247.4199      0.00000
  12448     247.4322      0.00000
  12449     247.4546      0.00000
  12450     247.4732      0.00000
  12451     247.4802      0.00000
  12452     247.4912      0.00000
  12453     247.5140      0.00000
  12454     247.5164      0.00000
  12455     247.5224      0.00000
  12456     247.5344      0.00000
  12457     247.5514      0.00000
  12458     247.5588      0.00000
  12459     247.5717      0.00000
  12460     247.5770      0.00000
  12461     247.5990      0.00000
  12462     247.6096      0.00000
  12463     247.6226      0.00000
  12464     247.6301      0.00000
  12465     247.6451      0.00000
  12466     247.6548      0.00000
  12467     247.6887      0.00000
  12468     247.6988      0.00000
  12469     247.7204      0.00000
  12470     247.7353      0.00000
  12471     247.7434      0.00000
  12472     247.7529      0.00000
  12473     247.7746      0.00000
  12474     247.7802      0.00000
  12475     247.7936      0.00000
  12476     247.7996      0.00000
  12477     247.8114      0.00000
  12478     247.8218      0.00000
  12479     247.8414      0.00000
  12480     247.8538      0.00000
  12481     247.8681      0.00000
  12482     247.8760      0.00000
  12483     247.8929      0.00000
  12484     247.9084      0.00000
  12485     247.9264      0.00000
  12486     247.9504      0.00000
  12487     247.9685      0.00000
  12488     247.9770      0.00000
  12489     247.9906      0.00000
  12490     248.0019      0.00000
  12491     248.0030      0.00000
  12492     248.0130      0.00000
  12493     248.0299      0.00000
  12494     248.0559      0.00000
  12495     248.0633      0.00000
  12496     248.0779      0.00000
  12497     248.0791      0.00000
  12498     248.0990      0.00000
  12499     248.0998      0.00000
  12500     248.1273      0.00000
  12501     248.1341      0.00000
  12502     248.1487      0.00000
  12503     248.1794      0.00000
  12504     248.1968      0.00000
  12505     248.2041      0.00000
  12506     248.2102      0.00000
  12507     248.2322      0.00000
  12508     248.2414      0.00000
  12509     248.2476      0.00000
  12510     248.2539      0.00000
  12511     248.2709      0.00000
  12512     248.2848      0.00000
  12513     248.3005      0.00000
  12514     248.3164      0.00000
  12515     248.3553      0.00000
  12516     248.3612      0.00000
  12517     248.3726      0.00000
  12518     248.3825      0.00000
  12519     248.3934      0.00000
  12520     248.3948      0.00000
  12521     248.4082      0.00000
  12522     248.4227      0.00000
  12523     248.4338      0.00000
  12524     248.4684      0.00000
  12525     248.4760      0.00000
  12526     248.4930      0.00000
  12527     248.5018      0.00000
  12528     248.5133      0.00000
  12529     248.5248      0.00000
  12530     248.5364      0.00000
  12531     248.5549      0.00000
  12532     248.5662      0.00000
  12533     248.5769      0.00000
  12534     248.5990      0.00000
  12535     248.6136      0.00000
  12536     248.6180      0.00000
  12537     248.6403      0.00000
  12538     248.6595      0.00000
  12539     248.6671      0.00000
  12540     248.6985      0.00000
  12541     248.7030      0.00000
  12542     248.7140      0.00000
  12543     248.7343      0.00000
  12544     248.7377      0.00000
  12545     248.7608      0.00000
  12546     248.7728      0.00000
  12547     248.7871      0.00000
  12548     248.8075      0.00000
  12549     248.8084      0.00000
  12550     248.8167      0.00000
  12551     248.8240      0.00000
  12552     248.8468      0.00000
  12553     248.8565      0.00000
  12554     248.8672      0.00000
  12555     248.8766      0.00000
  12556     248.8859      0.00000
  12557     248.9045      0.00000
  12558     248.9101      0.00000
  12559     248.9390      0.00000
  12560     248.9551      0.00000
  12561     248.9625      0.00000
  12562     248.9801      0.00000
  12563     249.0023      0.00000
  12564     249.0119      0.00000
  12565     249.0200      0.00000
  12566     249.0394      0.00000
  12567     249.0474      0.00000
  12568     249.0677      0.00000
  12569     249.0857      0.00000
  12570     249.1094      0.00000
  12571     249.1142      0.00000
  12572     249.1307      0.00000
  12573     249.1421      0.00000
  12574     249.1566      0.00000
  12575     249.1651      0.00000
  12576     249.1778      0.00000
  12577     249.1915      0.00000
  12578     249.1977      0.00000
  12579     249.2056      0.00000
  12580     249.2306      0.00000
  12581     249.2568      0.00000
  12582     249.2621      0.00000
  12583     249.2763      0.00000
  12584     249.2856      0.00000
  12585     249.2976      0.00000
  12586     249.3121      0.00000
  12587     249.3327      0.00000
  12588     249.3473      0.00000
  12589     249.3670      0.00000
  12590     249.3809      0.00000
  12591     249.3875      0.00000
  12592     249.4071      0.00000
  12593     249.4242      0.00000
  12594     249.4388      0.00000
  12595     249.4425      0.00000
  12596     249.4693      0.00000
  12597     249.4741      0.00000
  12598     249.4908      0.00000
  12599     249.4963      0.00000
  12600     249.5187      0.00000
  12601     249.5284      0.00000
  12602     249.5419      0.00000
  12603     249.5594      0.00000
  12604     249.5652      0.00000
  12605     249.5882      0.00000
  12606     249.5966      0.00000
  12607     249.6202      0.00000
  12608     249.6420      0.00000
  12609     249.6507      0.00000
  12610     249.6664      0.00000
  12611     249.6713      0.00000
  12612     249.6851      0.00000
  12613     249.7002      0.00000
  12614     249.7168      0.00000
  12615     249.7199      0.00000
  12616     249.7389      0.00000
  12617     249.7530      0.00000
  12618     249.7565      0.00000
  12619     249.7814      0.00000
  12620     249.7977      0.00000
  12621     249.8095      0.00000
  12622     249.8202      0.00000
  12623     249.8301      0.00000
  12624     249.8545      0.00000
  12625     249.8617      0.00000
  12626     249.8725      0.00000
  12627     249.9079      0.00000
  12628     249.9130      0.00000
  12629     249.9229      0.00000
  12630     249.9367      0.00000
  12631     249.9554      0.00000
  12632     249.9745      0.00000
  12633     249.9986      0.00000
  12634     250.0083      0.00000
  12635     250.0316      0.00000
  12636     250.0373      0.00000
  12637     250.0456      0.00000
  12638     250.0557      0.00000
  12639     250.0871      0.00000
  12640     250.1083      0.00000
  12641     250.1166      0.00000
  12642     250.1273      0.00000
  12643     250.1329      0.00000
  12644     250.1662      0.00000
  12645     250.1738      0.00000
  12646     250.1833      0.00000
  12647     250.1961      0.00000
  12648     250.2144      0.00000
  12649     250.2346      0.00000
  12650     250.2392      0.00000
  12651     250.2575      0.00000
  12652     250.2753      0.00000
  12653     250.2823      0.00000
  12654     250.2968      0.00000
  12655     250.3125      0.00000
  12656     250.3212      0.00000
  12657     250.3415      0.00000
  12658     250.3627      0.00000
  12659     250.3827      0.00000
  12660     250.3961      0.00000
  12661     250.4182      0.00000
  12662     250.4379      0.00000
  12663     250.4500      0.00000
  12664     250.4566      0.00000
  12665     250.4764      0.00000
  12666     250.4790      0.00000
  12667     250.5057      0.00000
  12668     250.5116      0.00000
  12669     250.5227      0.00000
  12670     250.5340      0.00000
  12671     250.5468      0.00000
  12672     250.5638      0.00000
  12673     250.5682      0.00000
  12674     250.5916      0.00000
  12675     250.6121      0.00000
  12676     250.6365      0.00000
  12677     250.6380      0.00000
  12678     250.6500      0.00000
  12679     250.6756      0.00000
  12680     250.6873      0.00000
  12681     250.6995      0.00000
  12682     250.7141      0.00000
  12683     250.7164      0.00000
  12684     250.7332      0.00000
  12685     250.7467      0.00000
  12686     250.7537      0.00000
  12687     250.7879      0.00000
  12688     250.8030      0.00000
  12689     250.8081      0.00000
  12690     250.8137      0.00000
  12691     250.8286      0.00000
  12692     250.8396      0.00000
  12693     250.8515      0.00000
  12694     250.8596      0.00000
  12695     250.8750      0.00000
  12696     250.9106      0.00000
  12697     250.9163      0.00000
  12698     250.9260      0.00000
  12699     250.9534      0.00000
  12700     250.9624      0.00000
  12701     250.9831      0.00000
  12702     250.9937      0.00000
  12703     251.0034      0.00000
  12704     251.0155      0.00000
  12705     251.0275      0.00000
  12706     251.0376      0.00000
  12707     251.0498      0.00000
  12708     251.0605      0.00000
  12709     251.0938      0.00000
  12710     251.1010      0.00000
  12711     251.1303      0.00000
  12712     251.1336      0.00000
  12713     251.1460      0.00000
  12714     251.1558      0.00000
  12715     251.1647      0.00000
  12716     251.1714      0.00000
  12717     251.1771      0.00000
  12718     251.1965      0.00000
  12719     251.1996      0.00000
  12720     251.2253      0.00000
  12721     251.2393      0.00000
  12722     251.2454      0.00000
  12723     251.2705      0.00000
  12724     251.2721      0.00000
  12725     251.2939      0.00000
  12726     251.3007      0.00000
  12727     251.3186      0.00000
  12728     251.3219      0.00000
  12729     251.3312      0.00000
  12730     251.3564      0.00000
  12731     251.3615      0.00000
  12732     251.3791      0.00000
  12733     251.3904      0.00000
  12734     251.4040      0.00000
  12735     251.4310      0.00000
  12736     251.4439      0.00000
  12737     251.4551      0.00000
  12738     251.4623      0.00000
  12739     251.4638      0.00000
  12740     251.4882      0.00000
  12741     251.5045      0.00000
  12742     251.5087      0.00000
  12743     251.5129      0.00000
  12744     251.5174      0.00000
  12745     251.5261      0.00000
  12746     251.5402      0.00000
  12747     251.5565      0.00000
  12748     251.5845      0.00000
  12749     251.5886      0.00000
  12750     251.6057      0.00000
  12751     251.6176      0.00000
  12752     251.6312      0.00000
  12753     251.6425      0.00000
  12754     251.6475      0.00000
  12755     251.6576      0.00000
  12756     251.6698      0.00000
  12757     251.6796      0.00000
  12758     251.6894      0.00000
  12759     251.7054      0.00000
  12760     251.7235      0.00000
  12761     251.7322      0.00000
  12762     251.7448      0.00000
  12763     251.7473      0.00000
  12764     251.7734      0.00000
  12765     251.7844      0.00000
  12766     251.7901      0.00000
  12767     251.7962      0.00000
  12768     251.8137      0.00000
  12769     251.8245      0.00000
  12770     251.8310      0.00000
  12771     251.8531      0.00000
  12772     251.8653      0.00000
  12773     251.8848      0.00000
  12774     251.8893      0.00000
  12775     251.8971      0.00000
  12776     251.9139      0.00000
  12777     251.9267      0.00000
  12778     251.9357      0.00000
  12779     251.9460      0.00000
  12780     251.9489      0.00000
  12781     251.9764      0.00000
  12782     251.9823      0.00000
  12783     251.9920      0.00000
  12784     252.0022      0.00000
  12785     252.0082      0.00000
  12786     252.0299      0.00000
  12787     252.0403      0.00000
  12788     252.0514      0.00000
  12789     252.0610      0.00000
  12790     252.0788      0.00000
  12791     252.0856      0.00000
  12792     252.1111      0.00000
  12793     252.1229      0.00000
  12794     252.1368      0.00000
  12795     252.1603      0.00000
  12796     252.1675      0.00000
  12797     252.1757      0.00000
  12798     252.1863      0.00000
  12799     252.1999      0.00000
  12800     252.2126      0.00000
  12801     252.2294      0.00000
  12802     252.2340      0.00000
  12803     252.2502      0.00000
  12804     252.2618      0.00000
  12805     252.2818      0.00000
  12806     252.2874      0.00000
  12807     252.3039      0.00000
  12808     252.3200      0.00000
  12809     252.3338      0.00000
  12810     252.3475      0.00000
  12811     252.3557      0.00000
  12812     252.3667      0.00000
  12813     252.3744      0.00000
  12814     252.3918      0.00000
  12815     252.4123      0.00000
  12816     252.4216      0.00000
  12817     252.4491      0.00000
  12818     252.4594      0.00000
  12819     252.4649      0.00000
  12820     252.4780      0.00000
  12821     252.5013      0.00000
  12822     252.5051      0.00000
  12823     252.5152      0.00000
  12824     252.5254      0.00000
  12825     252.5373      0.00000
  12826     252.5633      0.00000
  12827     252.5841      0.00000
  12828     252.5948      0.00000
  12829     252.6020      0.00000
  12830     252.6178      0.00000
  12831     252.6224      0.00000
  12832     252.6439      0.00000
  12833     252.6530      0.00000
  12834     252.6677      0.00000
  12835     252.6876      0.00000
  12836     252.6941      0.00000
  12837     252.6954      0.00000
  12838     252.7038      0.00000
  12839     252.7309      0.00000
  12840     252.7410      0.00000
  12841     252.7456      0.00000
  12842     252.7597      0.00000
  12843     252.7760      0.00000
  12844     252.7870      0.00000
  12845     252.8126      0.00000
  12846     252.8183      0.00000
  12847     252.8215      0.00000
  12848     252.8483      0.00000
  12849     252.8567      0.00000
  12850     252.8655      0.00000
  12851     252.8825      0.00000
  12852     252.8948      0.00000
  12853     252.9090      0.00000
  12854     252.9165      0.00000
  12855     252.9322      0.00000
  12856     252.9500      0.00000
  12857     252.9661      0.00000
  12858     252.9728      0.00000
  12859     253.0013      0.00000
  12860     253.0182      0.00000
  12861     253.0321      0.00000
  12862     253.0423      0.00000
  12863     253.0511      0.00000
  12864     253.0615      0.00000
  12865     253.0789      0.00000
  12866     253.0857      0.00000
  12867     253.1036      0.00000
  12868     253.1149      0.00000
  12869     253.1405      0.00000
  12870     253.1481      0.00000
  12871     253.1672      0.00000
  12872     253.1974      0.00000
  12873     253.2136      0.00000
  12874     253.2228      0.00000
  12875     253.2283      0.00000
  12876     253.2468      0.00000
  12877     253.2539      0.00000
  12878     253.2867      0.00000
  12879     253.2984      0.00000
  12880     253.3087      0.00000
  12881     253.3280      0.00000
  12882     253.3336      0.00000
  12883     253.3569      0.00000
  12884     253.3589      0.00000
  12885     253.3700      0.00000
  12886     253.3825      0.00000
  12887     253.4147      0.00000
  12888     253.4317      0.00000
  12889     253.4369      0.00000
  12890     253.4496      0.00000
  12891     253.4675      0.00000
  12892     253.4894      0.00000
  12893     253.4905      0.00000
  12894     253.5147      0.00000
  12895     253.5250      0.00000
  12896     253.5374      0.00000
  12897     253.5569      0.00000
  12898     253.5611      0.00000
  12899     253.5653      0.00000
  12900     253.5776      0.00000
  12901     253.5982      0.00000
  12902     253.6047      0.00000
  12903     253.6357      0.00000
  12904     253.6440      0.00000
  12905     253.6466      0.00000
  12906     253.6496      0.00000
  12907     253.6955      0.00000
  12908     253.6988      0.00000
  12909     253.7123      0.00000
  12910     253.7234      0.00000
  12911     253.7453      0.00000
  12912     253.7510      0.00000
  12913     253.7774      0.00000
  12914     253.7871      0.00000
  12915     253.8046      0.00000
  12916     253.8117      0.00000
  12917     253.8557      0.00000
  12918     253.8630      0.00000
  12919     253.8695      0.00000
  12920     253.8933      0.00000
  12921     253.8971      0.00000
  12922     253.9101      0.00000
  12923     253.9436      0.00000
  12924     253.9572      0.00000
  12925     253.9743      0.00000
  12926     253.9770      0.00000
  12927     253.9866      0.00000
  12928     254.0046      0.00000
  12929     254.0333      0.00000
  12930     254.0699      0.00000
  12931     254.0764      0.00000
  12932     254.0874      0.00000
  12933     254.1036      0.00000
  12934     254.1111      0.00000
  12935     254.1267      0.00000
  12936     254.1403      0.00000
  12937     254.1523      0.00000
  12938     254.1576      0.00000
  12939     254.1696      0.00000
  12940     254.1945      0.00000
  12941     254.2065      0.00000
  12942     254.2196      0.00000
  12943     254.2423      0.00000
  12944     254.2523      0.00000
  12945     254.2762      0.00000
  12946     254.3019      0.00000
  12947     254.3036      0.00000
  12948     254.3210      0.00000
  12949     254.3301      0.00000
  12950     254.3488      0.00000
  12951     254.3505      0.00000
  12952     254.3671      0.00000
  12953     254.3752      0.00000
  12954     254.3932      0.00000
  12955     254.4229      0.00000
  12956     254.4244      0.00000
  12957     254.4320      0.00000
  12958     254.4516      0.00000
  12959     254.4680      0.00000
  12960     254.4749      0.00000
  12961     254.4886      0.00000
  12962     254.5118      0.00000
  12963     254.5191      0.00000
  12964     254.5359      0.00000
  12965     254.5369      0.00000
  12966     254.5529      0.00000
  12967     254.5716      0.00000
  12968     254.5746      0.00000
  12969     254.6130      0.00000
  12970     254.6193      0.00000
  12971     254.6353      0.00000
  12972     254.6527      0.00000
  12973     254.6641      0.00000
  12974     254.6720      0.00000
  12975     254.6811      0.00000
  12976     254.6925      0.00000
  12977     254.7251      0.00000
  12978     254.7325      0.00000
  12979     254.7507      0.00000
  12980     254.7619      0.00000
  12981     254.7669      0.00000
  12982     254.7876      0.00000
  12983     254.8057      0.00000
  12984     254.8138      0.00000
  12985     254.8323      0.00000
  12986     254.8435      0.00000
  12987     254.8774      0.00000
  12988     254.8818      0.00000
  12989     254.8926      0.00000
  12990     254.9083      0.00000
  12991     254.9205      0.00000
  12992     254.9334      0.00000
  12993     254.9484      0.00000
  12994     254.9488      0.00000
  12995     254.9621      0.00000
  12996     254.9766      0.00000
  12997     255.0105      0.00000
  12998     255.0225      0.00000
  12999     255.0463      0.00000
  13000     255.0529      0.00000
  13001     255.0640      0.00000
  13002     255.0721      0.00000
  13003     255.0928      0.00000
  13004     255.0973      0.00000
  13005     255.1191      0.00000
  13006     255.1263      0.00000
  13007     255.1416      0.00000
  13008     255.1638      0.00000
  13009     255.1732      0.00000
  13010     255.2035      0.00000
  13011     255.2139      0.00000
  13012     255.2314      0.00000
  13013     255.2388      0.00000
  13014     255.2613      0.00000
  13015     255.2682      0.00000
  13016     255.3005      0.00000
  13017     255.3061      0.00000
  13018     255.3194      0.00000
  13019     255.3379      0.00000
  13020     255.3461      0.00000
  13021     255.3521      0.00000
  13022     255.3673      0.00000
  13023     255.3810      0.00000
  13024     255.4051      0.00000
  13025     255.4138      0.00000
  13026     255.4352      0.00000
  13027     255.4482      0.00000
  13028     255.4622      0.00000
  13029     255.4739      0.00000
  13030     255.4836      0.00000
  13031     255.5006      0.00000
  13032     255.5101      0.00000
  13033     255.5200      0.00000
  13034     255.5310      0.00000
  13035     255.5460      0.00000
  13036     255.5768      0.00000
  13037     255.5819      0.00000
  13038     255.6046      0.00000
  13039     255.6151      0.00000
  13040     255.6276      0.00000
  13041     255.6349      0.00000
  13042     255.6404      0.00000
  13043     255.6554      0.00000
  13044     255.6742      0.00000
  13045     255.7020      0.00000
  13046     255.7051      0.00000
  13047     255.7309      0.00000
  13048     255.7447      0.00000
  13049     255.7497      0.00000
  13050     255.7596      0.00000
  13051     255.7709      0.00000
  13052     255.7779      0.00000
  13053     255.7895      0.00000
  13054     255.8112      0.00000
  13055     255.8169      0.00000
  13056     255.8326      0.00000
  13057     255.8595      0.00000
  13058     255.8666      0.00000
  13059     255.8927      0.00000
  13060     255.8957      0.00000
  13061     255.9161      0.00000
  13062     255.9357      0.00000
  13063     255.9507      0.00000
  13064     255.9518      0.00000
  13065     255.9657      0.00000
  13066     255.9932      0.00000
  13067     256.0055      0.00000
  13068     256.0116      0.00000
  13069     256.0225      0.00000
  13070     256.0365      0.00000
  13071     256.0482      0.00000
  13072     256.0595      0.00000
  13073     256.0735      0.00000
  13074     256.0809      0.00000
  13075     256.0913      0.00000
  13076     256.1225      0.00000
  13077     256.1374      0.00000
  13078     256.1413      0.00000
  13079     256.1590      0.00000
  13080     256.1763      0.00000
  13081     256.1836      0.00000
  13082     256.1995      0.00000
  13083     256.2058      0.00000
  13084     256.2115      0.00000
  13085     256.2256      0.00000
  13086     256.2437      0.00000
  13087     256.2599      0.00000
  13088     256.2770      0.00000
  13089     256.2855      0.00000
  13090     256.3151      0.00000
  13091     256.3234      0.00000
  13092     256.3363      0.00000
  13093     256.3486      0.00000
  13094     256.3743      0.00000
  13095     256.3816      0.00000
  13096     256.3912      0.00000
  13097     256.4100      0.00000
  13098     256.4123      0.00000
  13099     256.4191      0.00000
  13100     256.4275      0.00000
  13101     256.4594      0.00000
  13102     256.4728      0.00000
  13103     256.4865      0.00000
  13104     256.4970      0.00000
  13105     256.5130      0.00000
  13106     256.5285      0.00000
  13107     256.5304      0.00000
  13108     256.5465      0.00000
  13109     256.5638      0.00000
  13110     256.5719      0.00000
  13111     256.5900      0.00000
  13112     256.5974      0.00000
  13113     256.5998      0.00000
  13114     256.6158      0.00000
  13115     256.6310      0.00000
  13116     256.6447      0.00000
  13117     256.6666      0.00000
  13118     256.6688      0.00000
  13119     256.6843      0.00000
  13120     256.7028      0.00000
  13121     256.7191      0.00000
  13122     256.7291      0.00000
  13123     256.7509      0.00000
  13124     256.7553      0.00000
  13125     256.7585      0.00000
  13126     256.7933      0.00000
  13127     256.8044      0.00000
  13128     256.8117      0.00000
  13129     256.8322      0.00000
  13130     256.8408      0.00000
  13131     256.8476      0.00000
  13132     256.8606      0.00000
  13133     256.8854      0.00000
  13134     256.8887      0.00000
  13135     256.8962      0.00000
  13136     256.9100      0.00000
  13137     256.9350      0.00000
  13138     256.9410      0.00000
  13139     256.9507      0.00000
  13140     256.9554      0.00000
  13141     256.9701      0.00000
  13142     256.9747      0.00000
  13143     257.0019      0.00000
  13144     257.0074      0.00000
  13145     257.0179      0.00000
  13146     257.0296      0.00000
  13147     257.0539      0.00000
  13148     257.0657      0.00000
  13149     257.0757      0.00000
  13150     257.0896      0.00000
  13151     257.0969      0.00000
  13152     257.1021      0.00000
  13153     257.1117      0.00000
  13154     257.1285      0.00000
  13155     257.1361      0.00000
  13156     257.1437      0.00000
  13157     257.1659      0.00000
  13158     257.1775      0.00000
  13159     257.1916      0.00000
  13160     257.1959      0.00000
  13161     257.2078      0.00000
  13162     257.2172      0.00000
  13163     257.2320      0.00000
  13164     257.2502      0.00000
  13165     257.2650      0.00000
  13166     257.2693      0.00000
  13167     257.2838      0.00000
  13168     257.2990      0.00000
  13169     257.3095      0.00000
  13170     257.3149      0.00000
  13171     257.3358      0.00000
  13172     257.3509      0.00000
  13173     257.3675      0.00000
  13174     257.3874      0.00000
  13175     257.3971      0.00000
  13176     257.4163      0.00000
  13177     257.4257      0.00000
  13178     257.4316      0.00000
  13179     257.4400      0.00000
  13180     257.4595      0.00000
  13181     257.4726      0.00000
  13182     257.4854      0.00000
  13183     257.4936      0.00000
  13184     257.5037      0.00000
  13185     257.5144      0.00000
  13186     257.5264      0.00000
  13187     257.5285      0.00000
  13188     257.5414      0.00000
  13189     257.5518      0.00000
  13190     257.5611      0.00000
  13191     257.5755      0.00000
  13192     257.5880      0.00000
  13193     257.6009      0.00000
  13194     257.6129      0.00000
  13195     257.6323      0.00000
  13196     257.6501      0.00000
  13197     257.6678      0.00000
  13198     257.6729      0.00000
  13199     257.6927      0.00000
  13200     257.6991      0.00000
  13201     257.7093      0.00000
  13202     257.7243      0.00000
  13203     257.7372      0.00000
  13204     257.7418      0.00000
  13205     257.7451      0.00000
  13206     257.7638      0.00000
  13207     257.7719      0.00000
  13208     257.7820      0.00000
  13209     257.7926      0.00000
  13210     257.8012      0.00000
  13211     257.8116      0.00000
  13212     257.8248      0.00000
  13213     257.8378      0.00000
  13214     257.8527      0.00000
  13215     257.8573      0.00000
  13216     257.8731      0.00000
  13217     257.8764      0.00000
  13218     257.9038      0.00000
  13219     257.9165      0.00000
  13220     257.9294      0.00000
  13221     257.9393      0.00000
  13222     257.9538      0.00000
  13223     257.9593      0.00000
  13224     257.9753      0.00000
  13225     257.9858      0.00000
  13226     258.0013      0.00000
  13227     258.0094      0.00000
  13228     258.0283      0.00000
  13229     258.0332      0.00000
  13230     258.0433      0.00000
  13231     258.0487      0.00000
  13232     258.0589      0.00000
  13233     258.0821      0.00000
  13234     258.0979      0.00000
  13235     258.1068      0.00000
  13236     258.1090      0.00000
  13237     258.1288      0.00000
  13238     258.1369      0.00000
  13239     258.1535      0.00000
  13240     258.1593      0.00000
  13241     258.1797      0.00000
  13242     258.1830      0.00000
  13243     258.1945      0.00000
  13244     258.2029      0.00000
  13245     258.2094      0.00000
  13246     258.2209      0.00000
  13247     258.2397      0.00000
  13248     258.2504      0.00000
  13249     258.2569      0.00000
  13250     258.2668      0.00000
  13251     258.2839      0.00000
  13252     258.3004      0.00000
  13253     258.3080      0.00000
  13254     258.3264      0.00000
  13255     258.3339      0.00000
  13256     258.3388      0.00000
  13257     258.3519      0.00000
  13258     258.3751      0.00000
  13259     258.3911      0.00000
  13260     258.4009      0.00000
  13261     258.4172      0.00000
  13262     258.4208      0.00000
  13263     258.4333      0.00000
  13264     258.4464      0.00000
  13265     258.4530      0.00000
  13266     258.4565      0.00000
  13267     258.4726      0.00000
  13268     258.4775      0.00000
  13269     258.4980      0.00000
  13270     258.4993      0.00000
  13271     258.5108      0.00000
  13272     258.5296      0.00000
  13273     258.5371      0.00000
  13274     258.5436      0.00000
  13275     258.5596      0.00000
  13276     258.5689      0.00000
  13277     258.5817      0.00000
  13278     258.5865      0.00000
  13279     258.5909      0.00000
  13280     258.6144      0.00000
  13281     258.6219      0.00000
  13282     258.6265      0.00000
  13283     258.6366      0.00000
  13284     258.6533      0.00000
  13285     258.6626      0.00000
  13286     258.6805      0.00000
  13287     258.6850      0.00000
  13288     258.7008      0.00000
  13289     258.7083      0.00000
  13290     258.7185      0.00000
  13291     258.7399      0.00000
  13292     258.7490      0.00000
  13293     258.7670      0.00000
  13294     258.7743      0.00000
  13295     258.7787      0.00000
  13296     258.7914      0.00000
  13297     258.8081      0.00000
  13298     258.8193      0.00000
  13299     258.8271      0.00000
  13300     258.8459      0.00000
  13301     258.8514      0.00000
  13302     258.8598      0.00000
  13303     258.8738      0.00000
  13304     258.8755      0.00000
  13305     258.8797      0.00000
  13306     258.8951      0.00000
  13307     258.9019      0.00000
  13308     258.9050      0.00000
  13309     258.9131      0.00000
  13310     258.9231      0.00000
  13311     258.9349      0.00000
  13312     258.9557      0.00000
  13313     258.9607      0.00000
  13314     258.9729      0.00000
  13315     258.9837      0.00000
  13316     258.9965      0.00000
  13317     259.0023      0.00000
  13318     259.0120      0.00000
  13319     259.0268      0.00000
  13320     259.0419      0.00000
  13321     259.0443      0.00000
  13322     259.0560      0.00000
  13323     259.0600      0.00000
  13324     259.0811      0.00000
  13325     259.0893      0.00000
  13326     259.1012      0.00000
  13327     259.1077      0.00000
  13328     259.1161      0.00000
  13329     259.1338      0.00000
  13330     259.1492      0.00000
  13331     259.1599      0.00000
  13332     259.1642      0.00000
  13333     259.1733      0.00000
  13334     259.1886      0.00000
  13335     259.1997      0.00000
  13336     259.2113      0.00000
  13337     259.2161      0.00000
  13338     259.2322      0.00000
  13339     259.2411      0.00000
  13340     259.2466      0.00000
  13341     259.2696      0.00000
  13342     259.2751      0.00000
  13343     259.2854      0.00000
  13344     259.2914      0.00000
  13345     259.3100      0.00000
  13346     259.3172      0.00000
  13347     259.3341      0.00000
  13348     259.3382      0.00000
  13349     259.3535      0.00000
  13350     259.3625      0.00000
  13351     259.3737      0.00000
  13352     259.3774      0.00000
  13353     259.3833      0.00000
  13354     259.4008      0.00000
  13355     259.4076      0.00000
  13356     259.4197      0.00000
  13357     259.4425      0.00000
  13358     259.4461      0.00000
  13359     259.4556      0.00000
  13360     259.4606      0.00000
  13361     259.4773      0.00000
  13362     259.4832      0.00000
  13363     259.4868      0.00000
  13364     259.5082      0.00000
  13365     259.5241      0.00000
  13366     259.5385      0.00000
  13367     259.5429      0.00000
  13368     259.5488      0.00000
  13369     259.5527      0.00000
  13370     259.5596      0.00000
  13371     259.5743      0.00000
  13372     259.5871      0.00000
  13373     259.5958      0.00000
  13374     259.6123      0.00000
  13375     259.6249      0.00000
  13376     259.6295      0.00000
  13377     259.6447      0.00000
  13378     259.6500      0.00000
  13379     259.6621      0.00000
  13380     259.6644      0.00000
  13381     259.6748      0.00000
  13382     259.6875      0.00000
  13383     259.6938      0.00000
  13384     259.7081      0.00000
  13385     259.7261      0.00000
  13386     259.7293      0.00000
  13387     259.7410      0.00000
  13388     259.7506      0.00000
  13389     259.7565      0.00000
  13390     259.7752      0.00000
  13391     259.7829      0.00000
  13392     259.7891      0.00000
  13393     259.8086      0.00000
  13394     259.8130      0.00000
  13395     259.8168      0.00000
  13396     259.8256      0.00000
  13397     259.8520      0.00000
  13398     259.8551      0.00000
  13399     259.8687      0.00000
  13400     259.8833      0.00000
  13401     259.9065      0.00000
  13402     259.9162      0.00000
  13403     259.9237      0.00000
  13404     259.9300      0.00000
  13405     259.9541      0.00000
  13406     259.9619      0.00000
  13407     259.9699      0.00000
  13408     259.9749      0.00000
  13409     259.9952      0.00000
  13410     260.0167      0.00000
  13411     260.0263      0.00000
  13412     260.0360      0.00000
  13413     260.0458      0.00000
  13414     260.0472      0.00000
  13415     260.0679      0.00000
  13416     260.0786      0.00000
  13417     260.0934      0.00000
  13418     260.1023      0.00000
  13419     260.1060      0.00000
  13420     260.1215      0.00000
  13421     260.1318      0.00000
  13422     260.1438      0.00000
  13423     260.1490      0.00000
  13424     260.1517      0.00000
  13425     260.1624      0.00000
  13426     260.1782      0.00000
  13427     260.2025      0.00000
  13428     260.2109      0.00000
  13429     260.2263      0.00000
  13430     260.2351      0.00000
  13431     260.2447      0.00000
  13432     260.2495      0.00000
  13433     260.2617      0.00000
  13434     260.2794      0.00000
  13435     260.2877      0.00000
  13436     260.3019      0.00000
  13437     260.3108      0.00000
  13438     260.3175      0.00000
  13439     260.3311      0.00000
  13440     260.3431      0.00000
  13441     260.3556      0.00000
  13442     260.3631      0.00000
  13443     260.3771      0.00000
  13444     260.3894      0.00000
  13445     260.3946      0.00000
  13446     260.4069      0.00000
  13447     260.4200      0.00000
  13448     260.4264      0.00000
  13449     260.4372      0.00000
  13450     260.4447      0.00000
  13451     260.4600      0.00000
  13452     260.4725      0.00000
  13453     260.4794      0.00000
  13454     260.4868      0.00000
  13455     260.4967      0.00000
  13456     260.5031      0.00000
  13457     260.5184      0.00000
  13458     260.5219      0.00000
  13459     260.5435      0.00000
  13460     260.5522      0.00000
  13461     260.5682      0.00000
  13462     260.5743      0.00000
  13463     260.5921      0.00000
  13464     260.6050      0.00000
  13465     260.6111      0.00000
  13466     260.6181      0.00000
  13467     260.6287      0.00000
  13468     260.6431      0.00000
  13469     260.6440      0.00000
  13470     260.6624      0.00000
  13471     260.6750      0.00000
  13472     260.6821      0.00000
  13473     260.6851      0.00000
  13474     260.7123      0.00000
  13475     260.7190      0.00000
  13476     260.7260      0.00000
  13477     260.7424      0.00000
  13478     260.7478      0.00000
  13479     260.7592      0.00000
  13480     260.7642      0.00000
  13481     260.7888      0.00000
  13482     260.7942      0.00000
  13483     260.8122      0.00000
  13484     260.8337      0.00000
  13485     260.8405      0.00000
  13486     260.8516      0.00000
  13487     260.8598      0.00000
  13488     260.8814      0.00000
  13489     260.8904      0.00000
  13490     260.9014      0.00000
  13491     260.9124      0.00000
  13492     260.9206      0.00000
  13493     260.9340      0.00000
  13494     260.9535      0.00000
  13495     260.9654      0.00000
  13496     260.9719      0.00000
  13497     260.9866      0.00000
  13498     261.0099      0.00000
  13499     261.0152      0.00000
  13500     261.0271      0.00000
  13501     261.0327      0.00000
  13502     261.0595      0.00000
  13503     261.0653      0.00000
  13504     261.0781      0.00000
  13505     261.0883      0.00000
  13506     261.1018      0.00000
  13507     261.1108      0.00000
  13508     261.1258      0.00000
  13509     261.1323      0.00000
  13510     261.1419      0.00000
  13511     261.1552      0.00000
  13512     261.1782      0.00000
  13513     261.1796      0.00000
  13514     261.1980      0.00000
  13515     261.2068      0.00000
  13516     261.2179      0.00000
  13517     261.2312      0.00000
  13518     261.2407      0.00000
  13519     261.2542      0.00000
  13520     261.2652      0.00000
  13521     261.2756      0.00000
  13522     261.2840      0.00000
  13523     261.2869      0.00000
  13524     261.3025      0.00000
  13525     261.3278      0.00000
  13526     261.3343      0.00000
  13527     261.3403      0.00000
  13528     261.3640      0.00000
  13529     261.3709      0.00000
  13530     261.3804      0.00000
  13531     261.3916      0.00000
  13532     261.3945      0.00000
  13533     261.4099      0.00000
  13534     261.4253      0.00000
  13535     261.4484      0.00000
  13536     261.4508      0.00000
  13537     261.4614      0.00000
  13538     261.4690      0.00000
  13539     261.4865      0.00000
  13540     261.5027      0.00000
  13541     261.5251      0.00000
  13542     261.5320      0.00000
  13543     261.5449      0.00000
  13544     261.5572      0.00000
  13545     261.5632      0.00000
  13546     261.5643      0.00000
  13547     261.5780      0.00000
  13548     261.5952      0.00000
  13549     261.6026      0.00000
  13550     261.6119      0.00000
  13551     261.6328      0.00000
  13552     261.6425      0.00000
  13553     261.6545      0.00000
  13554     261.6664      0.00000
  13555     261.6786      0.00000
  13556     261.6908      0.00000
  13557     261.7019      0.00000
  13558     261.7079      0.00000
  13559     261.7316      0.00000
  13560     261.7393      0.00000
  13561     261.7436      0.00000
  13562     261.7629      0.00000
  13563     261.7727      0.00000
  13564     261.7819      0.00000
  13565     261.8010      0.00000
  13566     261.8193      0.00000
  13567     261.8265      0.00000
  13568     261.8445      0.00000
  13569     261.8600      0.00000
  13570     261.8750      0.00000
  13571     261.8810      0.00000
  13572     261.8868      0.00000
  13573     261.8982      0.00000
  13574     261.9174      0.00000
  13575     261.9404      0.00000
  13576     261.9535      0.00000
  13577     261.9671      0.00000
  13578     261.9755      0.00000
  13579     261.9820      0.00000
  13580     262.0005      0.00000
  13581     262.0183      0.00000
  13582     262.0278      0.00000
  13583     262.0378      0.00000
  13584     262.0511      0.00000
  13585     262.0569      0.00000
  13586     262.0742      0.00000
  13587     262.0814      0.00000
  13588     262.1019      0.00000
  13589     262.1056      0.00000
  13590     262.1224      0.00000
  13591     262.1315      0.00000
  13592     262.1416      0.00000
  13593     262.1568      0.00000
  13594     262.1591      0.00000
  13595     262.1857      0.00000
  13596     262.1923      0.00000
  13597     262.1990      0.00000
  13598     262.2141      0.00000
  13599     262.2208      0.00000
  13600     262.2428      0.00000
  13601     262.2486      0.00000
  13602     262.2634      0.00000
  13603     262.2727      0.00000
  13604     262.2766      0.00000
  13605     262.3071      0.00000
  13606     262.3216      0.00000
  13607     262.3301      0.00000
  13608     262.3386      0.00000
  13609     262.3567      0.00000
  13610     262.3655      0.00000
  13611     262.3786      0.00000
  13612     262.3847      0.00000
  13613     262.3962      0.00000
  13614     262.4165      0.00000
  13615     262.4282      0.00000
  13616     262.4415      0.00000
  13617     262.4445      0.00000
  13618     262.4578      0.00000
  13619     262.4681      0.00000
  13620     262.4869      0.00000
  13621     262.4913      0.00000
  13622     262.4961      0.00000
  13623     262.5055      0.00000
  13624     262.5255      0.00000
  13625     262.5302      0.00000
  13626     262.5434      0.00000
  13627     262.5532      0.00000
  13628     262.5701      0.00000
  13629     262.5771      0.00000
  13630     262.5864      0.00000
  13631     262.5947      0.00000
  13632     262.6134      0.00000
  13633     262.6176      0.00000
  13634     262.6421      0.00000
  13635     262.6456      0.00000
  13636     262.6676      0.00000
  13637     262.6830      0.00000
  13638     262.6899      0.00000
  13639     262.6992      0.00000
  13640     262.7133      0.00000
  13641     262.7239      0.00000
  13642     262.7386      0.00000
  13643     262.7531      0.00000
  13644     262.7567      0.00000
  13645     262.7757      0.00000
  13646     262.7908      0.00000
  13647     262.7988      0.00000
  13648     262.8076      0.00000
  13649     262.8173      0.00000
  13650     262.8358      0.00000
  13651     262.8505      0.00000
  13652     262.8560      0.00000
  13653     262.8607      0.00000
  13654     262.8882      0.00000
  13655     262.8903      0.00000
  13656     262.9115      0.00000
  13657     262.9186      0.00000
  13658     262.9334      0.00000
  13659     262.9595      0.00000
  13660     262.9626      0.00000
  13661     262.9759      0.00000
  13662     262.9882      0.00000
  13663     262.9902      0.00000
  13664     263.0008      0.00000
  13665     263.0106      0.00000
  13666     263.0170      0.00000
  13667     263.0420      0.00000
  13668     263.0436      0.00000
  13669     263.0562      0.00000
  13670     263.0714      0.00000
  13671     263.0751      0.00000
  13672     263.0838      0.00000
  13673     263.1007      0.00000
  13674     263.1055      0.00000
  13675     263.1135      0.00000
  13676     263.1330      0.00000
  13677     263.1482      0.00000
  13678     263.1617      0.00000
  13679     263.1645      0.00000
  13680     263.1839      0.00000
  13681     263.1927      0.00000
  13682     263.1993      0.00000
  13683     263.2083      0.00000
  13684     263.2168      0.00000
  13685     263.2294      0.00000
  13686     263.2355      0.00000
  13687     263.2516      0.00000
  13688     263.2687      0.00000
  13689     263.2737      0.00000
  13690     263.2885      0.00000
  13691     263.2932      0.00000
  13692     263.2987      0.00000
  13693     263.3209      0.00000
  13694     263.3362      0.00000
  13695     263.3389      0.00000
  13696     263.3448      0.00000
  13697     263.3587      0.00000
  13698     263.3691      0.00000
  13699     263.3728      0.00000
  13700     263.3972      0.00000
  13701     263.4161      0.00000
  13702     263.4189      0.00000
  13703     263.4255      0.00000
  13704     263.4382      0.00000
  13705     263.4456      0.00000
  13706     263.4679      0.00000
  13707     263.4800      0.00000
  13708     263.4909      0.00000
  13709     263.5086      0.00000
  13710     263.5264      0.00000
  13711     263.5350      0.00000
  13712     263.5485      0.00000
  13713     263.5601      0.00000
  13714     263.5711      0.00000
  13715     263.5832      0.00000
  13716     263.5948      0.00000
  13717     263.6020      0.00000
  13718     263.6090      0.00000
  13719     263.6168      0.00000
  13720     263.6299      0.00000
  13721     263.6474      0.00000
  13722     263.6584      0.00000
  13723     263.6675      0.00000
  13724     263.6810      0.00000
  13725     263.6942      0.00000
  13726     263.7002      0.00000
  13727     263.7174      0.00000
  13728     263.7193      0.00000
  13729     263.7273      0.00000
  13730     263.7499      0.00000
  13731     263.7587      0.00000
  13732     263.7722      0.00000
  13733     263.7949      0.00000
  13734     263.8009      0.00000
  13735     263.8087      0.00000
  13736     263.8237      0.00000
  13737     263.8348      0.00000
  13738     263.8434      0.00000
  13739     263.8566      0.00000
  13740     263.8737      0.00000
  13741     263.8862      0.00000
  13742     263.8998      0.00000
  13743     263.9136      0.00000
  13744     263.9213      0.00000
  13745     263.9368      0.00000
  13746     263.9415      0.00000
  13747     263.9621      0.00000
  13748     263.9852      0.00000
  13749     263.9896      0.00000
  13750     263.9985      0.00000
  13751     264.0061      0.00000
  13752     264.0251      0.00000
  13753     264.0344      0.00000
  13754     264.0542      0.00000
  13755     264.0678      0.00000
  13756     264.0821      0.00000
  13757     264.0902      0.00000
  13758     264.1222      0.00000
  13759     264.1427      0.00000
  13760     264.1519      0.00000
  13761     264.1601      0.00000
  13762     264.1670      0.00000
  13763     264.2039      0.00000
  13764     264.2144      0.00000
  13765     264.2241      0.00000
  13766     264.2298      0.00000
  13767     264.2445      0.00000
  13768     264.2587      0.00000
  13769     264.2627      0.00000
  13770     264.2746      0.00000
  13771     264.2969      0.00000
  13772     264.3123      0.00000
  13773     264.3192      0.00000
  13774     264.3427      0.00000
  13775     264.3525      0.00000
  13776     264.3637      0.00000
  13777     264.3776      0.00000
  13778     264.3938      0.00000
  13779     264.3974      0.00000
  13780     264.4248      0.00000
  13781     264.4297      0.00000
  13782     264.4483      0.00000
  13783     264.4620      0.00000
  13784     264.4683      0.00000
  13785     264.4722      0.00000
  13786     264.4861      0.00000
  13787     264.4869      0.00000
  13788     264.5131      0.00000
  13789     264.5213      0.00000
  13790     264.5604      0.00000
  13791     264.5611      0.00000
  13792     264.5777      0.00000
  13793     264.5945      0.00000
  13794     264.5975      0.00000
  13795     264.6081      0.00000
  13796     264.6231      0.00000
  13797     264.6404      0.00000
  13798     264.6553      0.00000
  13799     264.6625      0.00000
  13800     264.6740      0.00000
  13801     264.7005      0.00000
  13802     264.7066      0.00000
  13803     264.7278      0.00000
  13804     264.7418      0.00000
  13805     264.7491      0.00000
  13806     264.7579      0.00000
  13807     264.7831      0.00000
  13808     264.7865      0.00000
  13809     264.8075      0.00000
  13810     264.8252      0.00000
  13811     264.8436      0.00000
  13812     264.8486      0.00000
  13813     264.8614      0.00000
  13814     264.8745      0.00000
  13815     264.9058      0.00000
  13816     264.9129      0.00000
  13817     264.9223      0.00000
  13818     264.9360      0.00000
  13819     264.9555      0.00000
  13820     264.9712      0.00000
  13821     264.9925      0.00000
  13822     265.0014      0.00000
  13823     265.0068      0.00000
  13824     265.0124      0.00000
  13825     265.0297      0.00000
  13826     265.0377      0.00000
  13827     265.0558      0.00000
  13828     265.0859      0.00000
  13829     265.0890      0.00000
  13830     265.1095      0.00000
  13831     265.1373      0.00000
  13832     265.1471      0.00000
  13833     265.1568      0.00000
  13834     265.1625      0.00000
  13835     265.1859      0.00000
  13836     265.1965      0.00000
  13837     265.2045      0.00000
  13838     265.2130      0.00000
  13839     265.2207      0.00000
  13840     265.2311      0.00000
  13841     265.2616      0.00000
  13842     265.2649      0.00000
  13843     265.2825      0.00000
  13844     265.2857      0.00000
  13845     265.3048      0.00000
  13846     265.3193      0.00000
  13847     265.3222      0.00000
  13848     265.3315      0.00000
  13849     265.3663      0.00000
  13850     265.3759      0.00000
  13851     265.3937      0.00000
  13852     265.4053      0.00000
  13853     265.4180      0.00000
  13854     265.4229      0.00000
  13855     265.4417      0.00000
  13856     265.4434      0.00000
  13857     265.4696      0.00000
  13858     265.4895      0.00000
  13859     265.5116      0.00000
  13860     265.5240      0.00000
  13861     265.5241      0.00000
  13862     265.5433      0.00000
  13863     265.5555      0.00000
  13864     265.5630      0.00000
  13865     265.5753      0.00000
  13866     265.5912      0.00000
  13867     265.6061      0.00000
  13868     265.6198      0.00000
  13869     265.6300      0.00000
  13870     265.6411      0.00000
  13871     265.6674      0.00000
  13872     265.6781      0.00000
  13873     265.6839      0.00000
  13874     265.6995      0.00000
  13875     265.7271      0.00000
  13876     265.7411      0.00000
  13877     265.7552      0.00000
  13878     265.7698      0.00000
  13879     265.7759      0.00000
  13880     265.7835      0.00000
  13881     265.8012      0.00000
  13882     265.8169      0.00000
  13883     265.8429      0.00000
  13884     265.8509      0.00000
  13885     265.8701      0.00000
  13886     265.8791      0.00000
  13887     265.9012      0.00000
  13888     265.9139      0.00000
  13889     265.9178      0.00000
  13890     265.9356      0.00000
  13891     265.9482      0.00000
  13892     265.9768      0.00000
  13893     265.9902      0.00000
  13894     266.0002      0.00000
  13895     266.0078      0.00000
  13896     266.0251      0.00000
  13897     266.0295      0.00000
  13898     266.0459      0.00000
  13899     266.0744      0.00000
  13900     266.0785      0.00000
  13901     266.0966      0.00000
  13902     266.1098      0.00000
  13903     266.1227      0.00000
  13904     266.1267      0.00000
  13905     266.1385      0.00000
  13906     266.1548      0.00000
  13907     266.1755      0.00000
  13908     266.1791      0.00000
  13909     266.1959      0.00000
  13910     266.2087      0.00000
  13911     266.2434      0.00000
  13912     266.2562      0.00000
  13913     266.2754      0.00000
  13914     266.2844      0.00000
  13915     266.2929      0.00000
  13916     266.3092      0.00000
  13917     266.3300      0.00000
  13918     266.3348      0.00000
  13919     266.3401      0.00000
  13920     266.3705      0.00000
  13921     266.3906      0.00000
  13922     266.3939      0.00000
  13923     266.4142      0.00000
  13924     266.4329      0.00000
  13925     266.4513      0.00000
  13926     266.4606      0.00000
  13927     266.4682      0.00000
  13928     266.4732      0.00000
  13929     266.4890      0.00000
  13930     266.5036      0.00000
  13931     266.5118      0.00000
  13932     266.5254      0.00000
  13933     266.5322      0.00000
  13934     266.5495      0.00000
  13935     266.5554      0.00000
  13936     266.5784      0.00000
  13937     266.6057      0.00000
  13938     266.6145      0.00000
  13939     266.6279      0.00000
  13940     266.6402      0.00000
  13941     266.6551      0.00000
  13942     266.6639      0.00000
  13943     266.6946      0.00000
  13944     266.6963      0.00000
  13945     266.7076      0.00000
  13946     266.7175      0.00000
  13947     266.7485      0.00000
  13948     266.7557      0.00000
  13949     266.7831      0.00000
  13950     266.7910      0.00000
  13951     266.8001      0.00000
  13952     266.8198      0.00000
  13953     266.8288      0.00000
  13954     266.8474      0.00000
  13955     266.8531      0.00000
  13956     266.8637      0.00000
  13957     266.8802      0.00000
  13958     266.8950      0.00000
  13959     266.9044      0.00000
  13960     266.9244      0.00000
  13961     266.9379      0.00000
  13962     266.9656      0.00000
  13963     266.9762      0.00000
  13964     266.9857      0.00000
  13965     267.0093      0.00000
  13966     267.0272      0.00000
  13967     267.0434      0.00000
  13968     267.0518      0.00000
  13969     267.0559      0.00000
  13970     267.0761      0.00000
  13971     267.0881      0.00000
  13972     267.0963      0.00000
  13973     267.1108      0.00000
  13974     267.1190      0.00000
  13975     267.1277      0.00000
  13976     267.1502      0.00000
  13977     267.1578      0.00000
  13978     267.1723      0.00000
  13979     267.1824      0.00000
  13980     267.2117      0.00000
  13981     267.2208      0.00000
  13982     267.2299      0.00000
  13983     267.2405      0.00000
  13984     267.2678      0.00000
  13985     267.2702      0.00000
  13986     267.2883      0.00000
  13987     267.3079      0.00000
  13988     267.3200      0.00000
  13989     267.3293      0.00000
  13990     267.3547      0.00000
  13991     267.3624      0.00000
  13992     267.3845      0.00000
  13993     267.4055      0.00000
  13994     267.4115      0.00000
  13995     267.4189      0.00000
  13996     267.4403      0.00000
  13997     267.4449      0.00000
  13998     267.4633      0.00000
  13999     267.4740      0.00000
  14000     267.4983      0.00000
  14001     267.5099      0.00000
  14002     267.5193      0.00000
  14003     267.5425      0.00000
  14004     267.5491      0.00000
  14005     267.5540      0.00000
  14006     267.5785      0.00000
  14007     267.5817      0.00000
  14008     267.5891      0.00000
  14009     267.6191      0.00000
  14010     267.6323      0.00000
  14011     267.6338      0.00000
  14012     267.6567      0.00000
  14013     267.6657      0.00000
  14014     267.6745      0.00000
  14015     267.6794      0.00000
  14016     267.6924      0.00000
  14017     267.7192      0.00000
  14018     267.7283      0.00000
  14019     267.7425      0.00000
  14020     267.7618      0.00000
  14021     267.7699      0.00000
  14022     267.7833      0.00000
  14023     267.7955      0.00000
  14024     267.8086      0.00000
  14025     267.8252      0.00000
  14026     267.8281      0.00000
  14027     267.8469      0.00000
  14028     267.8538      0.00000
  14029     267.8765      0.00000
  14030     267.8782      0.00000
  14031     267.8964      0.00000
  14032     267.9195      0.00000
  14033     267.9231      0.00000
  14034     267.9368      0.00000
  14035     267.9516      0.00000
  14036     267.9670      0.00000
  14037     267.9771      0.00000
  14038     267.9895      0.00000
  14039     267.9950      0.00000
  14040     268.0022      0.00000
  14041     268.0310      0.00000
  14042     268.0341      0.00000
  14043     268.0389      0.00000
  14044     268.0638      0.00000
  14045     268.0690      0.00000
  14046     268.0775      0.00000
  14047     268.0869      0.00000
  14048     268.0989      0.00000
  14049     268.1211      0.00000
  14050     268.1315      0.00000
  14051     268.1407      0.00000
  14052     268.1530      0.00000
  14053     268.1593      0.00000
  14054     268.1744      0.00000
  14055     268.1887      0.00000
  14056     268.2027      0.00000
  14057     268.2101      0.00000
  14058     268.2307      0.00000
  14059     268.2475      0.00000
  14060     268.2642      0.00000
  14061     268.2725      0.00000
  14062     268.2871      0.00000
  14063     268.2907      0.00000
  14064     268.3039      0.00000
  14065     268.3345      0.00000
  14066     268.3377      0.00000
  14067     268.3427      0.00000
  14068     268.3538      0.00000
  14069     268.3624      0.00000
  14070     268.3707      0.00000
  14071     268.3787      0.00000
  14072     268.3877      0.00000
  14073     268.4040      0.00000
  14074     268.4177      0.00000
  14075     268.4237      0.00000
  14076     268.4406      0.00000
  14077     268.4450      0.00000
  14078     268.4630      0.00000
  14079     268.4758      0.00000
  14080     268.4810      0.00000
  14081     268.4872      0.00000
  14082     268.4942      0.00000
  14083     268.5110      0.00000
  14084     268.5215      0.00000
  14085     268.5353      0.00000
  14086     268.5571      0.00000
  14087     268.5672      0.00000
  14088     268.5741      0.00000
  14089     268.5903      0.00000
  14090     268.5994      0.00000
  14091     268.6027      0.00000
  14092     268.6279      0.00000
  14093     268.6305      0.00000
  14094     268.6353      0.00000
  14095     268.6559      0.00000
  14096     268.6595      0.00000
  14097     268.6685      0.00000
  14098     268.6804      0.00000
  14099     268.6890      0.00000
  14100     268.7057      0.00000
  14101     268.7125      0.00000
  14102     268.7321      0.00000
  14103     268.7384      0.00000
  14104     268.7503      0.00000
  14105     268.7588      0.00000
  14106     268.7655      0.00000
  14107     268.7765      0.00000
  14108     268.7865      0.00000
  14109     268.8007      0.00000
  14110     268.8160      0.00000
  14111     268.8332      0.00000
  14112     268.8495      0.00000
  14113     268.8607      0.00000
  14114     268.8644      0.00000
  14115     268.8721      0.00000
  14116     268.8956      0.00000
  14117     268.8971      0.00000
  14118     268.9310      0.00000
  14119     268.9416      0.00000
  14120     268.9513      0.00000
  14121     268.9726      0.00000
  14122     268.9808      0.00000
  14123     268.9947      0.00000
  14124     269.0086      0.00000
  14125     269.0106      0.00000
  14126     269.0178      0.00000
  14127     269.0289      0.00000
  14128     269.0501      0.00000
  14129     269.0564      0.00000
  14130     269.0672      0.00000
  14131     269.0773      0.00000
  14132     269.0835      0.00000
  14133     269.0862      0.00000
  14134     269.0934      0.00000
  14135     269.1116      0.00000
  14136     269.1225      0.00000
  14137     269.1443      0.00000
  14138     269.1471      0.00000
  14139     269.1530      0.00000
  14140     269.1759      0.00000
  14141     269.1883      0.00000
  14142     269.1936      0.00000
  14143     269.2034      0.00000
  14144     269.2170      0.00000
  14145     269.2232      0.00000
  14146     269.2394      0.00000
  14147     269.2423      0.00000
  14148     269.2437      0.00000
  14149     269.2595      0.00000
  14150     269.2692      0.00000
  14151     269.2803      0.00000
  14152     269.2915      0.00000
  14153     269.3100      0.00000
  14154     269.3184      0.00000
  14155     269.3418      0.00000
  14156     269.3453      0.00000
  14157     269.3525      0.00000
  14158     269.3597      0.00000
  14159     269.3808      0.00000
  14160     269.3843      0.00000
  14161     269.3971      0.00000
  14162     269.4175      0.00000
  14163     269.4237      0.00000
  14164     269.4361      0.00000
  14165     269.4403      0.00000
  14166     269.4494      0.00000
  14167     269.4614      0.00000
  14168     269.4690      0.00000
  14169     269.4767      0.00000
  14170     269.4786      0.00000
  14171     269.4921      0.00000
  14172     269.5132      0.00000
  14173     269.5175      0.00000
  14174     269.5367      0.00000
  14175     269.5413      0.00000
  14176     269.5577      0.00000
  14177     269.5722      0.00000
  14178     269.5840      0.00000
  14179     269.5867      0.00000
  14180     269.6012      0.00000
  14181     269.6097      0.00000
  14182     269.6191      0.00000
  14183     269.6368      0.00000
  14184     269.6418      0.00000
  14185     269.6597      0.00000
  14186     269.6618      0.00000
  14187     269.6758      0.00000
  14188     269.6871      0.00000
  14189     269.6967      0.00000
  14190     269.7064      0.00000
  14191     269.7201      0.00000
  14192     269.7297      0.00000
  14193     269.7425      0.00000
  14194     269.7476      0.00000
  14195     269.7635      0.00000
  14196     269.7672      0.00000
  14197     269.7780      0.00000
  14198     269.7879      0.00000
  14199     269.7978      0.00000
  14200     269.8078      0.00000
  14201     269.8121      0.00000
  14202     269.8189      0.00000
  14203     269.8367      0.00000
  14204     269.8479      0.00000
  14205     269.8685      0.00000
  14206     269.8710      0.00000
  14207     269.8742      0.00000
  14208     269.8810      0.00000
  14209     269.8984      0.00000
  14210     269.9121      0.00000
  14211     269.9191      0.00000
  14212     269.9314      0.00000
  14213     269.9438      0.00000
  14214     269.9542      0.00000
  14215     269.9736      0.00000
  14216     269.9882      0.00000
  14217     269.9960      0.00000
  14218     270.0100      0.00000
  14219     270.0260      0.00000
  14220     270.0278      0.00000
  14221     270.0414      0.00000
  14222     270.0479      0.00000
  14223     270.0615      0.00000
  14224     270.0805      0.00000
  14225     270.0849      0.00000
  14226     270.0899      0.00000
  14227     270.0987      0.00000
  14228     270.1112      0.00000
  14229     270.1213      0.00000
  14230     270.1339      0.00000
  14231     270.1522      0.00000
  14232     270.1611      0.00000
  14233     270.1734      0.00000
  14234     270.1826      0.00000
  14235     270.1892      0.00000
  14236     270.2075      0.00000
  14237     270.2339      0.00000
  14238     270.2368      0.00000
  14239     270.2395      0.00000
  14240     270.2533      0.00000
  14241     270.2709      0.00000
  14242     270.2800      0.00000
  14243     270.2838      0.00000
  14244     270.3024      0.00000
  14245     270.3076      0.00000
  14246     270.3298      0.00000
  14247     270.3432      0.00000
  14248     270.3552      0.00000
  14249     270.3608      0.00000
  14250     270.3652      0.00000
  14251     270.3787      0.00000
  14252     270.3924      0.00000
  14253     270.4074      0.00000
  14254     270.4132      0.00000
  14255     270.4331      0.00000
  14256     270.4437      0.00000
  14257     270.4527      0.00000
  14258     270.4774      0.00000
  14259     270.4903      0.00000
  14260     270.5010      0.00000
  14261     270.5213      0.00000
  14262     270.5293      0.00000
  14263     270.5305      0.00000
  14264     270.5486      0.00000
  14265     270.5580      0.00000
  14266     270.5683      0.00000
  14267     270.5834      0.00000
  14268     270.5978      0.00000
  14269     270.6045      0.00000
  14270     270.6244      0.00000
  14271     270.6394      0.00000
  14272     270.6525      0.00000
  14273     270.6624      0.00000
  14274     270.6731      0.00000
  14275     270.6841      0.00000
  14276     270.7042      0.00000
  14277     270.7207      0.00000
  14278     270.7279      0.00000
  14279     270.7468      0.00000
  14280     270.7503      0.00000
  14281     270.7740      0.00000
  14282     270.7810      0.00000
  14283     270.7914      0.00000
  14284     270.8003      0.00000
  14285     270.8156      0.00000
  14286     270.8358      0.00000
  14287     270.8464      0.00000
  14288     270.8510      0.00000
  14289     270.8656      0.00000
  14290     270.8740      0.00000
  14291     270.8839      0.00000
  14292     270.8927      0.00000
  14293     270.9028      0.00000
  14294     270.9228      0.00000
  14295     270.9262      0.00000
  14296     270.9425      0.00000
  14297     270.9450      0.00000
  14298     270.9766      0.00000
  14299     271.0053      0.00000
  14300     271.0190      0.00000
  14301     271.0297      0.00000
  14302     271.0330      0.00000
  14303     271.0439      0.00000
  14304     271.0625      0.00000
  14305     271.0642      0.00000
  14306     271.0816      0.00000
  14307     271.1012      0.00000
  14308     271.1027      0.00000
  14309     271.1118      0.00000
  14310     271.1305      0.00000
  14311     271.1389      0.00000
  14312     271.1511      0.00000
  14313     271.1562      0.00000
  14314     271.1765      0.00000
  14315     271.1883      0.00000
  14316     271.2084      0.00000
  14317     271.2114      0.00000
  14318     271.2360      0.00000
  14319     271.2369      0.00000
  14320     271.2663      0.00000
  14321     271.2915      0.00000
  14322     271.2981      0.00000
  14323     271.3139      0.00000
  14324     271.3250      0.00000
  14325     271.3403      0.00000
  14326     271.3527      0.00000
  14327     271.3656      0.00000
  14328     271.3724      0.00000
  14329     271.3818      0.00000
  14330     271.3991      0.00000
  14331     271.4291      0.00000
  14332     271.4362      0.00000
  14333     271.4540      0.00000
  14334     271.4708      0.00000
  14335     271.4906      0.00000
  14336     271.4970      0.00000
  14337     271.5025      0.00000
  14338     271.5195      0.00000
  14339     271.5292      0.00000
  14340     271.5347      0.00000
  14341     271.5454      0.00000
  14342     271.5591      0.00000
  14343     271.5773      0.00000
  14344     271.5876      0.00000
  14345     271.5938      0.00000
  14346     271.6170      0.00000
  14347     271.6346      0.00000
  14348     271.6583      0.00000
  14349     271.6689      0.00000
  14350     271.6808      0.00000
  14351     271.6962      0.00000
  14352     271.7032      0.00000
  14353     271.7311      0.00000
  14354     271.7540      0.00000
  14355     271.7583      0.00000
  14356     271.7695      0.00000
  14357     271.7741      0.00000
  14358     271.7919      0.00000
  14359     271.7952      0.00000
  14360     271.8212      0.00000
  14361     271.8341      0.00000
  14362     271.8435      0.00000
  14363     271.8589      0.00000
  14364     271.8630      0.00000
  14365     271.8697      0.00000
  14366     271.8735      0.00000
  14367     271.8921      0.00000
  14368     271.9105      0.00000
  14369     271.9374      0.00000
  14370     271.9494      0.00000
  14371     271.9620      0.00000
  14372     271.9663      0.00000
  14373     271.9772      0.00000
  14374     272.0136      0.00000
  14375     272.0167      0.00000
  14376     272.0347      0.00000
  14377     272.0405      0.00000
  14378     272.0576      0.00000
  14379     272.0696      0.00000
  14380     272.0924      0.00000
  14381     272.0948      0.00000
  14382     272.1042      0.00000
  14383     272.1258      0.00000
  14384     272.1354      0.00000
  14385     272.1561      0.00000
  14386     272.1693      0.00000
  14387     272.1901      0.00000
  14388     272.2141      0.00000
  14389     272.2286      0.00000
  14390     272.2407      0.00000
  14391     272.2628      0.00000
  14392     272.2679      0.00000
  14393     272.2845      0.00000
  14394     272.2927      0.00000
  14395     272.3054      0.00000
  14396     272.3097      0.00000
  14397     272.3316      0.00000
  14398     272.3337      0.00000
  14399     272.3424      0.00000
  14400     272.3640      0.00000
  14401     272.4027      0.00000
  14402     272.4101      0.00000
  14403     272.4131      0.00000
  14404     272.4413      0.00000
  14405     272.4575      0.00000
  14406     272.4719      0.00000
  14407     272.4830      0.00000
  14408     272.4850      0.00000
  14409     272.5073      0.00000
  14410     272.5178      0.00000
  14411     272.5485      0.00000
  14412     272.5546      0.00000
  14413     272.5558      0.00000
  14414     272.5745      0.00000
  14415     272.5929      0.00000
  14416     272.6002      0.00000
  14417     272.6151      0.00000
  14418     272.6326      0.00000
  14419     272.6361      0.00000
  14420     272.6501      0.00000
  14421     272.6600      0.00000
  14422     272.6996      0.00000
  14423     272.7023      0.00000
  14424     272.7118      0.00000
  14425     272.7156      0.00000
  14426     272.7313      0.00000
  14427     272.7590      0.00000
  14428     272.7674      0.00000
  14429     272.7972      0.00000
  14430     272.8009      0.00000
  14431     272.8030      0.00000
  14432     272.8126      0.00000
  14433     272.8254      0.00000
  14434     272.8495      0.00000
  14435     272.8576      0.00000
  14436     272.8722      0.00000
  14437     272.8766      0.00000
  14438     272.8899      0.00000
  14439     272.9011      0.00000
  14440     272.9075      0.00000
  14441     272.9224      0.00000
  14442     272.9401      0.00000
  14443     272.9476      0.00000
  14444     272.9498      0.00000
  14445     272.9740      0.00000
  14446     272.9882      0.00000
  14447     272.9973      0.00000
  14448     273.0132      0.00000
  14449     273.0372      0.00000
  14450     273.0670      0.00000
  14451     273.0889      0.00000
  14452     273.1050      0.00000
  14453     273.1081      0.00000
  14454     273.1156      0.00000
  14455     273.1229      0.00000
  14456     273.1266      0.00000
  14457     273.1364      0.00000
  14458     273.1540      0.00000
  14459     273.1650      0.00000
  14460     273.1784      0.00000
  14461     273.1990      0.00000
  14462     273.2023      0.00000
  14463     273.2233      0.00000
  14464     273.2303      0.00000
  14465     273.2503      0.00000
  14466     273.2528      0.00000
  14467     273.2647      0.00000
  14468     273.2693      0.00000
  14469     273.2773      0.00000
  14470     273.3065      0.00000
  14471     273.3131      0.00000
  14472     273.3174      0.00000
  14473     273.3295      0.00000
  14474     273.3494      0.00000
  14475     273.3561      0.00000
  14476     273.3816      0.00000
  14477     273.4119      0.00000
  14478     273.4254      0.00000
  14479     273.4324      0.00000
  14480     273.4406      0.00000
  14481     273.4572      0.00000
  14482     273.4655      0.00000
  14483     273.4716      0.00000
  14484     273.4833      0.00000
  14485     273.5015      0.00000
  14486     273.5051      0.00000
  14487     273.5231      0.00000
  14488     273.5416      0.00000
  14489     273.5543      0.00000
  14490     273.5701      0.00000
  14491     273.5831      0.00000
  14492     273.5917      0.00000
  14493     273.6129      0.00000
  14494     273.6220      0.00000
  14495     273.6389      0.00000
  14496     273.6635      0.00000
  14497     273.6727      0.00000
  14498     273.6871      0.00000
  14499     273.7036      0.00000
  14500     273.7048      0.00000
  14501     273.7324      0.00000
  14502     273.7392      0.00000
  14503     273.7634      0.00000
  14504     273.7807      0.00000
  14505     273.7916      0.00000
  14506     273.8020      0.00000
  14507     273.8168      0.00000
  14508     273.8234      0.00000
  14509     273.8344      0.00000
  14510     273.8487      0.00000
  14511     273.8551      0.00000
  14512     273.8662      0.00000
  14513     273.8732      0.00000
  14514     273.9005      0.00000
  14515     273.9123      0.00000
  14516     273.9296      0.00000
  14517     273.9490      0.00000
  14518     273.9504      0.00000
  14519     273.9606      0.00000
  14520     273.9718      0.00000
  14521     273.9870      0.00000
  14522     274.0010      0.00000
  14523     274.0138      0.00000
  14524     274.0256      0.00000
  14525     274.0386      0.00000
  14526     274.0620      0.00000
  14527     274.0753      0.00000
  14528     274.1016      0.00000
  14529     274.1096      0.00000
  14530     274.1218      0.00000
  14531     274.1276      0.00000
  14532     274.1394      0.00000
  14533     274.1564      0.00000
  14534     274.1590      0.00000
  14535     274.1762      0.00000
  14536     274.1811      0.00000
  14537     274.1944      0.00000
  14538     274.2124      0.00000
  14539     274.2270      0.00000
  14540     274.2488      0.00000
  14541     274.2565      0.00000
  14542     274.2678      0.00000
  14543     274.2789      0.00000
  14544     274.2845      0.00000
  14545     274.3103      0.00000
  14546     274.3325      0.00000
  14547     274.3457      0.00000
  14548     274.3722      0.00000
  14549     274.3874      0.00000
  14550     274.3926      0.00000
  14551     274.4058      0.00000
  14552     274.4168      0.00000
  14553     274.4386      0.00000
  14554     274.4461      0.00000
  14555     274.4548      0.00000
  14556     274.4634      0.00000
  14557     274.4930      0.00000
  14558     274.5105      0.00000
  14559     274.5226      0.00000
  14560     274.5439      0.00000
  14561     274.5571      0.00000
  14562     274.5716      0.00000
  14563     274.5853      0.00000
  14564     274.5949      0.00000
  14565     274.6014      0.00000
  14566     274.6113      0.00000
  14567     274.6157      0.00000
  14568     274.6401      0.00000
  14569     274.6412      0.00000
  14570     274.6605      0.00000
  14571     274.6721      0.00000
  14572     274.6986      0.00000
  14573     274.7096      0.00000
  14574     274.7137      0.00000
  14575     274.7328      0.00000
  14576     274.7416      0.00000
  14577     274.7605      0.00000
  14578     274.7696      0.00000
  14579     274.7856      0.00000
  14580     274.7961      0.00000
  14581     274.8067      0.00000
  14582     274.8254      0.00000
  14583     274.8511      0.00000
  14584     274.8606      0.00000
  14585     274.8696      0.00000
  14586     274.8953      0.00000
  14587     274.9092      0.00000
  14588     274.9119      0.00000
  14589     274.9294      0.00000
  14590     274.9486      0.00000
  14591     274.9579      0.00000
  14592     274.9790      0.00000
  14593     274.9989      0.00000
  14594     275.0052      0.00000
  14595     275.0186      0.00000
  14596     275.0312      0.00000
  14597     275.0477      0.00000
  14598     275.0600      0.00000
  14599     275.0675      0.00000
  14600     275.0868      0.00000
  14601     275.0957      0.00000
  14602     275.1096      0.00000
  14603     275.1155      0.00000
  14604     275.1421      0.00000
  14605     275.1517      0.00000
  14606     275.1706      0.00000
  14607     275.1736      0.00000
  14608     275.1929      0.00000
  14609     275.2086      0.00000
  14610     275.2146      0.00000
  14611     275.2343      0.00000
  14612     275.2497      0.00000
  14613     275.2610      0.00000
  14614     275.2796      0.00000
  14615     275.2986      0.00000
  14616     275.3057      0.00000
  14617     275.3115      0.00000
  14618     275.3304      0.00000
  14619     275.3445      0.00000
  14620     275.3533      0.00000
  14621     275.3772      0.00000
  14622     275.3967      0.00000
  14623     275.4008      0.00000
  14624     275.4184      0.00000
  14625     275.4260      0.00000
  14626     275.4400      0.00000
  14627     275.4616      0.00000
  14628     275.4734      0.00000
  14629     275.4979      0.00000
  14630     275.5004      0.00000
  14631     275.5307      0.00000
  14632     275.5357      0.00000
  14633     275.5530      0.00000
  14634     275.5650      0.00000
  14635     275.5757      0.00000
  14636     275.5961      0.00000
  14637     275.5997      0.00000
  14638     275.6178      0.00000
  14639     275.6325      0.00000
  14640     275.6381      0.00000
  14641     275.6550      0.00000
  14642     275.6689      0.00000
  14643     275.6764      0.00000
  14644     275.7051      0.00000
  14645     275.7140      0.00000
  14646     275.7234      0.00000
  14647     275.7440      0.00000
  14648     275.7607      0.00000
  14649     275.7682      0.00000
  14650     275.7919      0.00000
  14651     275.8021      0.00000
  14652     275.8190      0.00000
  14653     275.8237      0.00000
  14654     275.8497      0.00000
  14655     275.8527      0.00000
  14656     275.8670      0.00000
  14657     275.8786      0.00000
  14658     275.8832      0.00000
  14659     275.9009      0.00000
  14660     275.9276      0.00000
  14661     275.9393      0.00000
  14662     275.9462      0.00000
  14663     275.9597      0.00000
  14664     275.9659      0.00000
  14665     275.9754      0.00000
  14666     275.9837      0.00000
  14667     276.0017      0.00000
  14668     276.0231      0.00000
  14669     276.0328      0.00000
  14670     276.0374      0.00000
  14671     276.0541      0.00000
  14672     276.0820      0.00000
  14673     276.0882      0.00000
  14674     276.0929      0.00000
  14675     276.1005      0.00000
  14676     276.1129      0.00000
  14677     276.1239      0.00000
  14678     276.1525      0.00000
  14679     276.1687      0.00000
  14680     276.1827      0.00000
  14681     276.1900      0.00000
  14682     276.2215      0.00000
  14683     276.2247      0.00000
  14684     276.2317      0.00000
  14685     276.2421      0.00000
  14686     276.2508      0.00000
  14687     276.2562      0.00000
  14688     276.2679      0.00000
  14689     276.2756      0.00000
  14690     276.2951      0.00000
  14691     276.3030      0.00000
  14692     276.3223      0.00000
  14693     276.3280      0.00000
  14694     276.3432      0.00000
  14695     276.3468      0.00000
  14696     276.3616      0.00000
  14697     276.3834      0.00000
  14698     276.4017      0.00000
  14699     276.4209      0.00000
  14700     276.4416      0.00000
  14701     276.4472      0.00000
  14702     276.4570      0.00000
  14703     276.4643      0.00000
  14704     276.4691      0.00000
  14705     276.4886      0.00000
  14706     276.4926      0.00000
  14707     276.4981      0.00000
  14708     276.5254      0.00000
  14709     276.5432      0.00000
  14710     276.5643      0.00000
  14711     276.5654      0.00000
  14712     276.5712      0.00000
  14713     276.5906      0.00000
  14714     276.5950      0.00000
  14715     276.6144      0.00000
  14716     276.6236      0.00000
  14717     276.6380      0.00000
  14718     276.6465      0.00000
  14719     276.6530      0.00000
  14720     276.6747      0.00000
  14721     276.6802      0.00000
  14722     276.6876      0.00000
  14723     276.6977      0.00000
  14724     276.7194      0.00000
  14725     276.7448      0.00000
  14726     276.7471      0.00000
  14727     276.7547      0.00000
  14728     276.7725      0.00000
  14729     276.7880      0.00000
  14730     276.8036      0.00000
  14731     276.8129      0.00000
  14732     276.8241      0.00000
  14733     276.8337      0.00000
  14734     276.8459      0.00000
  14735     276.8698      0.00000
  14736     276.8705      0.00000
  14737     276.8860      0.00000
  14738     276.8999      0.00000
  14739     276.9108      0.00000
  14740     276.9155      0.00000
  14741     276.9347      0.00000
  14742     276.9415      0.00000
  14743     276.9470      0.00000
  14744     276.9653      0.00000
  14745     276.9778      0.00000
  14746     276.9915      0.00000
  14747     277.0036      0.00000
  14748     277.0235      0.00000
  14749     277.0355      0.00000
  14750     277.0487      0.00000
  14751     277.0616      0.00000
  14752     277.0661      0.00000
  14753     277.0919      0.00000
  14754     277.0976      0.00000
  14755     277.1043      0.00000
  14756     277.1117      0.00000
  14757     277.1387      0.00000
  14758     277.1398      0.00000
  14759     277.1668      0.00000
  14760     277.1772      0.00000
  14761     277.1918      0.00000
  14762     277.2022      0.00000
  14763     277.2319      0.00000
  14764     277.2360      0.00000
  14765     277.2387      0.00000
  14766     277.2570      0.00000
  14767     277.2718      0.00000
  14768     277.2895      0.00000
  14769     277.2899      0.00000
  14770     277.3125      0.00000
  14771     277.3159      0.00000
  14772     277.3276      0.00000
  14773     277.3364      0.00000
  14774     277.3475      0.00000
  14775     277.3658      0.00000
  14776     277.3771      0.00000
  14777     277.3799      0.00000
  14778     277.4033      0.00000
  14779     277.4179      0.00000
  14780     277.4267      0.00000
  14781     277.4413      0.00000
  14782     277.4526      0.00000
  14783     277.4634      0.00000
  14784     277.4812      0.00000
  14785     277.4848      0.00000
  14786     277.5030      0.00000
  14787     277.5155      0.00000
  14788     277.5189      0.00000
  14789     277.5294      0.00000
  14790     277.5431      0.00000
  14791     277.5610      0.00000
  14792     277.5633      0.00000
  14793     277.5978      0.00000
  14794     277.6086      0.00000
  14795     277.6165      0.00000
  14796     277.6195      0.00000
  14797     277.6351      0.00000
  14798     277.6542      0.00000
  14799     277.6750      0.00000
  14800     277.6770      0.00000
  14801     277.6918      0.00000
  14802     277.7031      0.00000
  14803     277.7166      0.00000
  14804     277.7194      0.00000
  14805     277.7375      0.00000
  14806     277.7576      0.00000
  14807     277.7612      0.00000
  14808     277.7759      0.00000
  14809     277.7919      0.00000
  14810     277.8062      0.00000
  14811     277.8219      0.00000
  14812     277.8243      0.00000
  14813     277.8456      0.00000
  14814     277.8483      0.00000
  14815     277.8694      0.00000
  14816     277.8747      0.00000
  14817     277.8786      0.00000
  14818     277.9107      0.00000
  14819     277.9124      0.00000
  14820     277.9317      0.00000
  14821     277.9363      0.00000
  14822     277.9492      0.00000
  14823     277.9749      0.00000
  14824     277.9768      0.00000
  14825     277.9936      0.00000
  14826     278.0017      0.00000
  14827     278.0132      0.00000
  14828     278.0245      0.00000
  14829     278.0324      0.00000
  14830     278.0502      0.00000
  14831     278.0584      0.00000
  14832     278.0822      0.00000
  14833     278.0940      0.00000
  14834     278.1017      0.00000
  14835     278.1062      0.00000
  14836     278.1247      0.00000
  14837     278.1334      0.00000
  14838     278.1480      0.00000
  14839     278.1668      0.00000
  14840     278.1739      0.00000
  14841     278.1844      0.00000
  14842     278.1947      0.00000
  14843     278.2021      0.00000
  14844     278.2133      0.00000
  14845     278.2307      0.00000
  14846     278.2378      0.00000
  14847     278.2456      0.00000
  14848     278.2595      0.00000
  14849     278.2622      0.00000
  14850     278.2797      0.00000
  14851     278.2891      0.00000
  14852     278.3039      0.00000
  14853     278.3122      0.00000
  14854     278.3321      0.00000
  14855     278.3407      0.00000
  14856     278.3507      0.00000
  14857     278.3628      0.00000
  14858     278.3704      0.00000
  14859     278.3998      0.00000
  14860     278.4058      0.00000
  14861     278.4298      0.00000
  14862     278.4479      0.00000
  14863     278.4537      0.00000
  14864     278.4711      0.00000
  14865     278.4752      0.00000
  14866     278.5113      0.00000
  14867     278.5193      0.00000
  14868     278.5238      0.00000
  14869     278.5346      0.00000
  14870     278.5443      0.00000
  14871     278.5558      0.00000
  14872     278.5598      0.00000
  14873     278.5708      0.00000
  14874     278.5912      0.00000
  14875     278.5932      0.00000
  14876     278.6098      0.00000
  14877     278.6159      0.00000
  14878     278.6240      0.00000
  14879     278.6489      0.00000
  14880     278.6596      0.00000
  14881     278.6676      0.00000
  14882     278.6846      0.00000
  14883     278.6916      0.00000
  14884     278.7014      0.00000
  14885     278.7064      0.00000
  14886     278.7151      0.00000
  14887     278.7248      0.00000
  14888     278.7412      0.00000
  14889     278.7564      0.00000
  14890     278.7574      0.00000
  14891     278.7625      0.00000
  14892     278.7854      0.00000
  14893     278.8048      0.00000
  14894     278.8172      0.00000
  14895     278.8237      0.00000
  14896     278.8372      0.00000
  14897     278.8383      0.00000
  14898     278.8504      0.00000
  14899     278.8693      0.00000
  14900     278.8729      0.00000
  14901     278.8798      0.00000
  14902     278.8994      0.00000
  14903     278.9132      0.00000
  14904     278.9236      0.00000
  14905     278.9291      0.00000
  14906     278.9374      0.00000
  14907     278.9503      0.00000
  14908     278.9574      0.00000
  14909     278.9706      0.00000
  14910     278.9851      0.00000
  14911     278.9895      0.00000
  14912     279.0062      0.00000
  14913     279.0140      0.00000
  14914     279.0262      0.00000
  14915     279.0406      0.00000
  14916     279.0561      0.00000
  14917     279.0752      0.00000
  14918     279.0811      0.00000
  14919     279.0874      0.00000
  14920     279.1087      0.00000
  14921     279.1158      0.00000
  14922     279.1301      0.00000
  14923     279.1439      0.00000
  14924     279.1531      0.00000
  14925     279.1568      0.00000
  14926     279.1772      0.00000
  14927     279.1871      0.00000
  14928     279.1963      0.00000
  14929     279.1988      0.00000
  14930     279.2133      0.00000
  14931     279.2199      0.00000
  14932     279.2323      0.00000
  14933     279.2462      0.00000
  14934     279.2674      0.00000
  14935     279.2727      0.00000
  14936     279.2845      0.00000
  14937     279.2966      0.00000
  14938     279.3088      0.00000
  14939     279.3279      0.00000
  14940     279.3427      0.00000
  14941     279.3521      0.00000
  14942     279.3568      0.00000
  14943     279.3739      0.00000
  14944     279.3842      0.00000
  14945     279.3913      0.00000
  14946     279.3998      0.00000
  14947     279.4238      0.00000
  14948     279.4297      0.00000
  14949     279.4410      0.00000
  14950     279.4479      0.00000
  14951     279.4820      0.00000
  14952     279.4873      0.00000
  14953     279.4992      0.00000
  14954     279.5053      0.00000
  14955     279.5194      0.00000
  14956     279.5230      0.00000
  14957     279.5390      0.00000
  14958     279.5463      0.00000
  14959     279.5491      0.00000
  14960     279.5621      0.00000
  14961     279.5743      0.00000
  14962     279.5802      0.00000
  14963     279.5917      0.00000
  14964     279.6093      0.00000
  14965     279.6226      0.00000
  14966     279.6239      0.00000
  14967     279.6402      0.00000
  14968     279.6531      0.00000
  14969     279.6626      0.00000
  14970     279.7017      0.00000
  14971     279.7113      0.00000
  14972     279.7154      0.00000
  14973     279.7383      0.00000
  14974     279.7420      0.00000
  14975     279.7472      0.00000
  14976     279.7775      0.00000
  14977     279.7816      0.00000
  14978     279.7975      0.00000
  14979     279.8023      0.00000
  14980     279.8174      0.00000
  14981     279.8202      0.00000
  14982     279.8332      0.00000
  14983     279.8382      0.00000
  14984     279.8579      0.00000
  14985     279.8599      0.00000
  14986     279.8777      0.00000
  14987     279.9020      0.00000
  14988     279.9085      0.00000
  14989     279.9193      0.00000
  14990     279.9377      0.00000
  14991     279.9441      0.00000
  14992     279.9573      0.00000
  14993     279.9718      0.00000
  14994     279.9916      0.00000
  14995     279.9997      0.00000
  14996     280.0074      0.00000
  14997     280.0173      0.00000
  14998     280.0293      0.00000
  14999     280.0405      0.00000
  15000     280.0640      0.00000
  15001     280.0668      0.00000
  15002     280.0742      0.00000
  15003     280.0796      0.00000
  15004     280.1021      0.00000
  15005     280.1107      0.00000
  15006     280.1152      0.00000
  15007     280.1427      0.00000
  15008     280.1515      0.00000
  15009     280.1619      0.00000
  15010     280.1682      0.00000
  15011     280.1779      0.00000
  15012     280.1817      0.00000
  15013     280.2039      0.00000
  15014     280.2141      0.00000
  15015     280.2291      0.00000
  15016     280.2398      0.00000
  15017     280.2520      0.00000
  15018     280.2645      0.00000
  15019     280.2822      0.00000
  15020     280.2886      0.00000
  15021     280.2923      0.00000
  15022     280.3161      0.00000
  15023     280.3320      0.00000
  15024     280.3355      0.00000
  15025     280.3540      0.00000
  15026     280.3616      0.00000
  15027     280.3696      0.00000
  15028     280.3746      0.00000
  15029     280.3878      0.00000
  15030     280.4049      0.00000
  15031     280.4097      0.00000
  15032     280.4162      0.00000
  15033     280.4458      0.00000
  15034     280.4532      0.00000
  15035     280.4643      0.00000
  15036     280.4695      0.00000
  15037     280.4820      0.00000
  15038     280.5019      0.00000
  15039     280.5074      0.00000
  15040     280.5233      0.00000
  15041     280.5254      0.00000
  15042     280.5451      0.00000
  15043     280.5546      0.00000
  15044     280.5681      0.00000
  15045     280.5893      0.00000
  15046     280.5991      0.00000
  15047     280.6171      0.00000
  15048     280.6353      0.00000
  15049     280.6399      0.00000
  15050     280.6465      0.00000
  15051     280.6569      0.00000
  15052     280.6680      0.00000
  15053     280.6757      0.00000
  15054     280.6829      0.00000
  15055     280.6951      0.00000
  15056     280.7031      0.00000
  15057     280.7116      0.00000
  15058     280.7371      0.00000
  15059     280.7495      0.00000
  15060     280.7566      0.00000
  15061     280.7664      0.00000
  15062     280.7723      0.00000
  15063     280.7802      0.00000
  15064     280.7989      0.00000
  15065     280.8119      0.00000
  15066     280.8204      0.00000
  15067     280.8322      0.00000
  15068     280.8366      0.00000
  15069     280.8484      0.00000
  15070     280.8604      0.00000
  15071     280.8749      0.00000
  15072     280.8902      0.00000
  15073     280.9068      0.00000
  15074     280.9218      0.00000
  15075     280.9338      0.00000
  15076     280.9381      0.00000
  15077     280.9613      0.00000
  15078     280.9785      0.00000
  15079     280.9850      0.00000
  15080     280.9943      0.00000
  15081     281.0129      0.00000
  15082     281.0183      0.00000
  15083     281.0337      0.00000
  15084     281.0432      0.00000
  15085     281.0672      0.00000
  15086     281.0743      0.00000
  15087     281.0924      0.00000
  15088     281.1016      0.00000
  15089     281.1141      0.00000
  15090     281.1290      0.00000
  15091     281.1396      0.00000
  15092     281.1433      0.00000
  15093     281.1670      0.00000
  15094     281.1761      0.00000
  15095     281.1891      0.00000
  15096     281.2038      0.00000
  15097     281.2120      0.00000
  15098     281.2206      0.00000
  15099     281.2348      0.00000
  15100     281.2426      0.00000
  15101     281.2590      0.00000
  15102     281.2631      0.00000
  15103     281.2877      0.00000
  15104     281.2967      0.00000
  15105     281.3109      0.00000
  15106     281.3122      0.00000
  15107     281.3250      0.00000
  15108     281.3501      0.00000
  15109     281.3551      0.00000
  15110     281.3802      0.00000
  15111     281.3885      0.00000
  15112     281.4230      0.00000
  15113     281.4382      0.00000
  15114     281.4442      0.00000
  15115     281.4490      0.00000
  15116     281.4581      0.00000
  15117     281.4714      0.00000
  15118     281.4813      0.00000
  15119     281.4945      0.00000
  15120     281.5107      0.00000
  15121     281.5130      0.00000
  15122     281.5441      0.00000
  15123     281.5535      0.00000
  15124     281.5583      0.00000
  15125     281.5673      0.00000
  15126     281.5823      0.00000
  15127     281.5967      0.00000
  15128     281.6079      0.00000
  15129     281.6262      0.00000
  15130     281.6357      0.00000
  15131     281.6457      0.00000
  15132     281.6687      0.00000
  15133     281.6849      0.00000
  15134     281.7144      0.00000
  15135     281.7211      0.00000
  15136     281.7286      0.00000
  15137     281.7418      0.00000
  15138     281.7491      0.00000
  15139     281.7625      0.00000
  15140     281.7763      0.00000
  15141     281.7905      0.00000
  15142     281.8106      0.00000
  15143     281.8240      0.00000
  15144     281.8285      0.00000
  15145     281.8610      0.00000
  15146     281.8720      0.00000
  15147     281.8957      0.00000
  15148     281.9036      0.00000
  15149     281.9064      0.00000
  15150     281.9268      0.00000
  15151     281.9428      0.00000
  15152     281.9539      0.00000
  15153     281.9656      0.00000
  15154     281.9848      0.00000
  15155     282.0003      0.00000
  15156     282.0031      0.00000
  15157     282.0269      0.00000
  15158     282.0365      0.00000
  15159     282.0462      0.00000
  15160     282.0540      0.00000
  15161     282.0674      0.00000
  15162     282.0789      0.00000
  15163     282.0875      0.00000
  15164     282.1040      0.00000
  15165     282.1086      0.00000
  15166     282.1213      0.00000
  15167     282.1422      0.00000
  15168     282.1477      0.00000
  15169     282.1586      0.00000
  15170     282.1871      0.00000
  15171     282.1878      0.00000
  15172     282.2020      0.00000
  15173     282.2246      0.00000
  15174     282.2363      0.00000
  15175     282.2430      0.00000
  15176     282.2467      0.00000
  15177     282.2738      0.00000
  15178     282.2856      0.00000
  15179     282.2908      0.00000
  15180     282.3046      0.00000
  15181     282.3189      0.00000
  15182     282.3331      0.00000
  15183     282.3492      0.00000
  15184     282.3579      0.00000
  15185     282.3671      0.00000
  15186     282.3858      0.00000
  15187     282.4016      0.00000
  15188     282.4216      0.00000
  15189     282.4375      0.00000
  15190     282.4444      0.00000
  15191     282.4610      0.00000
  15192     282.4711      0.00000
  15193     282.4894      0.00000
  15194     282.4948      0.00000
  15195     282.5078      0.00000
  15196     282.5221      0.00000
  15197     282.5324      0.00000
  15198     282.5512      0.00000
  15199     282.5572      0.00000
  15200     282.5825      0.00000
  15201     282.5910      0.00000
  15202     282.5970      0.00000
  15203     282.6210      0.00000
  15204     282.6296      0.00000
  15205     282.6392      0.00000
  15206     282.6513      0.00000
  15207     282.6651      0.00000
  15208     282.6894      0.00000
  15209     282.6934      0.00000
  15210     282.7064      0.00000
  15211     282.7160      0.00000
  15212     282.7225      0.00000
  15213     282.7401      0.00000
  15214     282.7632      0.00000
  15215     282.7739      0.00000
  15216     282.7848      0.00000
  15217     282.7914      0.00000
  15218     282.8146      0.00000
  15219     282.8180      0.00000
  15220     282.8310      0.00000
  15221     282.8580      0.00000
  15222     282.8746      0.00000
  15223     282.8782      0.00000
  15224     282.8950      0.00000
  15225     282.9152      0.00000
  15226     282.9274      0.00000
  15227     282.9291      0.00000
  15228     282.9357      0.00000
  15229     282.9617      0.00000
  15230     282.9726      0.00000
  15231     282.9841      0.00000
  15232     283.0126      0.00000
  15233     283.0239      0.00000
  15234     283.0281      0.00000
  15235     283.0395      0.00000
  15236     283.0508      0.00000
  15237     283.0642      0.00000
  15238     283.0762      0.00000
  15239     283.0983      0.00000
  15240     283.1012      0.00000
  15241     283.1136      0.00000
  15242     283.1352      0.00000
  15243     283.1413      0.00000
  15244     283.1536      0.00000
  15245     283.1693      0.00000
  15246     283.1826      0.00000
  15247     283.1996      0.00000
  15248     283.2084      0.00000
  15249     283.2217      0.00000
  15250     283.2469      0.00000
  15251     283.2540      0.00000
  15252     283.2624      0.00000
  15253     283.2746      0.00000
  15254     283.2946      0.00000
  15255     283.3032      0.00000
  15256     283.3113      0.00000
  15257     283.3329      0.00000
  15258     283.3397      0.00000
  15259     283.3545      0.00000
  15260     283.3713      0.00000
  15261     283.3815      0.00000
  15262     283.3929      0.00000
  15263     283.4088      0.00000
  15264     283.4203      0.00000
  15265     283.4272      0.00000
  15266     283.4422      0.00000
  15267     283.4562      0.00000
  15268     283.4970      0.00000
  15269     283.5009      0.00000
  15270     283.5065      0.00000
  15271     283.5118      0.00000
  15272     283.5247      0.00000
  15273     283.5448      0.00000
  15274     283.5544      0.00000
  15275     283.5777      0.00000
  15276     283.5930      0.00000
  15277     283.6117      0.00000
  15278     283.6298      0.00000
  15279     283.6362      0.00000
  15280     283.6467      0.00000
  15281     283.6531      0.00000
  15282     283.6649      0.00000
  15283     283.6703      0.00000
  15284     283.6825      0.00000
  15285     283.6942      0.00000
  15286     283.7077      0.00000
  15287     283.7165      0.00000
  15288     283.7341      0.00000
  15289     283.7468      0.00000
  15290     283.7619      0.00000
  15291     283.7717      0.00000
  15292     283.7757      0.00000
  15293     283.7912      0.00000
  15294     283.8143      0.00000
  15295     283.8240      0.00000
  15296     283.8446      0.00000
  15297     283.8473      0.00000
  15298     283.8570      0.00000
  15299     283.8747      0.00000
  15300     283.8834      0.00000
  15301     283.8995      0.00000
  15302     283.9135      0.00000
  15303     283.9272      0.00000
  15304     283.9386      0.00000
  15305     283.9449      0.00000
  15306     283.9642      0.00000
  15307     283.9764      0.00000
  15308     283.9791      0.00000
  15309     283.9994      0.00000
  15310     284.0064      0.00000
  15311     284.0192      0.00000
  15312     284.0242      0.00000
  15313     284.0386      0.00000
  15314     284.0473      0.00000
  15315     284.0577      0.00000
  15316     284.0829      0.00000
  15317     284.0868      0.00000
  15318     284.0918      0.00000
  15319     284.1256      0.00000
  15320     284.1314      0.00000
  15321     284.1482      0.00000
  15322     284.1544      0.00000
  15323     284.1643      0.00000
  15324     284.1688      0.00000
  15325     284.1776      0.00000
  15326     284.2091      0.00000
  15327     284.2197      0.00000
  15328     284.2247      0.00000
  15329     284.2307      0.00000
  15330     284.2442      0.00000
  15331     284.2626      0.00000
  15332     284.2671      0.00000
  15333     284.2865      0.00000
  15334     284.3069      0.00000
  15335     284.3116      0.00000
  15336     284.3208      0.00000
  15337     284.3412      0.00000
  15338     284.3525      0.00000
  15339     284.3543      0.00000
  15340     284.3625      0.00000
  15341     284.3741      0.00000
  15342     284.3803      0.00000
  15343     284.3907      0.00000
  15344     284.4022      0.00000
  15345     284.4121      0.00000
  15346     284.4180      0.00000
  15347     284.4344      0.00000
  15348     284.4447      0.00000
  15349     284.4655      0.00000
  15350     284.4725      0.00000
  15351     284.4852      0.00000
  15352     284.4972      0.00000
  15353     284.5039      0.00000
  15354     284.5184      0.00000
  15355     284.5417      0.00000
  15356     284.5437      0.00000
  15357     284.5522      0.00000
  15358     284.5729      0.00000
  15359     284.5804      0.00000
  15360     284.6030      0.00000
  15361     284.6071      0.00000
  15362     284.6204      0.00000
  15363     284.6330      0.00000
  15364     284.6398      0.00000
  15365     284.6469      0.00000
  15366     284.6629      0.00000
  15367     284.6662      0.00000
  15368     284.6787      0.00000
  15369     284.6894      0.00000
  15370     284.7013      0.00000
  15371     284.7015      0.00000
  15372     284.7217      0.00000
  15373     284.7338      0.00000
  15374     284.7377      0.00000
  15375     284.7577      0.00000
  15376     284.7710      0.00000
  15377     284.7866      0.00000
  15378     284.8026      0.00000
  15379     284.8094      0.00000
  15380     284.8233      0.00000
  15381     284.8299      0.00000
  15382     284.8497      0.00000
  15383     284.8611      0.00000
  15384     284.8747      0.00000
  15385     284.8816      0.00000
  15386     284.8895      0.00000
  15387     284.8991      0.00000
  15388     284.9188      0.00000
  15389     284.9307      0.00000
  15390     284.9447      0.00000
  15391     284.9573      0.00000
  15392     284.9691      0.00000
  15393     284.9779      0.00000
  15394     284.9857      0.00000
  15395     284.9977      0.00000
  15396     285.0182      0.00000
  15397     285.0304      0.00000
  15398     285.0366      0.00000
  15399     285.0403      0.00000
  15400     285.0566      0.00000
  15401     285.0650      0.00000
  15402     285.0781      0.00000
  15403     285.0892      0.00000
  15404     285.0981      0.00000
  15405     285.1323      0.00000
  15406     285.1513      0.00000
  15407     285.1569      0.00000
  15408     285.1752      0.00000
  15409     285.1836      0.00000
  15410     285.1906      0.00000
  15411     285.2086      0.00000
  15412     285.2156      0.00000
  15413     285.2207      0.00000
  15414     285.2303      0.00000
  15415     285.2449      0.00000
  15416     285.2621      0.00000
  15417     285.2660      0.00000
  15418     285.2745      0.00000
  15419     285.2950      0.00000
  15420     285.3195      0.00000
  15421     285.3298      0.00000
  15422     285.3338      0.00000
  15423     285.3454      0.00000
  15424     285.3510      0.00000
  15425     285.3612      0.00000
  15426     285.3721      0.00000
  15427     285.3879      0.00000
  15428     285.3966      0.00000
  15429     285.4062      0.00000
  15430     285.4148      0.00000
  15431     285.4387      0.00000
  15432     285.4470      0.00000
  15433     285.4562      0.00000
  15434     285.4767      0.00000
  15435     285.4827      0.00000
  15436     285.4963      0.00000
  15437     285.5040      0.00000
  15438     285.5118      0.00000
  15439     285.5312      0.00000
  15440     285.5400      0.00000
  15441     285.5494      0.00000
  15442     285.5589      0.00000
  15443     285.5677      0.00000
  15444     285.5858      0.00000
  15445     285.5934      0.00000
  15446     285.6015      0.00000
  15447     285.6210      0.00000
  15448     285.6328      0.00000
  15449     285.6503      0.00000
  15450     285.6537      0.00000
  15451     285.6664      0.00000
  15452     285.6847      0.00000
  15453     285.7009      0.00000
  15454     285.7114      0.00000
  15455     285.7159      0.00000
  15456     285.7214      0.00000
  15457     285.7436      0.00000
  15458     285.7601      0.00000
  15459     285.7680      0.00000
  15460     285.7708      0.00000
  15461     285.7746      0.00000
  15462     285.7927      0.00000
  15463     285.8032      0.00000
  15464     285.8203      0.00000
  15465     285.8280      0.00000
  15466     285.8468      0.00000
  15467     285.8569      0.00000
  15468     285.8736      0.00000
  15469     285.8809      0.00000
  15470     285.8888      0.00000
  15471     285.8929      0.00000
  15472     285.9172      0.00000
  15473     285.9354      0.00000
  15474     285.9623      0.00000
  15475     285.9698      0.00000
  15476     285.9870      0.00000
  15477     285.9906      0.00000
  15478     286.0065      0.00000
  15479     286.0108      0.00000
  15480     286.0259      0.00000
  15481     286.0320      0.00000
  15482     286.0465      0.00000
  15483     286.0700      0.00000
  15484     286.0795      0.00000
  15485     286.0837      0.00000
  15486     286.0878      0.00000
  15487     286.0970      0.00000
  15488     286.1244      0.00000
  15489     286.1439      0.00000
  15490     286.1546      0.00000
  15491     286.1722      0.00000
  15492     286.1766      0.00000
  15493     286.1877      0.00000
  15494     286.1992      0.00000
  15495     286.2064      0.00000
  15496     286.2165      0.00000
  15497     286.2262      0.00000
  15498     286.2465      0.00000
  15499     286.2524      0.00000
  15500     286.2704      0.00000
  15501     286.2841      0.00000
  15502     286.2933      0.00000
  15503     286.3119      0.00000
  15504     286.3170      0.00000
  15505     286.3272      0.00000
  15506     286.3466      0.00000
  15507     286.3479      0.00000
  15508     286.3681      0.00000
  15509     286.3843      0.00000
  15510     286.3881      0.00000
  15511     286.4046      0.00000
  15512     286.4208      0.00000
  15513     286.4264      0.00000
  15514     286.4334      0.00000
  15515     286.4543      0.00000
  15516     286.4661      0.00000
  15517     286.4807      0.00000
  15518     286.4853      0.00000
  15519     286.5062      0.00000
  15520     286.5133      0.00000
  15521     286.5309      0.00000
  15522     286.5465      0.00000
  15523     286.5474      0.00000
  15524     286.5628      0.00000
  15525     286.5902      0.00000
  15526     286.5995      0.00000
  15527     286.6083      0.00000
  15528     286.6137      0.00000
  15529     286.6273      0.00000
  15530     286.6478      0.00000
  15531     286.6537      0.00000
  15532     286.6585      0.00000
  15533     286.6746      0.00000
  15534     286.6786      0.00000
  15535     286.6825      0.00000
  15536     286.7201      0.00000
  15537     286.7246      0.00000
  15538     286.7249      0.00000
  15539     286.7320      0.00000
  15540     286.7565      0.00000
  15541     286.7582      0.00000
  15542     286.7666      0.00000
  15543     286.7912      0.00000
  15544     286.8043      0.00000
  15545     286.8145      0.00000
  15546     286.8434      0.00000
  15547     286.8454      0.00000
  15548     286.8591      0.00000
  15549     286.8709      0.00000
  15550     286.8843      0.00000
  15551     286.8893      0.00000
  15552     286.8988      0.00000
  15553     286.9118      0.00000
  15554     286.9213      0.00000
  15555     286.9406      0.00000
  15556     286.9481      0.00000
  15557     286.9606      0.00000
  15558     286.9660      0.00000
  15559     286.9981      0.00000
  15560     287.0014      0.00000
  15561     287.0164      0.00000
  15562     287.0284      0.00000
  15563     287.0408      0.00000
  15564     287.0509      0.00000
  15565     287.0649      0.00000
  15566     287.0725      0.00000
  15567     287.0883      0.00000
  15568     287.1001      0.00000
  15569     287.1184      0.00000
  15570     287.1290      0.00000
  15571     287.1340      0.00000
  15572     287.1455      0.00000
  15573     287.1553      0.00000
  15574     287.1634      0.00000
  15575     287.1824      0.00000
  15576     287.1939      0.00000
  15577     287.2103      0.00000
  15578     287.2184      0.00000
  15579     287.2220      0.00000
  15580     287.2379      0.00000
  15581     287.2441      0.00000
  15582     287.2625      0.00000
  15583     287.2758      0.00000
  15584     287.2940      0.00000
  15585     287.3043      0.00000
  15586     287.3218      0.00000
  15587     287.3361      0.00000
  15588     287.3565      0.00000
  15589     287.3603      0.00000
  15590     287.3730      0.00000
  15591     287.3899      0.00000
  15592     287.3949      0.00000
  15593     287.4102      0.00000
  15594     287.4230      0.00000
  15595     287.4310      0.00000
  15596     287.4466      0.00000
  15597     287.4553      0.00000
  15598     287.4657      0.00000
  15599     287.4775      0.00000
  15600     287.4898      0.00000
  15601     287.5023      0.00000
  15602     287.5178      0.00000
  15603     287.5287      0.00000
  15604     287.5319      0.00000
  15605     287.5444      0.00000
  15606     287.5596      0.00000
  15607     287.5637      0.00000
  15608     287.5833      0.00000
  15609     287.5867      0.00000
  15610     287.6041      0.00000
  15611     287.6167      0.00000
  15612     287.6240      0.00000
  15613     287.6463      0.00000
  15614     287.6534      0.00000
  15615     287.6573      0.00000
  15616     287.6757      0.00000
  15617     287.6850      0.00000
  15618     287.6990      0.00000
  15619     287.7081      0.00000
  15620     287.7311      0.00000
  15621     287.7399      0.00000
  15622     287.7439      0.00000
  15623     287.7574      0.00000
  15624     287.7754      0.00000
  15625     287.7835      0.00000
  15626     287.8018      0.00000
  15627     287.8061      0.00000
  15628     287.8239      0.00000
  15629     287.8360      0.00000
  15630     287.8490      0.00000
  15631     287.8531      0.00000
  15632     287.8717      0.00000
  15633     287.8764      0.00000
  15634     287.8878      0.00000
  15635     287.9011      0.00000
  15636     287.9061      0.00000
  15637     287.9306      0.00000
  15638     287.9425      0.00000
  15639     287.9586      0.00000
  15640     287.9653      0.00000
  15641     287.9749      0.00000
  15642     288.0038      0.00000
  15643     288.0263      0.00000
  15644     288.0319      0.00000
  15645     288.0362      0.00000
  15646     288.0465      0.00000
  15647     288.0626      0.00000
  15648     288.0744      0.00000
  15649     288.0839      0.00000
  15650     288.0944      0.00000
  15651     288.1126      0.00000
  15652     288.1290      0.00000
  15653     288.1329      0.00000
  15654     288.1495      0.00000
  15655     288.1536      0.00000
  15656     288.1694      0.00000
  15657     288.1771      0.00000
  15658     288.1872      0.00000
  15659     288.1981      0.00000
  15660     288.2086      0.00000
  15661     288.2319      0.00000
  15662     288.2407      0.00000
  15663     288.2438      0.00000
  15664     288.2585      0.00000
  15665     288.2792      0.00000
  15666     288.2941      0.00000
  15667     288.2967      0.00000
  15668     288.3057      0.00000
  15669     288.3135      0.00000
  15670     288.3290      0.00000
  15671     288.3404      0.00000
  15672     288.3668      0.00000
  15673     288.3730      0.00000
  15674     288.3833      0.00000
  15675     288.3990      0.00000
  15676     288.4135      0.00000
  15677     288.4202      0.00000
  15678     288.4264      0.00000
  15679     288.4452      0.00000
  15680     288.4508      0.00000
  15681     288.4636      0.00000
  15682     288.4722      0.00000
  15683     288.4731      0.00000
  15684     288.4773      0.00000
  15685     288.4872      0.00000
  15686     288.4972      0.00000
  15687     288.5215      0.00000
  15688     288.5434      0.00000
  15689     288.5516      0.00000
  15690     288.5605      0.00000
  15691     288.5774      0.00000
  15692     288.5841      0.00000
  15693     288.5948      0.00000
  15694     288.6073      0.00000
  15695     288.6234      0.00000
  15696     288.6243      0.00000
  15697     288.6359      0.00000
  15698     288.6569      0.00000
  15699     288.6612      0.00000
  15700     288.6686      0.00000
  15701     288.6789      0.00000
  15702     288.7029      0.00000
  15703     288.7052      0.00000
  15704     288.7106      0.00000
  15705     288.7265      0.00000
  15706     288.7344      0.00000
  15707     288.7442      0.00000
  15708     288.7519      0.00000
  15709     288.7670      0.00000
  15710     288.7995      0.00000
  15711     288.8046      0.00000
  15712     288.8128      0.00000
  15713     288.8206      0.00000
  15714     288.8274      0.00000
  15715     288.8328      0.00000
  15716     288.8535      0.00000
  15717     288.8744      0.00000
  15718     288.8805      0.00000
  15719     288.8881      0.00000
  15720     288.8921      0.00000
  15721     288.8996      0.00000
  15722     288.9110      0.00000
  15723     288.9215      0.00000
  15724     288.9430      0.00000
  15725     288.9569      0.00000
  15726     288.9597      0.00000
  15727     288.9750      0.00000
  15728     288.9885      0.00000
  15729     288.9914      0.00000
  15730     289.0164      0.00000
  15731     289.0275      0.00000
  15732     289.0367      0.00000
  15733     289.0418      0.00000
  15734     289.0446      0.00000
  15735     289.0572      0.00000
  15736     289.0806      0.00000
  15737     289.0992      0.00000
  15738     289.1204      0.00000
  15739     289.1276      0.00000
  15740     289.1367      0.00000
  15741     289.1452      0.00000
  15742     289.1649      0.00000
  15743     289.1694      0.00000
  15744     289.1793      0.00000
  15745     289.1833      0.00000
  15746     289.1878      0.00000
  15747     289.2048      0.00000
  15748     289.2136      0.00000
  15749     289.2313      0.00000
  15750     289.2439      0.00000
  15751     289.2540      0.00000
  15752     289.2658      0.00000
  15753     289.2753      0.00000
  15754     289.2950      0.00000
  15755     289.3032      0.00000
  15756     289.3193      0.00000
  15757     289.3287      0.00000
  15758     289.3399      0.00000
  15759     289.3588      0.00000
  15760     289.3706      0.00000
  15761     289.3751      0.00000
  15762     289.3859      0.00000
  15763     289.4037      0.00000
  15764     289.4082      0.00000
  15765     289.4231      0.00000
  15766     289.4348      0.00000
  15767     289.4489      0.00000
  15768     289.4631      0.00000
  15769     289.4680      0.00000
  15770     289.4933      0.00000
  15771     289.5136      0.00000
  15772     289.5178      0.00000
  15773     289.5340      0.00000
  15774     289.5394      0.00000
  15775     289.5513      0.00000
  15776     289.5663      0.00000
  15777     289.5705      0.00000
  15778     289.5728      0.00000
  15779     289.5936      0.00000
  15780     289.6023      0.00000
  15781     289.6165      0.00000
  15782     289.6196      0.00000
  15783     289.6534      0.00000
  15784     289.6668      0.00000
  15785     289.6756      0.00000
  15786     289.6859      0.00000
  15787     289.6981      0.00000
  15788     289.7197      0.00000
  15789     289.7255      0.00000
  15790     289.7421      0.00000
  15791     289.7515      0.00000
  15792     289.7696      0.00000
  15793     289.7753      0.00000
  15794     289.7980      0.00000
  15795     289.8074      0.00000
  15796     289.8125      0.00000
  15797     289.8242      0.00000
  15798     289.8382      0.00000
  15799     289.8485      0.00000
  15800     289.8670      0.00000
  15801     289.8744      0.00000
  15802     289.8837      0.00000
  15803     289.8898      0.00000
  15804     289.9089      0.00000
  15805     289.9145      0.00000
  15806     289.9239      0.00000
  15807     289.9418      0.00000
  15808     289.9574      0.00000
  15809     289.9586      0.00000
  15810     289.9869      0.00000
  15811     289.9905      0.00000
  15812     289.9962      0.00000
  15813     290.0169      0.00000
  15814     290.0234      0.00000
  15815     290.0355      0.00000
  15816     290.0493      0.00000
  15817     290.0664      0.00000
  15818     290.0888      0.00000
  15819     290.1114      0.00000
  15820     290.1292      0.00000
  15821     290.1520      0.00000
  15822     290.1529      0.00000
  15823     290.1584      0.00000
  15824     290.1658      0.00000
  15825     290.1858      0.00000
  15826     290.1931      0.00000
  15827     290.2078      0.00000
  15828     290.2303      0.00000
  15829     290.2353      0.00000
  15830     290.2508      0.00000
  15831     290.2682      0.00000
  15832     290.2712      0.00000
  15833     290.2947      0.00000
  15834     290.3066      0.00000
  15835     290.3153      0.00000
  15836     290.3240      0.00000
  15837     290.3350      0.00000
  15838     290.3404      0.00000
  15839     290.3668      0.00000
  15840     290.3868      0.00000
  15841     290.3924      0.00000
  15842     290.4115      0.00000
  15843     290.4185      0.00000
  15844     290.4266      0.00000
  15845     290.4452      0.00000
  15846     290.4597      0.00000
  15847     290.4703      0.00000
  15848     290.4799      0.00000
  15849     290.4830      0.00000
  15850     290.4943      0.00000
  15851     290.5060      0.00000
  15852     290.5125      0.00000
  15853     290.5245      0.00000
  15854     290.5347      0.00000
  15855     290.5482      0.00000
  15856     290.5687      0.00000
  15857     290.5869      0.00000
  15858     290.5979      0.00000
  15859     290.6203      0.00000
  15860     290.6286      0.00000
  15861     290.6365      0.00000
  15862     290.6559      0.00000
  15863     290.6619      0.00000
  15864     290.6688      0.00000
  15865     290.6838      0.00000
  15866     290.6896      0.00000
  15867     290.7099      0.00000
  15868     290.7183      0.00000
  15869     290.7303      0.00000
  15870     290.7419      0.00000
  15871     290.7514      0.00000
  15872     290.7680      0.00000
  15873     290.7868      0.00000
  15874     290.7928      0.00000
  15875     290.8142      0.00000
  15876     290.8301      0.00000
  15877     290.8343      0.00000
  15878     290.8483      0.00000
  15879     290.8620      0.00000
  15880     290.8693      0.00000
  15881     290.8821      0.00000
  15882     290.8854      0.00000
  15883     290.8995      0.00000
  15884     290.9174      0.00000
  15885     290.9195      0.00000
  15886     290.9333      0.00000
  15887     290.9545      0.00000
  15888     290.9614      0.00000
  15889     290.9696      0.00000
  15890     290.9829      0.00000
  15891     290.9926      0.00000
  15892     291.0031      0.00000
  15893     291.0344      0.00000
  15894     291.0379      0.00000
  15895     291.0561      0.00000
  15896     291.0566      0.00000
  15897     291.0693      0.00000
  15898     291.0749      0.00000
  15899     291.0933      0.00000
  15900     291.1018      0.00000
  15901     291.1224      0.00000
  15902     291.1314      0.00000
  15903     291.1401      0.00000
  15904     291.1537      0.00000
  15905     291.1631      0.00000
  15906     291.2001      0.00000
  15907     291.2089      0.00000
  15908     291.2248      0.00000
  15909     291.2303      0.00000
  15910     291.2379      0.00000
  15911     291.2411      0.00000
  15912     291.2646      0.00000
  15913     291.2683      0.00000
  15914     291.2981      0.00000
  15915     291.3020      0.00000
  15916     291.3133      0.00000
  15917     291.3314      0.00000
  15918     291.3534      0.00000
  15919     291.3577      0.00000
  15920     291.3657      0.00000
  15921     291.3915      0.00000
  15922     291.3996      0.00000
  15923     291.4049      0.00000
  15924     291.4232      0.00000
  15925     291.4363      0.00000
  15926     291.4671      0.00000
  15927     291.4770      0.00000
  15928     291.4875      0.00000
  15929     291.4970      0.00000
  15930     291.5069      0.00000
  15931     291.5215      0.00000
  15932     291.5401      0.00000
  15933     291.5522      0.00000
  15934     291.5671      0.00000
  15935     291.5753      0.00000
  15936     291.5877      0.00000
  15937     291.6035      0.00000
  15938     291.6183      0.00000
  15939     291.6370      0.00000
  15940     291.6436      0.00000
  15941     291.6672      0.00000
  15942     291.6737      0.00000
  15943     291.6822      0.00000
  15944     291.7030      0.00000
  15945     291.7164      0.00000
  15946     291.7366      0.00000
  15947     291.7506      0.00000
  15948     291.7598      0.00000
  15949     291.7818      0.00000
  15950     291.7897      0.00000
  15951     291.7942      0.00000
  15952     291.8138      0.00000
  15953     291.8221      0.00000
  15954     291.8402      0.00000
  15955     291.8433      0.00000
  15956     291.8741      0.00000
  15957     291.8891      0.00000
  15958     291.9160      0.00000
  15959     291.9210      0.00000
  15960     291.9325      0.00000
  15961     291.9432      0.00000
  15962     291.9499      0.00000
  15963     291.9743      0.00000
  15964     291.9805      0.00000
  15965     291.9863      0.00000
  15966     292.0127      0.00000
  15967     292.0159      0.00000
  15968     292.0294      0.00000
  15969     292.0641      0.00000
  15970     292.0893      0.00000
  15971     292.0994      0.00000
  15972     292.1177      0.00000
  15973     292.1369      0.00000
  15974     292.1539      0.00000
  15975     292.1606      0.00000
  15976     292.1678      0.00000
  15977     292.1949      0.00000
  15978     292.2022      0.00000
  15979     292.2223      0.00000
  15980     292.2359      0.00000
  15981     292.2471      0.00000
  15982     292.2610      0.00000
  15983     292.2707      0.00000
  15984     292.2914      0.00000
  15985     292.3060      0.00000
  15986     292.3155      0.00000
  15987     292.3254      0.00000
  15988     292.3517      0.00000
  15989     292.3715      0.00000
  15990     292.3897      0.00000
  15991     292.3929      0.00000
  15992     292.4073      0.00000
  15993     292.4229      0.00000
  15994     292.4308      0.00000
  15995     292.4342      0.00000
  15996     292.4696      0.00000
  15997     292.4781      0.00000
  15998     292.4909      0.00000
  15999     292.4986      0.00000
  16000     292.5130      0.00000
  16001     292.5194      0.00000
  16002     292.5558      0.00000
  16003     292.5632      0.00000
  16004     292.5786      0.00000
  16005     292.5901      0.00000
  16006     292.6045      0.00000
  16007     292.6135      0.00000
  16008     292.6363      0.00000
  16009     292.6573      0.00000
  16010     292.6721      0.00000
  16011     292.6824      0.00000
  16012     292.6970      0.00000
  16013     292.7028      0.00000
  16014     292.7258      0.00000
  16015     292.7299      0.00000
  16016     292.7416      0.00000
  16017     292.7622      0.00000
  16018     292.7708      0.00000
  16019     292.7854      0.00000
  16020     292.7925      0.00000
  16021     292.8070      0.00000
  16022     292.8151      0.00000
  16023     292.8336      0.00000
  16024     292.8518      0.00000
  16025     292.8593      0.00000
  16026     292.8747      0.00000
  16027     292.8943      0.00000
  16028     292.8983      0.00000
  16029     292.9216      0.00000
  16030     292.9354      0.00000
  16031     292.9516      0.00000
  16032     292.9679      0.00000
  16033     292.9723      0.00000
  16034     292.9871      0.00000
  16035     292.9956      0.00000
  16036     293.0072      0.00000
  16037     293.0353      0.00000
  16038     293.0478      0.00000
  16039     293.0500      0.00000
  16040     293.0679      0.00000
  16041     293.0758      0.00000
  16042     293.0842      0.00000
  16043     293.1000      0.00000
  16044     293.1133      0.00000
  16045     293.1260      0.00000
  16046     293.1373      0.00000
  16047     293.1658      0.00000
  16048     293.1714      0.00000
  16049     293.1905      0.00000
  16050     293.1971      0.00000
  16051     293.2062      0.00000
  16052     293.2431      0.00000
  16053     293.2605      0.00000
  16054     293.2792      0.00000
  16055     293.2890      0.00000
  16056     293.2944      0.00000
  16057     293.2984      0.00000
  16058     293.3187      0.00000
  16059     293.3243      0.00000
  16060     293.3374      0.00000
  16061     293.3492      0.00000
  16062     293.3593      0.00000
  16063     293.3674      0.00000
  16064     293.3716      0.00000
  16065     293.3918      0.00000
  16066     293.4032      0.00000
  16067     293.4094      0.00000
  16068     293.4155      0.00000
  16069     293.4487      0.00000
  16070     293.4571      0.00000
  16071     293.4755      0.00000
  16072     293.4919      0.00000
  16073     293.4990      0.00000
  16074     293.5086      0.00000
  16075     293.5272      0.00000
  16076     293.5371      0.00000
  16077     293.5494      0.00000
  16078     293.5582      0.00000
  16079     293.5719      0.00000
  16080     293.5782      0.00000
  16081     293.5924      0.00000
  16082     293.6124      0.00000
  16083     293.6160      0.00000
  16084     293.6421      0.00000
  16085     293.6644      0.00000
  16086     293.6811      0.00000
  16087     293.6829      0.00000
  16088     293.6933      0.00000
  16089     293.7087      0.00000
  16090     293.7170      0.00000
  16091     293.7248      0.00000
  16092     293.7348      0.00000
  16093     293.7463      0.00000
  16094     293.7516      0.00000
  16095     293.7719      0.00000
  16096     293.7839      0.00000
  16097     293.8019      0.00000
  16098     293.8226      0.00000
  16099     293.8323      0.00000
  16100     293.8399      0.00000
  16101     293.8536      0.00000
  16102     293.8686      0.00000
  16103     293.8705      0.00000
  16104     293.8977      0.00000
  16105     293.9047      0.00000
  16106     293.9095      0.00000
  16107     293.9172      0.00000
  16108     293.9278      0.00000
  16109     293.9373      0.00000
  16110     293.9460      0.00000
  16111     293.9569      0.00000
  16112     293.9662      0.00000
  16113     293.9768      0.00000
  16114     293.9807      0.00000
  16115     294.0007      0.00000
  16116     294.0180      0.00000
  16117     294.0239      0.00000
  16118     294.0356      0.00000
  16119     294.0397      0.00000
  16120     294.0570      0.00000
  16121     294.0716      0.00000
  16122     294.0862      0.00000
  16123     294.0891      0.00000
  16124     294.1044      0.00000
  16125     294.1245      0.00000
  16126     294.1372      0.00000
  16127     294.1444      0.00000
  16128     294.1618      0.00000
  16129     294.1744      0.00000
  16130     294.1947      0.00000
  16131     294.2022      0.00000
  16132     294.2104      0.00000
  16133     294.2182      0.00000
  16134     294.2371      0.00000
  16135     294.2468      0.00000
  16136     294.2588      0.00000
  16137     294.2729      0.00000
  16138     294.2809      0.00000
  16139     294.2826      0.00000
  16140     294.2979      0.00000
  16141     294.3068      0.00000
  16142     294.3295      0.00000
  16143     294.3305      0.00000
  16144     294.3443      0.00000
  16145     294.3574      0.00000
  16146     294.3746      0.00000
  16147     294.3831      0.00000
  16148     294.4029      0.00000
  16149     294.4159      0.00000
  16150     294.4268      0.00000
  16151     294.4532      0.00000
  16152     294.4578      0.00000
  16153     294.4666      0.00000
  16154     294.4806      0.00000
  16155     294.4845      0.00000
  16156     294.5016      0.00000
  16157     294.5077      0.00000
  16158     294.5306      0.00000
  16159     294.5357      0.00000
  16160     294.5556      0.00000
  16161     294.5730      0.00000
  16162     294.5780      0.00000
  16163     294.5951      0.00000
  16164     294.6140      0.00000
  16165     294.6213      0.00000
  16166     294.6347      0.00000
  16167     294.6553      0.00000
  16168     294.6705      0.00000
  16169     294.6788      0.00000
  16170     294.6857      0.00000
  16171     294.7074      0.00000
  16172     294.7103      0.00000
  16173     294.7449      0.00000
  16174     294.7507      0.00000
  16175     294.7646      0.00000
  16176     294.7854      0.00000
  16177     294.7923      0.00000
  16178     294.8004      0.00000
  16179     294.8085      0.00000
  16180     294.8211      0.00000
  16181     294.8318      0.00000
  16182     294.8522      0.00000
  16183     294.8645      0.00000
  16184     294.8766      0.00000
  16185     294.8878      0.00000
  16186     294.8977      0.00000
  16187     294.9067      0.00000
  16188     294.9121      0.00000
  16189     294.9318      0.00000
  16190     294.9411      0.00000
  16191     294.9559      0.00000
  16192     294.9698      0.00000
  16193     294.9875      0.00000
  16194     295.0103      0.00000
  16195     295.0221      0.00000
  16196     295.0277      0.00000
  16197     295.0310      0.00000
  16198     295.0376      0.00000
  16199     295.0464      0.00000
  16200     295.0718      0.00000
  16201     295.0849      0.00000
  16202     295.0995      0.00000
  16203     295.1051      0.00000
  16204     295.1256      0.00000
  16205     295.1598      0.00000
  16206     295.1748      0.00000
  16207     295.1962      0.00000
  16208     295.1983      0.00000
  16209     295.2087      0.00000
  16210     295.2136      0.00000
  16211     295.2326      0.00000
  16212     295.2490      0.00000
  16213     295.2589      0.00000
  16214     295.2639      0.00000
  16215     295.2697      0.00000
  16216     295.3008      0.00000
  16217     295.3058      0.00000
  16218     295.3170      0.00000
  16219     295.3441      0.00000
  16220     295.3481      0.00000
  16221     295.3580      0.00000
  16222     295.3776      0.00000
  16223     295.3848      0.00000
  16224     295.4040      0.00000
  16225     295.4056      0.00000
  16226     295.4172      0.00000
  16227     295.4446      0.00000
  16228     295.4479      0.00000
  16229     295.4665      0.00000
  16230     295.4805      0.00000
  16231     295.5012      0.00000
  16232     295.5027      0.00000
  16233     295.5265      0.00000
  16234     295.5299      0.00000
  16235     295.5338      0.00000
  16236     295.5456      0.00000
  16237     295.5618      0.00000
  16238     295.5860      0.00000
  16239     295.5876      0.00000
  16240     295.6035      0.00000
  16241     295.6238      0.00000
  16242     295.6369      0.00000
  16243     295.6378      0.00000
  16244     295.6446      0.00000
  16245     295.6523      0.00000
  16246     295.6623      0.00000
  16247     295.6849      0.00000
  16248     295.6997      0.00000
  16249     295.7232      0.00000
  16250     295.7287      0.00000
  16251     295.7414      0.00000
  16252     295.7504      0.00000
  16253     295.7697      0.00000
  16254     295.7756      0.00000
  16255     295.8000      0.00000
  16256     295.8137      0.00000
  16257     295.8323      0.00000
  16258     295.8354      0.00000
  16259     295.8471      0.00000
  16260     295.8570      0.00000
  16261     295.8799      0.00000
  16262     295.8833      0.00000
  16263     295.9009      0.00000
  16264     295.9187      0.00000
  16265     295.9360      0.00000
  16266     295.9424      0.00000
  16267     295.9554      0.00000
  16268     295.9638      0.00000
  16269     295.9741      0.00000
  16270     295.9898      0.00000
  16271     295.9984      0.00000
  16272     296.0250      0.00000
  16273     296.0393      0.00000
  16274     296.0579      0.00000
  16275     296.0683      0.00000
  16276     296.0753      0.00000
  16277     296.0818      0.00000
  16278     296.0839      0.00000
  16279     296.1068      0.00000
  16280     296.1346      0.00000
  16281     296.1371      0.00000
  16282     296.1529      0.00000
  16283     296.1685      0.00000
  16284     296.1710      0.00000
  16285     296.1854      0.00000
  16286     296.1953      0.00000
  16287     296.2093      0.00000
  16288     296.2229      0.00000
  16289     296.2339      0.00000
  16290     296.2484      0.00000
  16291     296.2680      0.00000
  16292     296.2738      0.00000
  16293     296.2895      0.00000
  16294     296.2912      0.00000
  16295     296.3155      0.00000
  16296     296.3360      0.00000
  16297     296.3412      0.00000
  16298     296.3567      0.00000
  16299     296.3647      0.00000
  16300     296.3773      0.00000
  16301     296.3877      0.00000
  16302     296.4153      0.00000
  16303     296.4267      0.00000
  16304     296.4290      0.00000
  16305     296.4438      0.00000
  16306     296.4579      0.00000
  16307     296.4697      0.00000
  16308     296.4854      0.00000
  16309     296.4928      0.00000
  16310     296.5163      0.00000
  16311     296.5333      0.00000
  16312     296.5435      0.00000
  16313     296.5492      0.00000
  16314     296.5690      0.00000
  16315     296.5795      0.00000
  16316     296.5847      0.00000
  16317     296.5945      0.00000
  16318     296.6108      0.00000
  16319     296.6281      0.00000
  16320     296.6383      0.00000
  16321     296.6459      0.00000
  16322     296.6517      0.00000
  16323     296.6717      0.00000
  16324     296.6804      0.00000
  16325     296.6947      0.00000
  16326     296.7165      0.00000
  16327     296.7226      0.00000
  16328     296.7242      0.00000
  16329     296.7451      0.00000
  16330     296.7587      0.00000
  16331     296.7716      0.00000
  16332     296.7834      0.00000
  16333     296.7955      0.00000
  16334     296.8043      0.00000
  16335     296.8127      0.00000
  16336     296.8356      0.00000
  16337     296.8699      0.00000
  16338     296.8770      0.00000
  16339     296.8928      0.00000
  16340     296.8986      0.00000
  16341     296.9120      0.00000
  16342     296.9149      0.00000
  16343     296.9259      0.00000
  16344     296.9376      0.00000
  16345     296.9543      0.00000
  16346     296.9664      0.00000
  16347     296.9727      0.00000
  16348     297.0002      0.00000
  16349     297.0122      0.00000
  16350     297.0214      0.00000
  16351     297.0364      0.00000
  16352     297.0381      0.00000
  16353     297.0503      0.00000
  16354     297.0615      0.00000
  16355     297.0816      0.00000
  16356     297.1093      0.00000
  16357     297.1177      0.00000
  16358     297.1252      0.00000
  16359     297.1445      0.00000
  16360     297.1637      0.00000
  16361     297.1805      0.00000
  16362     297.1860      0.00000
  16363     297.1964      0.00000
  16364     297.2097      0.00000
  16365     297.2162      0.00000
  16366     297.2357      0.00000
  16367     297.2380      0.00000
  16368     297.2589      0.00000
  16369     297.2718      0.00000
  16370     297.2872      0.00000
  16371     297.2894      0.00000
  16372     297.3124      0.00000
  16373     297.3342      0.00000
  16374     297.3441      0.00000
  16375     297.3485      0.00000
  16376     297.3545      0.00000
  16377     297.3672      0.00000
  16378     297.3792      0.00000
  16379     297.3858      0.00000
  16380     297.4045      0.00000
  16381     297.4104      0.00000
  16382     297.4240      0.00000
  16383     297.4321      0.00000
  16384     297.4470      0.00000
  16385     297.4646      0.00000
  16386     297.4728      0.00000
  16387     297.4888      0.00000
  16388     297.5133      0.00000
  16389     297.5195      0.00000
  16390     297.5260      0.00000
  16391     297.5343      0.00000
  16392     297.5401      0.00000
  16393     297.5684      0.00000
  16394     297.5844      0.00000
  16395     297.5991      0.00000
  16396     297.6031      0.00000
  16397     297.6119      0.00000
  16398     297.6356      0.00000
  16399     297.6461      0.00000
  16400     297.6484      0.00000
  16401     297.6613      0.00000
  16402     297.6799      0.00000
  16403     297.6942      0.00000
  16404     297.7014      0.00000
  16405     297.7248      0.00000
  16406     297.7343      0.00000
  16407     297.7459      0.00000
  16408     297.7578      0.00000
  16409     297.7642      0.00000
  16410     297.7947      0.00000
  16411     297.8066      0.00000
  16412     297.8102      0.00000
  16413     297.8207      0.00000
  16414     297.8353      0.00000
  16415     297.8487      0.00000
  16416     297.8614      0.00000
  16417     297.8882      0.00000
  16418     297.8930      0.00000
  16419     297.9106      0.00000
  16420     297.9173      0.00000
  16421     297.9240      0.00000
  16422     297.9387      0.00000
  16423     297.9564      0.00000
  16424     297.9796      0.00000
  16425     297.9847      0.00000
  16426     298.0027      0.00000
  16427     298.0061      0.00000
  16428     298.0215      0.00000
  16429     298.0337      0.00000
  16430     298.0424      0.00000
  16431     298.0586      0.00000
  16432     298.0602      0.00000
  16433     298.0725      0.00000
  16434     298.0748      0.00000
  16435     298.0856      0.00000
  16436     298.1013      0.00000
  16437     298.1278      0.00000
  16438     298.1318      0.00000
  16439     298.1446      0.00000
  16440     298.1594      0.00000
  16441     298.1637      0.00000
  16442     298.1785      0.00000
  16443     298.1916      0.00000
  16444     298.2019      0.00000
  16445     298.2129      0.00000
  16446     298.2211      0.00000
  16447     298.2298      0.00000
  16448     298.2454      0.00000
  16449     298.2590      0.00000
  16450     298.2741      0.00000
  16451     298.2809      0.00000
  16452     298.2873      0.00000
  16453     298.2964      0.00000
  16454     298.2981      0.00000
  16455     298.3097      0.00000
  16456     298.3300      0.00000
  16457     298.3427      0.00000
  16458     298.3502      0.00000
  16459     298.3673      0.00000
  16460     298.3829      0.00000
  16461     298.4030      0.00000
  16462     298.4108      0.00000
  16463     298.4222      0.00000
  16464     298.4361      0.00000
  16465     298.4490      0.00000
  16466     298.4676      0.00000
  16467     298.4746      0.00000
  16468     298.4873      0.00000
  16469     298.4902      0.00000
  16470     298.5221      0.00000
  16471     298.5342      0.00000
  16472     298.5399      0.00000
  16473     298.5535      0.00000
  16474     298.5691      0.00000
  16475     298.5740      0.00000
  16476     298.5912      0.00000
  16477     298.6021      0.00000
  16478     298.6134      0.00000
  16479     298.6369      0.00000
  16480     298.6438      0.00000
  16481     298.6574      0.00000
  16482     298.6621      0.00000
  16483     298.6719      0.00000
  16484     298.6847      0.00000
  16485     298.7051      0.00000
  16486     298.7139      0.00000
  16487     298.7285      0.00000
  16488     298.7347      0.00000
  16489     298.7418      0.00000
  16490     298.7488      0.00000
  16491     298.7760      0.00000
  16492     298.7861      0.00000
  16493     298.7947      0.00000
  16494     298.8067      0.00000
  16495     298.8446      0.00000
  16496     298.8550      0.00000
  16497     298.8582      0.00000
  16498     298.8705      0.00000
  16499     298.8834      0.00000
  16500     298.8936      0.00000
  16501     298.9040      0.00000
  16502     298.9209      0.00000
  16503     298.9238      0.00000
  16504     298.9333      0.00000
  16505     298.9442      0.00000
  16506     298.9493      0.00000
  16507     298.9704      0.00000
  16508     298.9776      0.00000
  16509     298.9886      0.00000
  16510     299.0105      0.00000
  16511     299.0175      0.00000
  16512     299.0241      0.00000
  16513     299.0304      0.00000
  16514     299.0410      0.00000
  16515     299.0478      0.00000
  16516     299.0722      0.00000
  16517     299.0795      0.00000
  16518     299.0922      0.00000
  16519     299.1043      0.00000
  16520     299.1207      0.00000
  16521     299.1288      0.00000
  16522     299.1454      0.00000
  16523     299.1655      0.00000
  16524     299.1775      0.00000
  16525     299.1821      0.00000
  16526     299.1873      0.00000
  16527     299.2031      0.00000
  16528     299.2200      0.00000
  16529     299.2323      0.00000
  16530     299.2461      0.00000
  16531     299.2509      0.00000
  16532     299.2511      0.00000
  16533     299.2659      0.00000
  16534     299.2823      0.00000
  16535     299.2956      0.00000
  16536     299.3103      0.00000
  16537     299.3220      0.00000
  16538     299.3358      0.00000
  16539     299.3407      0.00000
  16540     299.3592      0.00000
  16541     299.3665      0.00000
  16542     299.3738      0.00000
  16543     299.3836      0.00000
  16544     299.3923      0.00000
  16545     299.4020      0.00000
  16546     299.4185      0.00000
  16547     299.4502      0.00000
  16548     299.4567      0.00000
  16549     299.4601      0.00000
  16550     299.4643      0.00000
  16551     299.4872      0.00000
  16552     299.4927      0.00000
  16553     299.5037      0.00000
  16554     299.5215      0.00000
  16555     299.5292      0.00000
  16556     299.5398      0.00000
  16557     299.5460      0.00000
  16558     299.5539      0.00000
  16559     299.5719      0.00000
  16560     299.5736      0.00000
  16561     299.5929      0.00000
  16562     299.6092      0.00000
  16563     299.6123      0.00000
  16564     299.6275      0.00000
  16565     299.6530      0.00000
  16566     299.6564      0.00000
  16567     299.6770      0.00000
  16568     299.6924      0.00000
  16569     299.6970      0.00000
  16570     299.7065      0.00000
  16571     299.7159      0.00000
  16572     299.7346      0.00000
  16573     299.7420      0.00000
  16574     299.7497      0.00000
  16575     299.7609      0.00000
  16576     299.7756      0.00000
  16577     299.8004      0.00000
  16578     299.8030      0.00000
  16579     299.8160      0.00000
  16580     299.8257      0.00000
  16581     299.8386      0.00000
  16582     299.8468      0.00000
  16583     299.8583      0.00000
  16584     299.8603      0.00000
  16585     299.8750      0.00000
  16586     299.8846      0.00000
  16587     299.8925      0.00000
  16588     299.9017      0.00000
  16589     299.9058      0.00000
  16590     299.9278      0.00000
  16591     299.9430      0.00000
  16592     299.9467      0.00000
  16593     299.9479      0.00000
  16594     299.9635      0.00000
  16595     299.9843      0.00000
  16596     299.9923      0.00000
  16597     300.0018      0.00000
  16598     300.0243      0.00000
  16599     300.0322      0.00000
  16600     300.0527      0.00000
  16601     300.0583      0.00000
  16602     300.0641      0.00000
  16603     300.0779      0.00000
  16604     300.0892      0.00000
  16605     300.0991      0.00000
  16606     300.1144      0.00000
  16607     300.1257      0.00000
  16608     300.1265      0.00000
  16609     300.1412      0.00000
  16610     300.1577      0.00000
  16611     300.1690      0.00000
  16612     300.1763      0.00000
  16613     300.1863      0.00000
  16614     300.1934      0.00000
  16615     300.2059      0.00000
  16616     300.2118      0.00000
  16617     300.2251      0.00000
  16618     300.2393      0.00000
  16619     300.2474      0.00000
  16620     300.2596      0.00000
  16621     300.2681      0.00000
  16622     300.2782      0.00000
  16623     300.2923      0.00000
  16624     300.3065      0.00000
  16625     300.3172      0.00000
  16626     300.3367      0.00000
  16627     300.3509      0.00000
  16628     300.3541      0.00000
  16629     300.3634      0.00000
  16630     300.3716      0.00000
  16631     300.3823      0.00000
  16632     300.4014      0.00000
  16633     300.4044      0.00000
  16634     300.4224      0.00000
  16635     300.4310      0.00000
  16636     300.4457      0.00000
  16637     300.4614      0.00000
  16638     300.4749      0.00000
  16639     300.4908      0.00000
  16640     300.5015      0.00000
  16641     300.5065      0.00000
  16642     300.5210      0.00000
  16643     300.5272      0.00000
  16644     300.5406      0.00000
  16645     300.5512      0.00000
  16646     300.5539      0.00000
  16647     300.5632      0.00000
  16648     300.5859      0.00000
  16649     300.5904      0.00000
  16650     300.5963      0.00000
  16651     300.6050      0.00000
  16652     300.6155      0.00000
  16653     300.6243      0.00000
  16654     300.6329      0.00000
  16655     300.6388      0.00000
  16656     300.6507      0.00000
  16657     300.6604      0.00000
  16658     300.6746      0.00000
  16659     300.6875      0.00000
  16660     300.6886      0.00000
  16661     300.6902      0.00000
  16662     300.7078      0.00000
  16663     300.7223      0.00000
  16664     300.7460      0.00000
  16665     300.7542      0.00000
  16666     300.7701      0.00000
  16667     300.7737      0.00000
  16668     300.7877      0.00000
  16669     300.8031      0.00000
  16670     300.8136      0.00000
  16671     300.8257      0.00000
  16672     300.8272      0.00000
  16673     300.8392      0.00000
  16674     300.8529      0.00000
  16675     300.8657      0.00000
  16676     300.8874      0.00000
  16677     300.8908      0.00000
  16678     300.8949      0.00000
  16679     300.9080      0.00000
  16680     300.9096      0.00000
  16681     300.9404      0.00000
  16682     300.9444      0.00000
  16683     300.9487      0.00000
  16684     300.9642      0.00000
  16685     300.9708      0.00000
  16686     300.9760      0.00000
  16687     301.0055      0.00000
  16688     301.0139      0.00000
  16689     301.0308      0.00000
  16690     301.0359      0.00000
  16691     301.0445      0.00000
  16692     301.0532      0.00000
  16693     301.0599      0.00000
  16694     301.0637      0.00000
  16695     301.0781      0.00000
  16696     301.0984      0.00000
  16697     301.1189      0.00000
  16698     301.1257      0.00000
  16699     301.1337      0.00000
  16700     301.1372      0.00000
  16701     301.1418      0.00000
  16702     301.1585      0.00000
  16703     301.1736      0.00000
  16704     301.1901      0.00000
  16705     301.1942      0.00000
  16706     301.2100      0.00000
  16707     301.2137      0.00000
  16708     301.2269      0.00000
  16709     301.2395      0.00000
  16710     301.2411      0.00000
  16711     301.2550      0.00000
  16712     301.2575      0.00000
  16713     301.2715      0.00000
  16714     301.2838      0.00000
  16715     301.2916      0.00000
  16716     301.3192      0.00000
  16717     301.3256      0.00000
  16718     301.3336      0.00000
  16719     301.3493      0.00000
  16720     301.3615      0.00000
  16721     301.3760      0.00000
  16722     301.3800      0.00000
  16723     301.3905      0.00000
  16724     301.4078      0.00000
  16725     301.4116      0.00000
  16726     301.4349      0.00000
  16727     301.4473      0.00000
  16728     301.4767      0.00000
  16729     301.4849      0.00000
  16730     301.4976      0.00000
  16731     301.4989      0.00000
  16732     301.5109      0.00000
  16733     301.5187      0.00000
  16734     301.5345      0.00000
  16735     301.5506      0.00000
  16736     301.5588      0.00000
  16737     301.5729      0.00000
  16738     301.5789      0.00000
  16739     301.5794      0.00000
  16740     301.6030      0.00000
  16741     301.6102      0.00000
  16742     301.6263      0.00000
  16743     301.6495      0.00000
  16744     301.6547      0.00000
  16745     301.6721      0.00000
  16746     301.6811      0.00000
  16747     301.6941      0.00000
  16748     301.7028      0.00000
  16749     301.7103      0.00000
  16750     301.7228      0.00000
  16751     301.7273      0.00000
  16752     301.7430      0.00000
  16753     301.7589      0.00000
  16754     301.7645      0.00000
  16755     301.7753      0.00000
  16756     301.7923      0.00000
  16757     301.7974      0.00000
  16758     301.8160      0.00000
  16759     301.8295      0.00000
  16760     301.8457      0.00000
  16761     301.8558      0.00000
  16762     301.8631      0.00000
  16763     301.8681      0.00000
  16764     301.8826      0.00000
  16765     301.8961      0.00000
  16766     301.9076      0.00000
  16767     301.9208      0.00000
  16768     301.9445      0.00000
  16769     301.9483      0.00000
  16770     301.9514      0.00000
  16771     301.9735      0.00000
  16772     301.9830      0.00000
  16773     302.0046      0.00000
  16774     302.0105      0.00000
  16775     302.0165      0.00000
  16776     302.0407      0.00000
  16777     302.0643      0.00000
  16778     302.0677      0.00000
  16779     302.0777      0.00000
  16780     302.1069      0.00000
  16781     302.1159      0.00000
  16782     302.1315      0.00000
  16783     302.1377      0.00000
  16784     302.1500      0.00000
  16785     302.1601      0.00000
  16786     302.1822      0.00000
  16787     302.1950      0.00000
  16788     302.2112      0.00000
  16789     302.2159      0.00000
  16790     302.2320      0.00000
  16791     302.2365      0.00000
  16792     302.2525      0.00000
  16793     302.2638      0.00000
  16794     302.2917      0.00000
  16795     302.3004      0.00000
  16796     302.3145      0.00000
  16797     302.3224      0.00000
  16798     302.3391      0.00000
  16799     302.3448      0.00000
  16800     302.3567      0.00000
  16801     302.3880      0.00000
  16802     302.3964      0.00000
  16803     302.4044      0.00000
  16804     302.4161      0.00000
  16805     302.4208      0.00000
  16806     302.4525      0.00000
  16807     302.4721      0.00000
  16808     302.4801      0.00000
  16809     302.5040      0.00000
  16810     302.5106      0.00000
  16811     302.5312      0.00000
  16812     302.5345      0.00000
  16813     302.5567      0.00000
  16814     302.5771      0.00000
  16815     302.5922      0.00000
  16816     302.6002      0.00000
  16817     302.6139      0.00000
  16818     302.6419      0.00000
  16819     302.6506      0.00000
  16820     302.6625      0.00000
  16821     302.6738      0.00000
  16822     302.6761      0.00000
  16823     302.6965      0.00000
  16824     302.7029      0.00000
  16825     302.7101      0.00000
  16826     302.7278      0.00000
  16827     302.7405      0.00000
  16828     302.7503      0.00000
  16829     302.7604      0.00000
  16830     302.7836      0.00000
  16831     302.7968      0.00000
  16832     302.8106      0.00000
  16833     302.8255      0.00000
  16834     302.8407      0.00000
  16835     302.8512      0.00000
  16836     302.8799      0.00000
  16837     302.8871      0.00000
  16838     302.8964      0.00000
  16839     302.9047      0.00000
  16840     302.9183      0.00000
  16841     302.9290      0.00000
  16842     302.9361      0.00000
  16843     302.9558      0.00000
  16844     302.9721      0.00000
  16845     302.9870      0.00000
  16846     302.9994      0.00000
  16847     303.0002      0.00000
  16848     303.0202      0.00000
  16849     303.0405      0.00000
  16850     303.0489      0.00000
  16851     303.0579      0.00000
  16852     303.0698      0.00000
  16853     303.0811      0.00000
  16854     303.0983      0.00000
  16855     303.1087      0.00000
  16856     303.1192      0.00000
  16857     303.1391      0.00000
  16858     303.1439      0.00000
  16859     303.1488      0.00000
  16860     303.1650      0.00000
  16861     303.1907      0.00000
  16862     303.2018      0.00000
  16863     303.2187      0.00000
  16864     303.2399      0.00000
  16865     303.2427      0.00000
  16866     303.2491      0.00000
  16867     303.2609      0.00000
  16868     303.2687      0.00000
  16869     303.2936      0.00000
  16870     303.3116      0.00000
  16871     303.3255      0.00000
  16872     303.3279      0.00000
  16873     303.3437      0.00000
  16874     303.3501      0.00000
  16875     303.3667      0.00000
  16876     303.3747      0.00000
  16877     303.3860      0.00000
  16878     303.3983      0.00000
  16879     303.4084      0.00000
  16880     303.4249      0.00000
  16881     303.4403      0.00000
  16882     303.4458      0.00000
  16883     303.4671      0.00000
  16884     303.4818      0.00000
  16885     303.4979      0.00000
  16886     303.5305      0.00000
  16887     303.5430      0.00000
  16888     303.5613      0.00000
  16889     303.5688      0.00000
  16890     303.5767      0.00000
  16891     303.5928      0.00000
  16892     303.6026      0.00000
  16893     303.6326      0.00000
  16894     303.6484      0.00000
  16895     303.6569      0.00000
  16896     303.6664      0.00000
  16897     303.6788      0.00000
  16898     303.6877      0.00000
  16899     303.7050      0.00000
  16900     303.7165      0.00000
  16901     303.7207      0.00000
  16902     303.7414      0.00000
  16903     303.7606      0.00000
  16904     303.7695      0.00000
  16905     303.7881      0.00000
  16906     303.7984      0.00000
  16907     303.8092      0.00000
  16908     303.8141      0.00000
  16909     303.8247      0.00000
  16910     303.8370      0.00000
  16911     303.8522      0.00000
  16912     303.8680      0.00000
  16913     303.8880      0.00000
  16914     303.9034      0.00000
  16915     303.9051      0.00000
  16916     303.9275      0.00000
  16917     303.9422      0.00000
  16918     303.9468      0.00000
  16919     303.9606      0.00000
  16920     303.9691      0.00000
  16921     303.9941      0.00000
  16922     304.0056      0.00000
  16923     304.0204      0.00000
  16924     304.0278      0.00000
  16925     304.0504      0.00000
  16926     304.0570      0.00000
  16927     304.0778      0.00000
  16928     304.0982      0.00000
  16929     304.1019      0.00000
  16930     304.1082      0.00000
  16931     304.1250      0.00000
  16932     304.1343      0.00000
  16933     304.1449      0.00000
  16934     304.1664      0.00000
  16935     304.1898      0.00000
  16936     304.1917      0.00000
  16937     304.2147      0.00000
  16938     304.2169      0.00000
  16939     304.2346      0.00000
  16940     304.2439      0.00000
  16941     304.2528      0.00000
  16942     304.2630      0.00000
  16943     304.2896      0.00000
  16944     304.2989      0.00000
  16945     304.3072      0.00000
  16946     304.3137      0.00000
  16947     304.3353      0.00000
  16948     304.3497      0.00000
  16949     304.3618      0.00000
  16950     304.3652      0.00000
  16951     304.3784      0.00000
  16952     304.4075      0.00000
  16953     304.4238      0.00000
  16954     304.4260      0.00000
  16955     304.4325      0.00000
  16956     304.4561      0.00000
  16957     304.4797      0.00000
  16958     304.4854      0.00000
  16959     304.4983      0.00000
  16960     304.5029      0.00000
  16961     304.5185      0.00000
  16962     304.5268      0.00000
  16963     304.5403      0.00000
  16964     304.5477      0.00000
  16965     304.5541      0.00000
  16966     304.5679      0.00000
  16967     304.5944      0.00000
  16968     304.6030      0.00000
  16969     304.6119      0.00000
  16970     304.6355      0.00000
  16971     304.6477      0.00000
  16972     304.6734      0.00000
  16973     304.6779      0.00000
  16974     304.6861      0.00000
  16975     304.6966      0.00000
  16976     304.7056      0.00000
  16977     304.7182      0.00000
  16978     304.7227      0.00000
  16979     304.7430      0.00000
  16980     304.7697      0.00000
  16981     304.7769      0.00000
  16982     304.7874      0.00000
  16983     304.7934      0.00000
  16984     304.8231      0.00000
  16985     304.8271      0.00000
  16986     304.8330      0.00000
  16987     304.8384      0.00000
  16988     304.8480      0.00000
  16989     304.8559      0.00000
  16990     304.8679      0.00000
  16991     304.8814      0.00000
  16992     304.8942      0.00000
  16993     304.9062      0.00000
  16994     304.9196      0.00000
  16995     304.9300      0.00000
  16996     304.9379      0.00000
  16997     304.9666      0.00000
  16998     304.9745      0.00000
  16999     304.9972      0.00000
  17000     305.0058      0.00000
  17001     305.0155      0.00000
  17002     305.0330      0.00000
  17003     305.0514      0.00000
  17004     305.0619      0.00000
  17005     305.0781      0.00000
  17006     305.0802      0.00000
  17007     305.0865      0.00000
  17008     305.1042      0.00000
  17009     305.1268      0.00000
  17010     305.1285      0.00000
  17011     305.1427      0.00000
  17012     305.1509      0.00000
  17013     305.1653      0.00000
  17014     305.1876      0.00000
  17015     305.2033      0.00000
  17016     305.2082      0.00000
  17017     305.2105      0.00000
  17018     305.2216      0.00000
  17019     305.2415      0.00000
  17020     305.2547      0.00000
  17021     305.2681      0.00000
  17022     305.2888      0.00000
  17023     305.2935      0.00000
  17024     305.3065      0.00000
  17025     305.3105      0.00000
  17026     305.3207      0.00000
  17027     305.3512      0.00000
  17028     305.3589      0.00000
  17029     305.3655      0.00000
  17030     305.3777      0.00000
  17031     305.3964      0.00000
  17032     305.3968      0.00000
  17033     305.4241      0.00000
  17034     305.4481      0.00000
  17035     305.4618      0.00000
  17036     305.4755      0.00000
  17037     305.4871      0.00000
  17038     305.4879      0.00000
  17039     305.4988      0.00000
  17040     305.5177      0.00000
  17041     305.5293      0.00000
  17042     305.5416      0.00000
  17043     305.5514      0.00000
  17044     305.5627      0.00000
  17045     305.5744      0.00000
  17046     305.5898      0.00000
  17047     305.6075      0.00000
  17048     305.6184      0.00000
  17049     305.6288      0.00000
  17050     305.6348      0.00000
  17051     305.6526      0.00000
  17052     305.6626      0.00000
  17053     305.6706      0.00000
  17054     305.6877      0.00000
  17055     305.6902      0.00000
  17056     305.7079      0.00000
  17057     305.7239      0.00000
  17058     305.7335      0.00000
  17059     305.7465      0.00000
  17060     305.7643      0.00000
  17061     305.7771      0.00000
  17062     305.7808      0.00000
  17063     305.8006      0.00000
  17064     305.8099      0.00000
  17065     305.8207      0.00000
  17066     305.8259      0.00000
  17067     305.8339      0.00000
  17068     305.8616      0.00000
  17069     305.8719      0.00000
  17070     305.8921      0.00000
  17071     305.8992      0.00000
  17072     305.9146      0.00000
  17073     305.9185      0.00000
  17074     305.9265      0.00000
  17075     305.9492      0.00000
  17076     305.9602      0.00000
  17077     305.9714      0.00000
  17078     305.9801      0.00000
  17079     305.9978      0.00000
  17080     306.0018      0.00000
  17081     306.0161      0.00000
  17082     306.0299      0.00000
  17083     306.0492      0.00000
  17084     306.0609      0.00000
  17085     306.0727      0.00000
  17086     306.0900      0.00000
  17087     306.0947      0.00000
  17088     306.1016      0.00000
  17089     306.1062      0.00000
  17090     306.1183      0.00000
  17091     306.1380      0.00000
  17092     306.1435      0.00000
  17093     306.1524      0.00000
  17094     306.1679      0.00000
  17095     306.1782      0.00000
  17096     306.1815      0.00000
  17097     306.1972      0.00000
  17098     306.2171      0.00000
  17099     306.2237      0.00000
  17100     306.2310      0.00000
  17101     306.2480      0.00000
  17102     306.2628      0.00000
  17103     306.2698      0.00000
  17104     306.2804      0.00000
  17105     306.2992      0.00000
  17106     306.3047      0.00000
  17107     306.3207      0.00000
  17108     306.3287      0.00000
  17109     306.3355      0.00000
  17110     306.3490      0.00000
  17111     306.3658      0.00000
  17112     306.3857      0.00000
  17113     306.3951      0.00000
  17114     306.4073      0.00000
  17115     306.4328      0.00000
  17116     306.4457      0.00000
  17117     306.4581      0.00000
  17118     306.4641      0.00000
  17119     306.4827      0.00000
  17120     306.4943      0.00000
  17121     306.4965      0.00000
  17122     306.5144      0.00000
  17123     306.5191      0.00000
  17124     306.5377      0.00000
  17125     306.5606      0.00000
  17126     306.5691      0.00000
  17127     306.5849      0.00000
  17128     306.5901      0.00000
  17129     306.5979      0.00000
  17130     306.6014      0.00000
  17131     306.6125      0.00000
  17132     306.6409      0.00000
  17133     306.6477      0.00000
  17134     306.6538      0.00000
  17135     306.6751      0.00000
  17136     306.6836      0.00000
  17137     306.7006      0.00000
  17138     306.7194      0.00000
  17139     306.7296      0.00000
  17140     306.7339      0.00000
  17141     306.7448      0.00000
  17142     306.7546      0.00000
  17143     306.7815      0.00000
  17144     306.7841      0.00000
  17145     306.7948      0.00000
  17146     306.8018      0.00000
  17147     306.8284      0.00000
  17148     306.8387      0.00000
  17149     306.8482      0.00000
  17150     306.8584      0.00000
  17151     306.8679      0.00000
  17152     306.8983      0.00000
  17153     306.9041      0.00000
  17154     306.9185      0.00000
  17155     306.9321      0.00000
  17156     306.9404      0.00000
  17157     306.9535      0.00000
  17158     306.9668      0.00000
  17159     306.9798      0.00000
  17160     306.9860      0.00000
  17161     307.0015      0.00000
  17162     307.0060      0.00000
  17163     307.0484      0.00000
  17164     307.0610      0.00000
  17165     307.0730      0.00000
  17166     307.0762      0.00000
  17167     307.0796      0.00000
  17168     307.1012      0.00000
  17169     307.1179      0.00000
  17170     307.1278      0.00000
  17171     307.1377      0.00000
  17172     307.1425      0.00000
  17173     307.1531      0.00000
  17174     307.1749      0.00000
  17175     307.1997      0.00000
  17176     307.2072      0.00000
  17177     307.2274      0.00000
  17178     307.2349      0.00000
  17179     307.2442      0.00000
  17180     307.2600      0.00000
  17181     307.2764      0.00000
  17182     307.2842      0.00000
  17183     307.2998      0.00000
  17184     307.3243      0.00000
  17185     307.3338      0.00000
  17186     307.3530      0.00000
  17187     307.3659      0.00000
  17188     307.3750      0.00000
  17189     307.3889      0.00000
  17190     307.4090      0.00000
  17191     307.4187      0.00000
  17192     307.4325      0.00000
  17193     307.4529      0.00000
  17194     307.4614      0.00000
  17195     307.4626      0.00000
  17196     307.4845      0.00000
  17197     307.4919      0.00000
  17198     307.5160      0.00000
  17199     307.5263      0.00000
  17200     307.5322      0.00000
  17201     307.5435      0.00000
  17202     307.5559      0.00000
  17203     307.5639      0.00000
  17204     307.5780      0.00000
  17205     307.5922      0.00000
  17206     307.6070      0.00000
  17207     307.6210      0.00000
  17208     307.6364      0.00000
  17209     307.6516      0.00000
  17210     307.6627      0.00000
  17211     307.6720      0.00000
  17212     307.6857      0.00000
  17213     307.7024      0.00000
  17214     307.7110      0.00000
  17215     307.7232      0.00000
  17216     307.7402      0.00000
  17217     307.7463      0.00000
  17218     307.7649      0.00000
  17219     307.7818      0.00000
  17220     307.7972      0.00000
  17221     307.8042      0.00000
  17222     307.8151      0.00000
  17223     307.8210      0.00000
  17224     307.8404      0.00000
  17225     307.8609      0.00000
  17226     307.8731      0.00000
  17227     307.8856      0.00000
  17228     307.8946      0.00000
  17229     307.9037      0.00000
  17230     307.9103      0.00000
  17231     307.9193      0.00000
  17232     307.9394      0.00000
  17233     307.9563      0.00000
  17234     307.9648      0.00000
  17235     307.9741      0.00000
  17236     307.9818      0.00000
  17237     307.9998      0.00000
  17238     308.0085      0.00000
  17239     308.0186      0.00000
  17240     308.0364      0.00000
  17241     308.0528      0.00000
  17242     308.0675      0.00000
  17243     308.0790      0.00000
  17244     308.0837      0.00000
  17245     308.1071      0.00000
  17246     308.1205      0.00000
  17247     308.1373      0.00000
  17248     308.1427      0.00000
  17249     308.1603      0.00000
  17250     308.1680      0.00000
  17251     308.1853      0.00000
  17252     308.2070      0.00000
  17253     308.2099      0.00000
  17254     308.2214      0.00000
  17255     308.2286      0.00000
  17256     308.2381      0.00000
  17257     308.2538      0.00000
  17258     308.2665      0.00000
  17259     308.2908      0.00000
  17260     308.2941      0.00000
  17261     308.3039      0.00000
  17262     308.3179      0.00000
  17263     308.3331      0.00000
  17264     308.3493      0.00000
  17265     308.3550      0.00000
  17266     308.3621      0.00000
  17267     308.3893      0.00000
  17268     308.3949      0.00000
  17269     308.4170      0.00000
  17270     308.4267      0.00000
  17271     308.4479      0.00000
  17272     308.4596      0.00000
  17273     308.4700      0.00000
  17274     308.4738      0.00000
  17275     308.4887      0.00000
  17276     308.4997      0.00000
  17277     308.5127      0.00000
  17278     308.5255      0.00000
  17279     308.5344      0.00000
  17280     308.5453      0.00000
  17281     308.5579      0.00000
  17282     308.5753      0.00000
  17283     308.5948      0.00000
  17284     308.5982      0.00000
  17285     308.6114      0.00000
  17286     308.6149      0.00000
  17287     308.6315      0.00000
  17288     308.6362      0.00000
  17289     308.6530      0.00000
  17290     308.6821      0.00000
  17291     308.6913      0.00000
  17292     308.6931      0.00000
  17293     308.7037      0.00000
  17294     308.7233      0.00000
  17295     308.7401      0.00000
  17296     308.7507      0.00000
  17297     308.7538      0.00000
  17298     308.7734      0.00000
  17299     308.7875      0.00000
  17300     308.8132      0.00000
  17301     308.8186      0.00000
  17302     308.8271      0.00000
  17303     308.8342      0.00000
  17304     308.8397      0.00000
  17305     308.8628      0.00000
  17306     308.8659      0.00000
  17307     308.8823      0.00000
  17308     308.9101      0.00000
  17309     308.9175      0.00000
  17310     308.9223      0.00000
  17311     308.9438      0.00000
  17312     308.9470      0.00000
  17313     308.9564      0.00000
  17314     308.9709      0.00000
  17315     308.9856      0.00000
  17316     308.9898      0.00000
  17317     308.9948      0.00000
  17318     309.0176      0.00000
  17319     309.0282      0.00000
  17320     309.0311      0.00000
  17321     309.0450      0.00000
  17322     309.0633      0.00000
  17323     309.0678      0.00000
  17324     309.0810      0.00000
  17325     309.0837      0.00000
  17326     309.1065      0.00000
  17327     309.1166      0.00000
  17328     309.1228      0.00000
  17329     309.1327      0.00000
  17330     309.1461      0.00000
  17331     309.1607      0.00000
  17332     309.1660      0.00000
  17333     309.1801      0.00000
  17334     309.1912      0.00000
  17335     309.2041      0.00000
  17336     309.2154      0.00000
  17337     309.2379      0.00000
  17338     309.2446      0.00000
  17339     309.2555      0.00000
  17340     309.2688      0.00000
  17341     309.2888      0.00000
  17342     309.2994      0.00000
  17343     309.3029      0.00000
  17344     309.3163      0.00000
  17345     309.3352      0.00000
  17346     309.3434      0.00000
  17347     309.3575      0.00000
  17348     309.3652      0.00000
  17349     309.3830      0.00000
  17350     309.3921      0.00000
  17351     309.4017      0.00000
  17352     309.4071      0.00000
  17353     309.4285      0.00000
  17354     309.4450      0.00000
  17355     309.4533      0.00000
  17356     309.4690      0.00000
  17357     309.4772      0.00000
  17358     309.4847      0.00000
  17359     309.4939      0.00000
  17360     309.5026      0.00000
  17361     309.5242      0.00000
  17362     309.5399      0.00000
  17363     309.5547      0.00000
  17364     309.5789      0.00000
  17365     309.5818      0.00000
  17366     309.5992      0.00000
  17367     309.6011      0.00000
  17368     309.6080      0.00000
  17369     309.6173      0.00000
  17370     309.6411      0.00000
  17371     309.6456      0.00000
  17372     309.6636      0.00000
  17373     309.6720      0.00000
  17374     309.6829      0.00000
  17375     309.6973      0.00000
  17376     309.7019      0.00000
  17377     309.7226      0.00000
  17378     309.7365      0.00000
  17379     309.7421      0.00000
  17380     309.7519      0.00000
  17381     309.7563      0.00000
  17382     309.7714      0.00000
  17383     309.7780      0.00000
  17384     309.8005      0.00000
  17385     309.8022      0.00000
  17386     309.8201      0.00000
  17387     309.8342      0.00000
  17388     309.8427      0.00000
  17389     309.8620      0.00000
  17390     309.8744      0.00000
  17391     309.8934      0.00000
  17392     309.8945      0.00000
  17393     309.9103      0.00000
  17394     309.9291      0.00000
  17395     309.9431      0.00000
  17396     309.9509      0.00000
  17397     309.9627      0.00000
  17398     309.9828      0.00000
  17399     309.9951      0.00000
  17400     310.0000      0.00000
  17401     310.0170      0.00000
  17402     310.0258      0.00000
  17403     310.0327      0.00000
  17404     310.0368      0.00000
  17405     310.0478      0.00000
  17406     310.0627      0.00000
  17407     310.0872      0.00000
  17408     310.0931      0.00000
  17409     310.1036      0.00000
  17410     310.1098      0.00000
  17411     310.1209      0.00000
  17412     310.1325      0.00000
  17413     310.1354      0.00000
  17414     310.1545      0.00000
  17415     310.1705      0.00000
  17416     310.1841      0.00000
  17417     310.2078      0.00000
  17418     310.2136      0.00000
  17419     310.2323      0.00000
  17420     310.2432      0.00000
  17421     310.2596      0.00000
  17422     310.2667      0.00000
  17423     310.2790      0.00000
  17424     310.2797      0.00000
  17425     310.2979      0.00000
  17426     310.3178      0.00000
  17427     310.3257      0.00000
  17428     310.3360      0.00000
  17429     310.3466      0.00000
  17430     310.3677      0.00000
  17431     310.3715      0.00000
  17432     310.3764      0.00000
  17433     310.3920      0.00000
  17434     310.4094      0.00000
  17435     310.4097      0.00000
  17436     310.4209      0.00000
  17437     310.4370      0.00000
  17438     310.4474      0.00000
  17439     310.4574      0.00000
  17440     310.4817      0.00000
  17441     310.4868      0.00000
  17442     310.4960      0.00000
  17443     310.5054      0.00000
  17444     310.5231      0.00000
  17445     310.5347      0.00000
  17446     310.5460      0.00000
  17447     310.5624      0.00000
  17448     310.5674      0.00000
  17449     310.5908      0.00000
  17450     310.6018      0.00000
  17451     310.6054      0.00000
  17452     310.6170      0.00000
  17453     310.6301      0.00000
  17454     310.6473      0.00000
  17455     310.6548      0.00000
  17456     310.6651      0.00000
  17457     310.6746      0.00000
  17458     310.6911      0.00000
  17459     310.7061      0.00000
  17460     310.7220      0.00000
  17461     310.7280      0.00000
  17462     310.7361      0.00000
  17463     310.7429      0.00000
  17464     310.7599      0.00000
  17465     310.7679      0.00000
  17466     310.7760      0.00000
  17467     310.7942      0.00000
  17468     310.8043      0.00000
  17469     310.8184      0.00000
  17470     310.8338      0.00000
  17471     310.8344      0.00000
  17472     310.8500      0.00000
  17473     310.8749      0.00000
  17474     310.8896      0.00000
  17475     310.8984      0.00000
  17476     310.9015      0.00000
  17477     310.9257      0.00000
  17478     310.9354      0.00000
  17479     310.9520      0.00000
  17480     310.9641      0.00000
  17481     310.9682      0.00000
  17482     310.9694      0.00000
  17483     310.9888      0.00000
  17484     310.9979      0.00000
  17485     310.9993      0.00000
  17486     311.0219      0.00000
  17487     311.0420      0.00000
  17488     311.0495      0.00000
  17489     311.0670      0.00000
  17490     311.0867      0.00000
  17491     311.0923      0.00000
  17492     311.1100      0.00000
  17493     311.1226      0.00000
  17494     311.1357      0.00000
  17495     311.1462      0.00000
  17496     311.1500      0.00000
  17497     311.1585      0.00000
  17498     311.1770      0.00000
  17499     311.1927      0.00000
  17500     311.2011      0.00000
  17501     311.2080      0.00000
  17502     311.2353      0.00000
  17503     311.2430      0.00000
  17504     311.2548      0.00000
  17505     311.2583      0.00000
  17506     311.2621      0.00000
  17507     311.2782      0.00000
  17508     311.2932      0.00000
  17509     311.3021      0.00000
  17510     311.3124      0.00000
  17511     311.3251      0.00000
  17512     311.3480      0.00000
  17513     311.3606      0.00000
  17514     311.3795      0.00000
  17515     311.3987      0.00000
  17516     311.4079      0.00000
  17517     311.4196      0.00000
  17518     311.4259      0.00000
  17519     311.4522      0.00000
  17520     311.4565      0.00000
  17521     311.4663      0.00000
  17522     311.4746      0.00000
  17523     311.4850      0.00000
  17524     311.5121      0.00000
  17525     311.5206      0.00000
  17526     311.5302      0.00000
  17527     311.5520      0.00000
  17528     311.5563      0.00000
  17529     311.5836      0.00000
  17530     311.5905      0.00000
  17531     311.6105      0.00000
  17532     311.6131      0.00000
  17533     311.6159      0.00000
  17534     311.6353      0.00000
  17535     311.6387      0.00000
  17536     311.6470      0.00000
  17537     311.6641      0.00000
  17538     311.6849      0.00000
  17539     311.6968      0.00000
  17540     311.7027      0.00000
  17541     311.7058      0.00000
  17542     311.7199      0.00000
  17543     311.7248      0.00000
  17544     311.7430      0.00000
  17545     311.7517      0.00000
  17546     311.7701      0.00000
  17547     311.7768      0.00000
  17548     311.7996      0.00000
  17549     311.8080      0.00000
  17550     311.8223      0.00000
  17551     311.8381      0.00000
  17552     311.8416      0.00000
  17553     311.8551      0.00000
  17554     311.8596      0.00000
  17555     311.8686      0.00000
  17556     311.8808      0.00000
  17557     311.8952      0.00000
  17558     311.9212      0.00000
  17559     311.9461      0.00000
  17560     311.9481      0.00000
  17561     311.9591      0.00000
  17562     311.9709      0.00000
  17563     311.9828      0.00000
  17564     311.9977      0.00000
  17565     312.0215      0.00000
  17566     312.0258      0.00000
  17567     312.0332      0.00000
  17568     312.0469      0.00000
  17569     312.0498      0.00000
  17570     312.0795      0.00000
  17571     312.0851      0.00000
  17572     312.1112      0.00000
  17573     312.1195      0.00000
  17574     312.1294      0.00000
  17575     312.1436      0.00000
  17576     312.1645      0.00000
  17577     312.1693      0.00000
  17578     312.1722      0.00000
  17579     312.1908      0.00000
  17580     312.2116      0.00000
  17581     312.2147      0.00000
  17582     312.2177      0.00000
  17583     312.2327      0.00000
  17584     312.2440      0.00000
  17585     312.2570      0.00000
  17586     312.2871      0.00000
  17587     312.2926      0.00000
  17588     312.2991      0.00000
  17589     312.3126      0.00000
  17590     312.3253      0.00000
  17591     312.3457      0.00000
  17592     312.3686      0.00000
  17593     312.3699      0.00000
  17594     312.3780      0.00000
  17595     312.3957      0.00000
  17596     312.4018      0.00000
  17597     312.4208      0.00000
  17598     312.4211      0.00000
  17599     312.4413      0.00000
  17600     312.4530      0.00000
  17601     312.4664      0.00000
  17602     312.4814      0.00000
  17603     312.4884      0.00000
  17604     312.4962      0.00000
  17605     312.5082      0.00000
  17606     312.5171      0.00000
  17607     312.5276      0.00000
  17608     312.5422      0.00000
  17609     312.5565      0.00000
  17610     312.5783      0.00000
  17611     312.5840      0.00000
  17612     312.5973      0.00000
  17613     312.6044      0.00000
  17614     312.6341      0.00000
  17615     312.6456      0.00000
  17616     312.6614      0.00000
  17617     312.6764      0.00000
  17618     312.6873      0.00000
  17619     312.7009      0.00000
  17620     312.7114      0.00000
  17621     312.7237      0.00000
  17622     312.7321      0.00000
  17623     312.7614      0.00000
  17624     312.7644      0.00000
  17625     312.7889      0.00000
  17626     312.7938      0.00000
  17627     312.8052      0.00000
  17628     312.8178      0.00000
  17629     312.8270      0.00000
  17630     312.8554      0.00000
  17631     312.8667      0.00000
  17632     312.8880      0.00000
  17633     312.9003      0.00000
  17634     312.9112      0.00000
  17635     312.9237      0.00000
  17636     312.9338      0.00000
  17637     312.9552      0.00000
  17638     312.9600      0.00000
  17639     312.9875      0.00000
  17640     312.9896      0.00000
  17641     313.0003      0.00000
  17642     313.0151      0.00000
  17643     313.0352      0.00000
  17644     313.0439      0.00000
  17645     313.0644      0.00000
  17646     313.0774      0.00000
  17647     313.0795      0.00000
  17648     313.0913      0.00000
  17649     313.1046      0.00000
  17650     313.1291      0.00000
  17651     313.1358      0.00000
  17652     313.1416      0.00000
  17653     313.1600      0.00000
  17654     313.1707      0.00000
  17655     313.1778      0.00000
  17656     313.1866      0.00000
  17657     313.1954      0.00000
  17658     313.2056      0.00000
  17659     313.2217      0.00000
  17660     313.2332      0.00000
  17661     313.2539      0.00000
  17662     313.2590      0.00000
  17663     313.2717      0.00000
  17664     313.2881      0.00000
  17665     313.2979      0.00000
  17666     313.3114      0.00000
  17667     313.3269      0.00000
  17668     313.3398      0.00000
  17669     313.3541      0.00000
  17670     313.3676      0.00000
  17671     313.3922      0.00000
  17672     313.4005      0.00000
  17673     313.4044      0.00000
  17674     313.4246      0.00000
  17675     313.4387      0.00000
  17676     313.4476      0.00000
  17677     313.4613      0.00000
  17678     313.4705      0.00000
  17679     313.4859      0.00000
  17680     313.5061      0.00000
  17681     313.5115      0.00000
  17682     313.5201      0.00000
  17683     313.5391      0.00000
  17684     313.5401      0.00000
  17685     313.5645      0.00000
  17686     313.5755      0.00000
  17687     313.5869      0.00000
  17688     313.5933      0.00000
  17689     313.6114      0.00000
  17690     313.6210      0.00000
  17691     313.6362      0.00000
  17692     313.6576      0.00000
  17693     313.6727      0.00000
  17694     313.6748      0.00000
  17695     313.6792      0.00000
  17696     313.7007      0.00000
  17697     313.7035      0.00000
  17698     313.7232      0.00000
  17699     313.7316      0.00000
  17700     313.7502      0.00000
  17701     313.7606      0.00000
  17702     313.7802      0.00000
  17703     313.7827      0.00000
  17704     313.7954      0.00000
  17705     313.8071      0.00000
  17706     313.8166      0.00000
  17707     313.8306      0.00000
  17708     313.8514      0.00000
  17709     313.8629      0.00000
  17710     313.8694      0.00000
  17711     313.8763      0.00000
  17712     313.8937      0.00000
  17713     313.9101      0.00000
  17714     313.9288      0.00000
  17715     313.9353      0.00000
  17716     313.9461      0.00000
  17717     313.9532      0.00000
  17718     313.9726      0.00000
  17719     313.9748      0.00000
  17720     313.9852      0.00000
  17721     313.9921      0.00000
  17722     314.0081      0.00000
  17723     314.0311      0.00000
  17724     314.0487      0.00000
  17725     314.0511      0.00000
  17726     314.0539      0.00000
  17727     314.0715      0.00000
  17728     314.0760      0.00000
  17729     314.0850      0.00000
  17730     314.0931      0.00000
  17731     314.0979      0.00000
  17732     314.1149      0.00000
  17733     314.1265      0.00000
  17734     314.1530      0.00000
  17735     314.1612      0.00000
  17736     314.1729      0.00000
  17737     314.1836      0.00000
  17738     314.1915      0.00000
  17739     314.2103      0.00000
  17740     314.2209      0.00000
  17741     314.2289      0.00000
  17742     314.2362      0.00000
  17743     314.2406      0.00000
  17744     314.2554      0.00000
  17745     314.2662      0.00000
  17746     314.2734      0.00000
  17747     314.2788      0.00000
  17748     314.3108      0.00000
  17749     314.3196      0.00000
  17750     314.3304      0.00000
  17751     314.3382      0.00000
  17752     314.3550      0.00000
  17753     314.3605      0.00000
  17754     314.3788      0.00000
  17755     314.3936      0.00000
  17756     314.4061      0.00000
  17757     314.4238      0.00000
  17758     314.4332      0.00000
  17759     314.4470      0.00000
  17760     314.4591      0.00000
  17761     314.4648      0.00000
  17762     314.4829      0.00000
  17763     314.4936      0.00000
  17764     314.5012      0.00000
  17765     314.5129      0.00000
  17766     314.5253      0.00000
  17767     314.5358      0.00000
  17768     314.5506      0.00000
  17769     314.5653      0.00000
  17770     314.5681      0.00000
  17771     314.5779      0.00000
  17772     314.5863      0.00000
  17773     314.5929      0.00000
  17774     314.6098      0.00000
  17775     314.6156      0.00000
  17776     314.6379      0.00000
  17777     314.6389      0.00000
  17778     314.6598      0.00000
  17779     314.6738      0.00000
  17780     314.6855      0.00000
  17781     314.6959      0.00000
  17782     314.7090      0.00000
  17783     314.7132      0.00000
  17784     314.7244      0.00000
  17785     314.7436      0.00000
  17786     314.7497      0.00000
  17787     314.7686      0.00000
  17788     314.7774      0.00000
  17789     314.7857      0.00000
  17790     314.7888      0.00000
  17791     314.8045      0.00000
  17792     314.8195      0.00000
  17793     314.8244      0.00000
  17794     314.8477      0.00000
  17795     314.8509      0.00000
  17796     314.8545      0.00000
  17797     314.8711      0.00000
  17798     314.8774      0.00000
  17799     314.9003      0.00000
  17800     314.9085      0.00000
  17801     314.9279      0.00000
  17802     314.9379      0.00000
  17803     314.9563      0.00000
  17804     314.9614      0.00000
  17805     314.9732      0.00000
  17806     314.9863      0.00000
  17807     314.9982      0.00000
  17808     315.0057      0.00000
  17809     315.0103      0.00000
  17810     315.0222      0.00000
  17811     315.0318      0.00000
  17812     315.0425      0.00000
  17813     315.0611      0.00000
  17814     315.0638      0.00000
  17815     315.0763      0.00000
  17816     315.0892      0.00000
  17817     315.0963      0.00000
  17818     315.1032      0.00000
  17819     315.1287      0.00000
  17820     315.1376      0.00000
  17821     315.1542      0.00000
  17822     315.1571      0.00000
  17823     315.1664      0.00000
  17824     315.1881      0.00000
  17825     315.1922      0.00000
  17826     315.2058      0.00000
  17827     315.2102      0.00000
  17828     315.2192      0.00000
  17829     315.2322      0.00000
  17830     315.2439      0.00000
  17831     315.2511      0.00000
  17832     315.2715      0.00000
  17833     315.2819      0.00000
  17834     315.2851      0.00000
  17835     315.2912      0.00000
  17836     315.2922      0.00000
  17837     315.3017      0.00000
  17838     315.3101      0.00000
  17839     315.3248      0.00000
  17840     315.3320      0.00000
  17841     315.3448      0.00000
  17842     315.3634      0.00000
  17843     315.3700      0.00000
  17844     315.3838      0.00000
  17845     315.4005      0.00000
  17846     315.4070      0.00000
  17847     315.4085      0.00000
  17848     315.4138      0.00000
  17849     315.4359      0.00000
  17850     315.4396      0.00000
  17851     315.4602      0.00000
  17852     315.4684      0.00000
  17853     315.4821      0.00000
  17854     315.4954      0.00000
  17855     315.4999      0.00000
  17856     315.5083      0.00000
  17857     315.5239      0.00000
  17858     315.5412      0.00000
  17859     315.5573      0.00000
  17860     315.5659      0.00000
  17861     315.5699      0.00000
  17862     315.5805      0.00000
  17863     315.5919      0.00000
  17864     315.6037      0.00000
  17865     315.6061      0.00000
  17866     315.6191      0.00000
  17867     315.6340      0.00000
  17868     315.6394      0.00000
  17869     315.6530      0.00000
  17870     315.6645      0.00000
  17871     315.6687      0.00000
  17872     315.6751      0.00000
  17873     315.6837      0.00000
  17874     315.6977      0.00000
  17875     315.7057      0.00000
  17876     315.7141      0.00000
  17877     315.7177      0.00000
  17878     315.7504      0.00000
  17879     315.7545      0.00000
  17880     315.7660      0.00000
  17881     315.7667      0.00000
  17882     315.7824      0.00000
  17883     315.7919      0.00000
  17884     315.8010      0.00000
  17885     315.8076      0.00000
  17886     315.8202      0.00000
  17887     315.8298      0.00000
  17888     315.8433      0.00000
  17889     315.8463      0.00000
  17890     315.8571      0.00000
  17891     315.8725      0.00000
  17892     315.8800      0.00000
  17893     315.8932      0.00000
  17894     315.8950      0.00000
  17895     315.9092      0.00000
  17896     315.9202      0.00000
  17897     315.9299      0.00000
  17898     315.9562      0.00000
  17899     315.9632      0.00000
  17900     315.9712      0.00000
  17901     315.9815      0.00000
  17902     315.9922      0.00000
  17903     316.0005      0.00000
  17904     316.0144      0.00000
  17905     316.0285      0.00000
  17906     316.0374      0.00000
  17907     316.0400      0.00000
  17908     316.0505      0.00000
  17909     316.0757      0.00000
  17910     316.0850      0.00000
  17911     316.0861      0.00000
  17912     316.0995      0.00000
  17913     316.1166      0.00000
  17914     316.1236      0.00000
  17915     316.1286      0.00000
  17916     316.1392      0.00000
  17917     316.1455      0.00000
  17918     316.1590      0.00000
  17919     316.1728      0.00000
  17920     316.1889      0.00000
  17921     316.1950      0.00000
  17922     316.2068      0.00000
  17923     316.2281      0.00000
  17924     316.2313      0.00000
  17925     316.2407      0.00000
  17926     316.2579      0.00000
  17927     316.2735      0.00000
  17928     316.2780      0.00000
  17929     316.2940      0.00000
  17930     316.2994      0.00000
  17931     316.3108      0.00000
  17932     316.3241      0.00000
  17933     316.3281      0.00000
  17934     316.3348      0.00000
  17935     316.3440      0.00000
  17936     316.3525      0.00000
  17937     316.3554      0.00000
  17938     316.3751      0.00000
  17939     316.3815      0.00000
  17940     316.3906      0.00000
  17941     316.3981      0.00000
  17942     316.4092      0.00000
  17943     316.4111      0.00000
  17944     316.4255      0.00000
  17945     316.4304      0.00000
  17946     316.4396      0.00000
  17947     316.4525      0.00000
  17948     316.4743      0.00000
  17949     316.4829      0.00000
  17950     316.4860      0.00000
  17951     316.5039      0.00000
  17952     316.5089      0.00000
  17953     316.5189      0.00000
  17954     316.5258      0.00000
  17955     316.5308      0.00000
  17956     316.5491      0.00000
  17957     316.5557      0.00000
  17958     316.5578      0.00000
  17959     316.5662      0.00000
  17960     316.5885      0.00000
  17961     316.5976      0.00000
  17962     316.6059      0.00000
  17963     316.6167      0.00000
  17964     316.6236      0.00000
  17965     316.6269      0.00000
  17966     316.6406      0.00000
  17967     316.6497      0.00000
  17968     316.6670      0.00000
  17969     316.6757      0.00000
  17970     316.6811      0.00000
  17971     316.6961      0.00000
  17972     316.7076      0.00000
  17973     316.7122      0.00000
  17974     316.7320      0.00000
  17975     316.7389      0.00000
  17976     316.7601      0.00000
  17977     316.7686      0.00000
  17978     316.7765      0.00000
  17979     316.7837      0.00000
  17980     316.7948      0.00000
  17981     316.7968      0.00000
  17982     316.8061      0.00000
  17983     316.8219      0.00000
  17984     316.8384      0.00000
  17985     316.8458      0.00000
  17986     316.8535      0.00000
  17987     316.8797      0.00000
  17988     316.8899      0.00000
  17989     316.8978      0.00000
  17990     316.9013      0.00000
  17991     316.9087      0.00000
  17992     316.9221      0.00000
  17993     316.9316      0.00000
  17994     316.9548      0.00000
  17995     316.9620      0.00000
  17996     316.9652      0.00000
  17997     316.9862      0.00000
  17998     316.9875      0.00000
  17999     317.0038      0.00000
  18000     317.0113      0.00000
  18001     317.0262      0.00000
  18002     317.0404      0.00000
  18003     317.0475      0.00000
  18004     317.0572      0.00000
  18005     317.0718      0.00000
  18006     317.0787      0.00000
  18007     317.0900      0.00000
  18008     317.0915      0.00000
  18009     317.0970      0.00000
  18010     317.1116      0.00000
  18011     317.1236      0.00000
  18012     317.1278      0.00000
  18013     317.1444      0.00000
  18014     317.1486      0.00000
  18015     317.1703      0.00000
  18016     317.1723      0.00000
  18017     317.1858      0.00000
  18018     317.1891      0.00000
  18019     317.2026      0.00000
  18020     317.2066      0.00000
  18021     317.2102      0.00000
  18022     317.2174      0.00000
  18023     317.2295      0.00000
  18024     317.2407      0.00000
  18025     317.2426      0.00000
  18026     317.2530      0.00000
  18027     317.2734      0.00000
  18028     317.2831      0.00000
  18029     317.2848      0.00000
  18030     317.3069      0.00000
  18031     317.3148      0.00000
  18032     317.3225      0.00000
  18033     317.3306      0.00000
  18034     317.3391      0.00000
  18035     317.3461      0.00000
  18036     317.3558      0.00000
  18037     317.3598      0.00000
  18038     317.3829      0.00000
  18039     317.3914      0.00000
  18040     317.3980      0.00000
  18041     317.4045      0.00000
  18042     317.4220      0.00000
  18043     317.4285      0.00000
  18044     317.4381      0.00000
  18045     317.4484      0.00000
  18046     317.4626      0.00000
  18047     317.4665      0.00000
  18048     317.4793      0.00000
  18049     317.4883      0.00000
  18050     317.4971      0.00000
  18051     317.5050      0.00000
  18052     317.5141      0.00000
  18053     317.5292      0.00000
  18054     317.5415      0.00000
  18055     317.5491      0.00000
  18056     317.5595      0.00000
  18057     317.5698      0.00000
  18058     317.5732      0.00000
  18059     317.5890      0.00000
  18060     317.5966      0.00000
  18061     317.6082      0.00000
  18062     317.6187      0.00000
  18063     317.6295      0.00000
  18064     317.6329      0.00000
  18065     317.6423      0.00000
  18066     317.6579      0.00000
  18067     317.6661      0.00000
  18068     317.6716      0.00000
  18069     317.6868      0.00000
  18070     317.6955      0.00000
  18071     317.7007      0.00000
  18072     317.7194      0.00000
  18073     317.7348      0.00000
  18074     317.7456      0.00000
  18075     317.7489      0.00000
  18076     317.7617      0.00000
  18077     317.7674      0.00000
  18078     317.7705      0.00000
  18079     317.7871      0.00000
  18080     317.7942      0.00000
  18081     317.8126      0.00000
  18082     317.8163      0.00000
  18083     317.8325      0.00000
  18084     317.8354      0.00000
  18085     317.8473      0.00000
  18086     317.8542      0.00000
  18087     317.8598      0.00000
  18088     317.8858      0.00000
  18089     317.8940      0.00000
  18090     317.9102      0.00000
  18091     317.9133      0.00000
  18092     317.9269      0.00000
  18093     317.9360      0.00000
  18094     317.9426      0.00000
  18095     317.9539      0.00000
  18096     317.9644      0.00000
  18097     317.9712      0.00000
  18098     317.9899      0.00000
  18099     317.9953      0.00000
  18100     318.0045      0.00000
  18101     318.0148      0.00000
  18102     318.0287      0.00000
  18103     318.0398      0.00000
  18104     318.0518      0.00000
  18105     318.0659      0.00000
  18106     318.0762      0.00000
  18107     318.0951      0.00000
  18108     318.1038      0.00000
  18109     318.1099      0.00000
  18110     318.1196      0.00000
  18111     318.1293      0.00000
  18112     318.1360      0.00000
  18113     318.1398      0.00000
  18114     318.1610      0.00000
  18115     318.1785      0.00000
  18116     318.1834      0.00000
  18117     318.1927      0.00000
  18118     318.2053      0.00000
  18119     318.2159      0.00000
  18120     318.2199      0.00000
  18121     318.2377      0.00000
  18122     318.2434      0.00000
  18123     318.2676      0.00000
  18124     318.2874      0.00000
  18125     318.2923      0.00000
  18126     318.2952      0.00000
  18127     318.3040      0.00000
  18128     318.3136      0.00000
  18129     318.3386      0.00000
  18130     318.3478      0.00000
  18131     318.3549      0.00000
  18132     318.3672      0.00000
  18133     318.3881      0.00000
  18134     318.3901      0.00000
  18135     318.3958      0.00000
  18136     318.4104      0.00000
  18137     318.4236      0.00000
  18138     318.4250      0.00000
  18139     318.4415      0.00000
  18140     318.4522      0.00000
  18141     318.4793      0.00000
  18142     318.4888      0.00000
  18143     318.4972      0.00000
  18144     318.5049      0.00000
  18145     318.5175      0.00000
  18146     318.5281      0.00000
  18147     318.5493      0.00000
  18148     318.5553      0.00000
  18149     318.5661      0.00000
  18150     318.5783      0.00000
  18151     318.5839      0.00000
  18152     318.5920      0.00000
  18153     318.6209      0.00000
  18154     318.6230      0.00000
  18155     318.6398      0.00000
  18156     318.6452      0.00000
  18157     318.6582      0.00000
  18158     318.6725      0.00000
  18159     318.6754      0.00000
  18160     318.6877      0.00000
  18161     318.6976      0.00000
  18162     318.7073      0.00000
  18163     318.7265      0.00000
  18164     318.7400      0.00000
  18165     318.7465      0.00000
  18166     318.7608      0.00000
  18167     318.7764      0.00000
  18168     318.7904      0.00000
  18169     318.8011      0.00000
  18170     318.8163      0.00000
  18171     318.8252      0.00000
  18172     318.8413      0.00000
  18173     318.8489      0.00000
  18174     318.8521      0.00000
  18175     318.8568      0.00000
  18176     318.8711      0.00000
  18177     318.8854      0.00000
  18178     318.8965      0.00000
  18179     318.9041      0.00000
  18180     318.9151      0.00000
  18181     318.9357      0.00000
  18182     318.9506      0.00000
  18183     318.9592      0.00000
  18184     318.9692      0.00000
  18185     318.9802      0.00000
  18186     318.9934      0.00000
  18187     318.9977      0.00000
  18188     319.0138      0.00000
  18189     319.0248      0.00000
  18190     319.0464      0.00000
  18191     319.0555      0.00000
  18192     319.0654      0.00000
  18193     319.0745      0.00000
  18194     319.0841      0.00000
  18195     319.0984      0.00000
  18196     319.1032      0.00000
  18197     319.1258      0.00000
  18198     319.1367      0.00000
  18199     319.1485      0.00000
  18200     319.1592      0.00000
  18201     319.1762      0.00000
  18202     319.1809      0.00000
  18203     319.1974      0.00000
  18204     319.2061      0.00000
  18205     319.2101      0.00000
  18206     319.2246      0.00000
  18207     319.2300      0.00000
  18208     319.2534      0.00000
  18209     319.2550      0.00000
  18210     319.2599      0.00000
  18211     319.2625      0.00000
  18212     319.2900      0.00000
  18213     319.2973      0.00000
  18214     319.3146      0.00000
  18215     319.3232      0.00000
  18216     319.3371      0.00000
  18217     319.3477      0.00000
  18218     319.3558      0.00000
  18219     319.3742      0.00000
  18220     319.3936      0.00000
  18221     319.4017      0.00000
  18222     319.4112      0.00000
  18223     319.4179      0.00000
  18224     319.4320      0.00000
  18225     319.4444      0.00000
  18226     319.4607      0.00000
  18227     319.4701      0.00000
  18228     319.4737      0.00000
  18229     319.4885      0.00000
  18230     319.4939      0.00000
  18231     319.5049      0.00000
  18232     319.5135      0.00000
  18233     319.5311      0.00000
  18234     319.5493      0.00000
  18235     319.5610      0.00000
  18236     319.5792      0.00000
  18237     319.5868      0.00000
  18238     319.6022      0.00000
  18239     319.6069      0.00000
  18240     319.6102      0.00000
  18241     319.6347      0.00000
  18242     319.6457      0.00000
  18243     319.6511      0.00000
  18244     319.6655      0.00000
  18245     319.6859      0.00000
  18246     319.7030      0.00000
  18247     319.7178      0.00000
  18248     319.7207      0.00000
  18249     319.7354      0.00000
  18250     319.7416      0.00000
  18251     319.7479      0.00000
  18252     319.7663      0.00000
  18253     319.7806      0.00000
  18254     319.7929      0.00000
  18255     319.8125      0.00000
  18256     319.8230      0.00000
  18257     319.8348      0.00000
  18258     319.8480      0.00000
  18259     319.8589      0.00000
  18260     319.8699      0.00000
  18261     319.8766      0.00000
  18262     319.8785      0.00000
  18263     319.9029      0.00000
  18264     319.9081      0.00000
  18265     319.9254      0.00000
  18266     319.9356      0.00000
  18267     319.9538      0.00000
  18268     319.9567      0.00000
  18269     319.9648      0.00000
  18270     319.9668      0.00000
  18271     319.9876      0.00000
  18272     320.0043      0.00000
  18273     320.0197      0.00000
  18274     320.0370      0.00000
  18275     320.0435      0.00000
  18276     320.0559      0.00000
  18277     320.0644      0.00000
  18278     320.0789      0.00000
  18279     320.0912      0.00000
  18280     320.1022      0.00000
  18281     320.1154      0.00000
  18282     320.1262      0.00000
  18283     320.1351      0.00000
  18284     320.1454      0.00000
  18285     320.1612      0.00000
  18286     320.1709      0.00000
  18287     320.1806      0.00000
  18288     320.1895      0.00000
  18289     320.2007      0.00000
  18290     320.2126      0.00000
  18291     320.2155      0.00000
  18292     320.2348      0.00000
  18293     320.2502      0.00000
  18294     320.2634      0.00000
  18295     320.2844      0.00000
  18296     320.2927      0.00000
  18297     320.3036      0.00000
  18298     320.3278      0.00000
  18299     320.3451      0.00000
  18300     320.3511      0.00000
  18301     320.3517      0.00000
  18302     320.3656      0.00000
  18303     320.3815      0.00000
  18304     320.4011      0.00000
  18305     320.4063      0.00000
  18306     320.4165      0.00000
  18307     320.4278      0.00000
  18308     320.4286      0.00000
  18309     320.4439      0.00000
  18310     320.4595      0.00000
  18311     320.4662      0.00000
  18312     320.4759      0.00000
  18313     320.4945      0.00000
  18314     320.4976      0.00000
  18315     320.5252      0.00000
  18316     320.5313      0.00000
  18317     320.5379      0.00000
  18318     320.5445      0.00000
  18319     320.5550      0.00000
  18320     320.5741      0.00000
  18321     320.5909      0.00000
  18322     320.6061      0.00000
  18323     320.6175      0.00000
  18324     320.6277      0.00000
  18325     320.6483      0.00000
  18326     320.6515      0.00000
  18327     320.6591      0.00000
  18328     320.6639      0.00000
  18329     320.6695      0.00000
  18330     320.6772      0.00000
  18331     320.6939      0.00000
  18332     320.7017      0.00000
  18333     320.7074      0.00000
  18334     320.7245      0.00000
  18335     320.7319      0.00000
  18336     320.7414      0.00000
  18337     320.7546      0.00000
  18338     320.7608      0.00000
  18339     320.7745      0.00000
  18340     320.7977      0.00000
  18341     320.8016      0.00000
  18342     320.8074      0.00000
  18343     320.8239      0.00000
  18344     320.8442      0.00000
  18345     320.8522      0.00000
  18346     320.8740      0.00000
  18347     320.8876      0.00000
  18348     320.8967      0.00000
  18349     320.9076      0.00000
  18350     320.9201      0.00000
  18351     320.9351      0.00000
  18352     320.9603      0.00000
  18353     320.9650      0.00000
  18354     320.9747      0.00000
  18355     320.9762      0.00000
  18356     320.9826      0.00000
  18357     320.9969      0.00000
  18358     321.0103      0.00000
  18359     321.0189      0.00000
  18360     321.0302      0.00000
  18361     321.0437      0.00000
  18362     321.0539      0.00000
  18363     321.0728      0.00000
  18364     321.0742      0.00000
  18365     321.0902      0.00000
  18366     321.0957      0.00000
  18367     321.1013      0.00000
  18368     321.1076      0.00000
  18369     321.1160      0.00000
  18370     321.1354      0.00000
  18371     321.1478      0.00000
  18372     321.1638      0.00000
  18373     321.1710      0.00000
  18374     321.1790      0.00000
  18375     321.1900      0.00000
  18376     321.2010      0.00000
  18377     321.2167      0.00000
  18378     321.2214      0.00000
  18379     321.2316      0.00000
  18380     321.2367      0.00000
  18381     321.2468      0.00000
  18382     321.2594      0.00000
  18383     321.2715      0.00000
  18384     321.2911      0.00000
  18385     321.2980      0.00000
  18386     321.3064      0.00000
  18387     321.3195      0.00000
  18388     321.3368      0.00000
  18389     321.3421      0.00000
  18390     321.3512      0.00000
  18391     321.3759      0.00000
  18392     321.3824      0.00000
  18393     321.3905      0.00000
  18394     321.4047      0.00000
  18395     321.4100      0.00000
  18396     321.4263      0.00000
  18397     321.4355      0.00000
  18398     321.4465      0.00000
  18399     321.4516      0.00000
  18400     321.4739      0.00000
  18401     321.4803      0.00000
  18402     321.4887      0.00000
  18403     321.5009      0.00000
  18404     321.5143      0.00000
  18405     321.5258      0.00000
  18406     321.5352      0.00000
  18407     321.5524      0.00000
  18408     321.5597      0.00000
  18409     321.5670      0.00000
  18410     321.5828      0.00000
  18411     321.5963      0.00000
  18412     321.6031      0.00000
  18413     321.6180      0.00000
  18414     321.6228      0.00000
  18415     321.6408      0.00000
  18416     321.6478      0.00000
  18417     321.6624      0.00000
  18418     321.6767      0.00000
  18419     321.6820      0.00000
  18420     321.7030      0.00000
  18421     321.7203      0.00000
  18422     321.7260      0.00000
  18423     321.7336      0.00000
  18424     321.7525      0.00000
  18425     321.7608      0.00000
  18426     321.7706      0.00000
  18427     321.7840      0.00000
  18428     321.8015      0.00000
  18429     321.8049      0.00000
  18430     321.8185      0.00000
  18431     321.8225      0.00000
  18432     321.8472      0.00000
  18433     321.8553      0.00000
  18434     321.8638      0.00000
  18435     321.8671      0.00000
  18436     321.8893      0.00000
  18437     321.9015      0.00000
  18438     321.9238      0.00000
  18439     321.9319      0.00000
  18440     321.9434      0.00000
  18441     321.9489      0.00000
  18442     321.9590      0.00000
  18443     321.9672      0.00000
  18444     321.9704      0.00000
  18445     321.9804      0.00000
  18446     321.9991      0.00000
  18447     322.0122      0.00000
  18448     322.0248      0.00000
  18449     322.0383      0.00000
  18450     322.0417      0.00000
  18451     322.0477      0.00000
  18452     322.0576      0.00000
  18453     322.0742      0.00000
  18454     322.0827      0.00000
  18455     322.0884      0.00000
  18456     322.1161      0.00000
  18457     322.1251      0.00000
  18458     322.1414      0.00000
  18459     322.1448      0.00000
  18460     322.1568      0.00000
  18461     322.1651      0.00000
  18462     322.1922      0.00000
  18463     322.1952      0.00000
  18464     322.2060      0.00000
  18465     322.2288      0.00000
  18466     322.2402      0.00000
  18467     322.2548      0.00000
  18468     322.2612      0.00000
  18469     322.2695      0.00000
  18470     322.2748      0.00000
  18471     322.2864      0.00000
  18472     322.2935      0.00000
  18473     322.3022      0.00000
  18474     322.3229      0.00000
  18475     322.3357      0.00000
  18476     322.3400      0.00000
  18477     322.3439      0.00000
  18478     322.3553      0.00000
  18479     322.3612      0.00000
  18480     322.3934      0.00000
  18481     322.4003      0.00000
  18482     322.4122      0.00000
  18483     322.4284      0.00000
  18484     322.4306      0.00000
  18485     322.4442      0.00000
  18486     322.4598      0.00000
  18487     322.4707      0.00000
  18488     322.4783      0.00000
  18489     322.4953      0.00000
  18490     322.4973      0.00000
  18491     322.5168      0.00000
  18492     322.5260      0.00000
  18493     322.5441      0.00000
  18494     322.5535      0.00000
  18495     322.5575      0.00000
  18496     322.5688      0.00000
  18497     322.5772      0.00000
  18498     322.5843      0.00000
  18499     322.6026      0.00000
  18500     322.6091      0.00000
  18501     322.6283      0.00000
  18502     322.6411      0.00000
  18503     322.6455      0.00000
  18504     322.6475      0.00000
  18505     322.6666      0.00000
  18506     322.6708      0.00000
  18507     322.6846      0.00000
  18508     322.6889      0.00000
  18509     322.7178      0.00000
  18510     322.7230      0.00000
  18511     322.7297      0.00000
  18512     322.7483      0.00000
  18513     322.7601      0.00000
  18514     322.7659      0.00000
  18515     322.7748      0.00000
  18516     322.7943      0.00000
  18517     322.8029      0.00000
  18518     322.8035      0.00000
  18519     322.8157      0.00000
  18520     322.8233      0.00000
  18521     322.8450      0.00000
  18522     322.8522      0.00000
  18523     322.8547      0.00000
  18524     322.8696      0.00000
  18525     322.8858      0.00000
  18526     322.8936      0.00000
  18527     322.8993      0.00000
  18528     322.9043      0.00000
  18529     322.9187      0.00000
  18530     322.9248      0.00000
  18531     322.9442      0.00000
  18532     322.9498      0.00000
  18533     322.9693      0.00000
  18534     322.9713      0.00000
  18535     322.9799      0.00000
  18536     323.0008      0.00000
  18537     323.0040      0.00000
  18538     323.0241      0.00000
  18539     323.0286      0.00000
  18540     323.0489      0.00000
  18541     323.0582      0.00000
  18542     323.0754      0.00000
  18543     323.0825      0.00000
  18544     323.0943      0.00000
  18545     323.0967      0.00000
  18546     323.1168      0.00000
  18547     323.1207      0.00000
  18548     323.1306      0.00000
  18549     323.1450      0.00000
  18550     323.1478      0.00000
  18551     323.1544      0.00000
  18552     323.1730      0.00000
  18553     323.1934      0.00000
  18554     323.2106      0.00000
  18555     323.2165      0.00000
  18556     323.2229      0.00000
  18557     323.2345      0.00000
  18558     323.2402      0.00000
  18559     323.2572      0.00000
  18560     323.2663      0.00000
  18561     323.2752      0.00000
  18562     323.2927      0.00000
  18563     323.2941      0.00000
  18564     323.3150      0.00000
  18565     323.3196      0.00000
  18566     323.3329      0.00000
  18567     323.3449      0.00000
  18568     323.3554      0.00000
  18569     323.3641      0.00000
  18570     323.3744      0.00000
  18571     323.3848      0.00000
  18572     323.4040      0.00000
  18573     323.4187      0.00000
  18574     323.4358      0.00000
  18575     323.4420      0.00000
  18576     323.4575      0.00000
  18577     323.4658      0.00000
  18578     323.4675      0.00000
  18579     323.5026      0.00000
  18580     323.5053      0.00000
  18581     323.5073      0.00000
  18582     323.5263      0.00000
  18583     323.5334      0.00000
  18584     323.5395      0.00000
  18585     323.5453      0.00000
  18586     323.5576      0.00000
  18587     323.5707      0.00000
  18588     323.5766      0.00000
  18589     323.5998      0.00000
  18590     323.6131      0.00000
  18591     323.6209      0.00000
  18592     323.6314      0.00000
  18593     323.6363      0.00000
  18594     323.6536      0.00000
  18595     323.6791      0.00000
  18596     323.6910      0.00000
  18597     323.7001      0.00000
  18598     323.7076      0.00000
  18599     323.7163      0.00000
  18600     323.7332      0.00000
  18601     323.7412      0.00000
  18602     323.7493      0.00000
  18603     323.7577      0.00000
  18604     323.7654      0.00000
  18605     323.7719      0.00000
  18606     323.7794      0.00000
  18607     323.8094      0.00000
  18608     323.8141      0.00000
  18609     323.8217      0.00000
  18610     323.8363      0.00000
  18611     323.8386      0.00000
  18612     323.8541      0.00000
  18613     323.8677      0.00000
  18614     323.8706      0.00000
  18615     323.8781      0.00000
  18616     323.9016      0.00000
  18617     323.9114      0.00000
  18618     323.9309      0.00000
  18619     323.9370      0.00000
  18620     323.9465      0.00000
  18621     323.9597      0.00000
  18622     323.9637      0.00000
  18623     323.9729      0.00000
  18624     323.9819      0.00000
  18625     323.9996      0.00000
  18626     324.0158      0.00000
  18627     324.0232      0.00000
  18628     324.0293      0.00000
  18629     324.0419      0.00000
  18630     324.0588      0.00000
  18631     324.0635      0.00000
  18632     324.0726      0.00000
  18633     324.0882      0.00000
  18634     324.0977      0.00000
  18635     324.1106      0.00000
  18636     324.1305      0.00000
  18637     324.1356      0.00000
  18638     324.1363      0.00000
  18639     324.1513      0.00000
  18640     324.1559      0.00000
  18641     324.1711      0.00000
  18642     324.1858      0.00000
  18643     324.1913      0.00000
  18644     324.2213      0.00000
  18645     324.2223      0.00000
  18646     324.2354      0.00000
  18647     324.2537      0.00000
  18648     324.2628      0.00000
  18649     324.2694      0.00000
  18650     324.2810      0.00000
  18651     324.2888      0.00000
  18652     324.3013      0.00000
  18653     324.3067      0.00000
  18654     324.3251      0.00000
  18655     324.3299      0.00000
  18656     324.3329      0.00000
  18657     324.3530      0.00000
  18658     324.3655      0.00000
  18659     324.3736      0.00000
  18660     324.3816      0.00000
  18661     324.3982      0.00000
  18662     324.4081      0.00000
  18663     324.4114      0.00000
  18664     324.4293      0.00000
  18665     324.4410      0.00000
  18666     324.4428      0.00000
  18667     324.4647      0.00000
  18668     324.4726      0.00000
  18669     324.4828      0.00000
  18670     324.4932      0.00000
  18671     324.5019      0.00000
  18672     324.5198      0.00000
  18673     324.5261      0.00000
  18674     324.5363      0.00000
  18675     324.5587      0.00000
  18676     324.5643      0.00000
  18677     324.5816      0.00000
  18678     324.5885      0.00000
  18679     324.5991      0.00000
  18680     324.6106      0.00000
  18681     324.6183      0.00000
  18682     324.6307      0.00000
  18683     324.6329      0.00000
  18684     324.6352      0.00000
  18685     324.6597      0.00000
  18686     324.6705      0.00000
  18687     324.6724      0.00000
  18688     324.6981      0.00000
  18689     324.7118      0.00000
  18690     324.7192      0.00000
  18691     324.7326      0.00000
  18692     324.7429      0.00000
  18693     324.7579      0.00000
  18694     324.7701      0.00000
  18695     324.7749      0.00000
  18696     324.7797      0.00000
  18697     324.7893      0.00000
  18698     324.8086      0.00000
  18699     324.8125      0.00000
  18700     324.8235      0.00000
  18701     324.8321      0.00000
  18702     324.8472      0.00000
  18703     324.8505      0.00000
  18704     324.8649      0.00000
  18705     324.8816      0.00000
  18706     324.8879      0.00000
  18707     324.9062      0.00000
  18708     324.9118      0.00000
  18709     324.9235      0.00000
  18710     324.9372      0.00000
  18711     324.9479      0.00000
  18712     324.9642      0.00000
  18713     324.9742      0.00000
  18714     324.9790      0.00000
  18715     324.9881      0.00000
  18716     325.0139      0.00000
  18717     325.0207      0.00000
  18718     325.0295      0.00000
  18719     325.0460      0.00000
  18720     325.0557      0.00000
  18721     325.0570      0.00000
  18722     325.0689      0.00000
  18723     325.0720      0.00000
  18724     325.0844      0.00000
  18725     325.0964      0.00000
  18726     325.1128      0.00000
  18727     325.1145      0.00000
  18728     325.1277      0.00000
  18729     325.1382      0.00000
  18730     325.1453      0.00000
  18731     325.1543      0.00000
  18732     325.1754      0.00000
  18733     325.1797      0.00000
  18734     325.1918      0.00000
  18735     325.1941      0.00000
  18736     325.2267      0.00000
  18737     325.2345      0.00000
  18738     325.2427      0.00000
  18739     325.2562      0.00000
  18740     325.2606      0.00000
  18741     325.2686      0.00000
  18742     325.2966      0.00000
  18743     325.3022      0.00000
  18744     325.3143      0.00000
  18745     325.3224      0.00000
  18746     325.3299      0.00000
  18747     325.3422      0.00000
  18748     325.3538      0.00000
  18749     325.3711      0.00000
  18750     325.3727      0.00000
  18751     325.3872      0.00000
  18752     325.4037      0.00000
  18753     325.4151      0.00000
  18754     325.4224      0.00000
  18755     325.4272      0.00000
  18756     325.4382      0.00000
  18757     325.4545      0.00000
  18758     325.4749      0.00000
  18759     325.4801      0.00000
  18760     325.4943      0.00000
  18761     325.5026      0.00000
  18762     325.5127      0.00000
  18763     325.5206      0.00000
  18764     325.5309      0.00000
  18765     325.5491      0.00000
  18766     325.5521      0.00000
  18767     325.5782      0.00000
  18768     325.5859      0.00000
  18769     325.5943      0.00000
  18770     325.5965      0.00000
  18771     325.6196      0.00000
  18772     325.6235      0.00000
  18773     325.6373      0.00000
  18774     325.6390      0.00000
  18775     325.6510      0.00000
  18776     325.6664      0.00000
  18777     325.6721      0.00000
  18778     325.6870      0.00000
  18779     325.7045      0.00000
  18780     325.7130      0.00000
  18781     325.7318      0.00000
  18782     325.7429      0.00000
  18783     325.7652      0.00000
  18784     325.7722      0.00000
  18785     325.7775      0.00000
  18786     325.7955      0.00000
  18787     325.7977      0.00000
  18788     325.8124      0.00000
  18789     325.8171      0.00000
  18790     325.8391      0.00000
  18791     325.8431      0.00000
  18792     325.8617      0.00000
  18793     325.8789      0.00000
  18794     325.8826      0.00000
  18795     325.8955      0.00000
  18796     325.9034      0.00000
  18797     325.9122      0.00000
  18798     325.9287      0.00000
  18799     325.9502      0.00000
  18800     325.9535      0.00000
  18801     325.9673      0.00000
  18802     325.9724      0.00000
  18803     325.9913      0.00000
  18804     325.9994      0.00000
  18805     326.0126      0.00000
  18806     326.0274      0.00000
  18807     326.0409      0.00000
  18808     326.0438      0.00000
  18809     326.0598      0.00000
  18810     326.0844      0.00000
  18811     326.0857      0.00000
  18812     326.1034      0.00000
  18813     326.1172      0.00000
  18814     326.1284      0.00000
  18815     326.1424      0.00000
  18816     326.1689      0.00000
  18817     326.1751      0.00000
  18818     326.1828      0.00000
  18819     326.1963      0.00000
  18820     326.2101      0.00000
  18821     326.2259      0.00000
  18822     326.2284      0.00000
  18823     326.2500      0.00000
  18824     326.2637      0.00000
  18825     326.2753      0.00000
  18826     326.2865      0.00000
  18827     326.3016      0.00000
  18828     326.3222      0.00000
  18829     326.3296      0.00000
  18830     326.3432      0.00000
  18831     326.3542      0.00000
  18832     326.3733      0.00000
  18833     326.3803      0.00000
  18834     326.3925      0.00000
  18835     326.4108      0.00000
  18836     326.4293      0.00000
  18837     326.4337      0.00000
  18838     326.4520      0.00000
  18839     326.4569      0.00000
  18840     326.4624      0.00000
  18841     326.4774      0.00000
  18842     326.4879      0.00000
  18843     326.4911      0.00000
  18844     326.5065      0.00000
  18845     326.5103      0.00000
  18846     326.5186      0.00000
  18847     326.5383      0.00000
  18848     326.5538      0.00000
  18849     326.5704      0.00000
  18850     326.5789      0.00000
  18851     326.5896      0.00000
  18852     326.6076      0.00000
  18853     326.6182      0.00000
  18854     326.6383      0.00000
  18855     326.6467      0.00000
  18856     326.6520      0.00000
  18857     326.6702      0.00000
  18858     326.6863      0.00000
  18859     326.6919      0.00000
  18860     326.7003      0.00000
  18861     326.7101      0.00000
  18862     326.7145      0.00000
  18863     326.7339      0.00000
  18864     326.7527      0.00000
  18865     326.7660      0.00000
  18866     326.7838      0.00000
  18867     326.8001      0.00000
  18868     326.8110      0.00000
  18869     326.8193      0.00000
  18870     326.8324      0.00000
  18871     326.8354      0.00000
  18872     326.8458      0.00000
  18873     326.8590      0.00000
  18874     326.8724      0.00000
  18875     326.8855      0.00000
  18876     326.8897      0.00000
  18877     326.9036      0.00000
  18878     326.9351      0.00000
  18879     326.9374      0.00000
  18880     326.9599      0.00000
  18881     326.9608      0.00000
  18882     326.9710      0.00000
  18883     326.9863      0.00000
  18884     326.9911      0.00000
  18885     327.0086      0.00000
  18886     327.0221      0.00000
  18887     327.0380      0.00000
  18888     327.0543      0.00000
  18889     327.0607      0.00000
  18890     327.0723      0.00000
  18891     327.0852      0.00000
  18892     327.1018      0.00000
  18893     327.1151      0.00000
  18894     327.1239      0.00000
  18895     327.1467      0.00000
  18896     327.1480      0.00000
  18897     327.1763      0.00000
  18898     327.1801      0.00000
  18899     327.2020      0.00000
  18900     327.2086      0.00000
  18901     327.2198      0.00000
  18902     327.2249      0.00000
  18903     327.2399      0.00000
  18904     327.2484      0.00000
  18905     327.2695      0.00000
  18906     327.2747      0.00000
  18907     327.2836      0.00000
  18908     327.2983      0.00000
  18909     327.3164      0.00000
  18910     327.3231      0.00000
  18911     327.3326      0.00000
  18912     327.3462      0.00000
  18913     327.3518      0.00000
  18914     327.3667      0.00000
  18915     327.3729      0.00000
  18916     327.3843      0.00000
  18917     327.3923      0.00000
  18918     327.4018      0.00000
  18919     327.4242      0.00000
  18920     327.4348      0.00000
  18921     327.4427      0.00000
  18922     327.4532      0.00000
  18923     327.4670      0.00000
  18924     327.4718      0.00000
  18925     327.4860      0.00000
  18926     327.4997      0.00000
  18927     327.5134      0.00000
  18928     327.5193      0.00000
  18929     327.5371      0.00000
  18930     327.5545      0.00000
  18931     327.5576      0.00000
  18932     327.5642      0.00000
  18933     327.5856      0.00000
  18934     327.5978      0.00000
  18935     327.6019      0.00000
  18936     327.6107      0.00000
  18937     327.6277      0.00000
  18938     327.6308      0.00000
  18939     327.6554      0.00000
  18940     327.6621      0.00000
  18941     327.6747      0.00000
  18942     327.6811      0.00000
  18943     327.7048      0.00000
  18944     327.7141      0.00000
  18945     327.7173      0.00000
  18946     327.7208      0.00000
  18947     327.7454      0.00000
  18948     327.7507      0.00000
  18949     327.7687      0.00000
  18950     327.7867      0.00000
  18951     327.7942      0.00000
  18952     327.8096      0.00000
  18953     327.8156      0.00000
  18954     327.8301      0.00000
  18955     327.8436      0.00000
  18956     327.8497      0.00000
  18957     327.8684      0.00000
  18958     327.8742      0.00000
  18959     327.8805      0.00000
  18960     327.8950      0.00000
  18961     327.9119      0.00000
  18962     327.9179      0.00000
  18963     327.9294      0.00000
  18964     327.9450      0.00000
  18965     327.9515      0.00000
  18966     327.9644      0.00000
  18967     327.9807      0.00000
  18968     327.9883      0.00000
  18969     328.0163      0.00000
  18970     328.0265      0.00000
  18971     328.0292      0.00000
  18972     328.0450      0.00000
  18973     328.0484      0.00000
  18974     328.0576      0.00000
  18975     328.0617      0.00000
  18976     328.0897      0.00000
  18977     328.0907      0.00000
  18978     328.0989      0.00000
  18979     328.1136      0.00000
  18980     328.1239      0.00000
  18981     328.1292      0.00000
  18982     328.1496      0.00000
  18983     328.1590      0.00000
  18984     328.1646      0.00000
  18985     328.1752      0.00000
  18986     328.1959      0.00000
  18987     328.2038      0.00000
  18988     328.2123      0.00000
  18989     328.2220      0.00000
  18990     328.2414      0.00000
  18991     328.2463      0.00000
  18992     328.2566      0.00000
  18993     328.2612      0.00000
  18994     328.2698      0.00000
  18995     328.2960      0.00000
  18996     328.3003      0.00000
  18997     328.3105      0.00000
  18998     328.3265      0.00000
  18999     328.3301      0.00000
  19000     328.3344      0.00000
  19001     328.3492      0.00000
  19002     328.3666      0.00000
  19003     328.3691      0.00000
  19004     328.3770      0.00000
  19005     328.3905      0.00000
  19006     328.4072      0.00000
  19007     328.4093      0.00000
  19008     328.4266      0.00000
  19009     328.4407      0.00000
  19010     328.4524      0.00000
  19011     328.4557      0.00000
  19012     328.4612      0.00000
  19013     328.4673      0.00000
  19014     328.4843      0.00000
  19015     328.5087      0.00000
  19016     328.5117      0.00000
  19017     328.5242      0.00000
  19018     328.5458      0.00000
  19019     328.5558      0.00000
  19020     328.5566      0.00000
  19021     328.5728      0.00000
  19022     328.5856      0.00000
  19023     328.6036      0.00000
  19024     328.6105      0.00000
  19025     328.6165      0.00000
  19026     328.6289      0.00000
  19027     328.6468      0.00000
  19028     328.6608      0.00000
  19029     328.6714      0.00000
  19030     328.6823      0.00000
  19031     328.6948      0.00000
  19032     328.7011      0.00000
  19033     328.7063      0.00000
  19034     328.7182      0.00000
  19035     328.7323      0.00000
  19036     328.7360      0.00000
  19037     328.7412      0.00000
  19038     328.7574      0.00000
  19039     328.7716      0.00000
  19040     328.7745      0.00000
  19041     328.8039      0.00000
  19042     328.8089      0.00000
  19043     328.8169      0.00000
  19044     328.8340      0.00000
  19045     328.8539      0.00000
  19046     328.8641      0.00000
  19047     328.8691      0.00000
  19048     328.8805      0.00000
  19049     328.9012      0.00000
  19050     328.9057      0.00000
  19051     328.9277      0.00000
  19052     328.9372      0.00000
  19053     328.9420      0.00000
  19054     328.9501      0.00000
  19055     328.9727      0.00000
  19056     328.9736      0.00000
  19057     328.9879      0.00000
  19058     329.0062      0.00000
  19059     329.0078      0.00000
  19060     329.0141      0.00000
  19061     329.0326      0.00000
  19062     329.0417      0.00000
  19063     329.0464      0.00000
  19064     329.0631      0.00000
  19065     329.0697      0.00000
  19066     329.0911      0.00000
  19067     329.1018      0.00000
  19068     329.1052      0.00000
  19069     329.1121      0.00000
  19070     329.1244      0.00000
  19071     329.1410      0.00000
  19072     329.1455      0.00000
  19073     329.1517      0.00000
  19074     329.1745      0.00000
  19075     329.1887      0.00000
  19076     329.1948      0.00000
  19077     329.2060      0.00000
  19078     329.2106      0.00000
  19079     329.2163      0.00000
  19080     329.2343      0.00000
  19081     329.2374      0.00000
  19082     329.2580      0.00000
  19083     329.2655      0.00000
  19084     329.2846      0.00000
  19085     329.3013      0.00000
  19086     329.3166      0.00000
  19087     329.3245      0.00000
  19088     329.3297      0.00000
  19089     329.3403      0.00000
  19090     329.3549      0.00000
  19091     329.3582      0.00000
  19092     329.3610      0.00000
  19093     329.3810      0.00000
  19094     329.3897      0.00000
  19095     329.3954      0.00000
  19096     329.3998      0.00000
  19097     329.4223      0.00000
  19098     329.4319      0.00000
  19099     329.4370      0.00000
  19100     329.4467      0.00000
  19101     329.4717      0.00000
  19102     329.4786      0.00000
  19103     329.4854      0.00000
  19104     329.4991      0.00000
  19105     329.5126      0.00000
  19106     329.5206      0.00000
  19107     329.5238      0.00000
  19108     329.5321      0.00000
  19109     329.5430      0.00000
  19110     329.5605      0.00000
  19111     329.5743      0.00000
  19112     329.5817      0.00000
  19113     329.5931      0.00000
  19114     329.5995      0.00000
  19115     329.6058      0.00000
  19116     329.6092      0.00000
  19117     329.6301      0.00000
  19118     329.6343      0.00000
  19119     329.6494      0.00000
  19120     329.6612      0.00000
  19121     329.6704      0.00000
  19122     329.6762      0.00000
  19123     329.6895      0.00000
  19124     329.7143      0.00000
  19125     329.7149      0.00000
  19126     329.7278      0.00000
  19127     329.7459      0.00000
  19128     329.7472      0.00000
  19129     329.7644      0.00000
  19130     329.7792      0.00000
  19131     329.7893      0.00000
  19132     329.7952      0.00000
  19133     329.8114      0.00000
  19134     329.8213      0.00000
  19135     329.8320      0.00000
  19136     329.8488      0.00000
  19137     329.8550      0.00000
  19138     329.8636      0.00000
  19139     329.8663      0.00000
  19140     329.8693      0.00000
  19141     329.8794      0.00000
  19142     329.9086      0.00000
  19143     329.9152      0.00000
  19144     329.9236      0.00000
  19145     329.9375      0.00000
  19146     329.9492      0.00000
  19147     329.9640      0.00000
  19148     329.9789      0.00000
  19149     329.9809      0.00000
  19150     329.9980      0.00000
  19151     330.0036      0.00000
  19152     330.0149      0.00000
  19153     330.0254      0.00000
  19154     330.0327      0.00000
  19155     330.0467      0.00000
  19156     330.0575      0.00000
  19157     330.0682      0.00000
  19158     330.0737      0.00000
  19159     330.0789      0.00000
  19160     330.1045      0.00000
  19161     330.1173      0.00000
  19162     330.1214      0.00000
  19163     330.1314      0.00000
  19164     330.1388      0.00000
  19165     330.1507      0.00000
  19166     330.1563      0.00000
  19167     330.1710      0.00000
  19168     330.1822      0.00000
  19169     330.1976      0.00000
  19170     330.2022      0.00000
  19171     330.2066      0.00000
  19172     330.2176      0.00000
  19173     330.2337      0.00000
  19174     330.2404      0.00000
  19175     330.2514      0.00000
  19176     330.2618      0.00000
  19177     330.2709      0.00000
  19178     330.2919      0.00000
  19179     330.3008      0.00000
  19180     330.3140      0.00000
  19181     330.3153      0.00000
  19182     330.3328      0.00000
  19183     330.3398      0.00000
  19184     330.3496      0.00000
  19185     330.3627      0.00000
  19186     330.3875      0.00000
  19187     330.3904      0.00000
  19188     330.3999      0.00000
  19189     330.4120      0.00000
  19190     330.4161      0.00000
  19191     330.4302      0.00000
  19192     330.4328      0.00000
  19193     330.4442      0.00000
  19194     330.4642      0.00000
  19195     330.4717      0.00000
  19196     330.4869      0.00000
  19197     330.4978      0.00000
  19198     330.5120      0.00000
  19199     330.5175      0.00000
  19200     330.5299      0.00000
  19201     330.5440      0.00000
  19202     330.5550      0.00000
  19203     330.5598      0.00000
  19204     330.5766      0.00000
  19205     330.5805      0.00000
  19206     330.5936      0.00000
  19207     330.6046      0.00000
  19208     330.6114      0.00000
  19209     330.6221      0.00000
  19210     330.6296      0.00000
  19211     330.6343      0.00000
  19212     330.6555      0.00000
  19213     330.6714      0.00000
  19214     330.6850      0.00000
  19215     330.6912      0.00000
  19216     330.7141      0.00000
  19217     330.7174      0.00000
  19218     330.7315      0.00000
  19219     330.7409      0.00000
  19220     330.7559      0.00000
  19221     330.7620      0.00000
  19222     330.7785      0.00000
  19223     330.7854      0.00000
  19224     330.8026      0.00000
  19225     330.8058      0.00000
  19226     330.8145      0.00000
  19227     330.8242      0.00000
  19228     330.8340      0.00000
  19229     330.8466      0.00000
  19230     330.8692      0.00000
  19231     330.8744      0.00000
  19232     330.8875      0.00000
  19233     330.9043      0.00000
  19234     330.9106      0.00000
  19235     330.9293      0.00000
  19236     330.9412      0.00000
  19237     330.9684      0.00000
  19238     330.9716      0.00000
  19239     330.9744      0.00000
  19240     330.9852      0.00000
  19241     330.9907      0.00000
  19242     331.0025      0.00000
  19243     331.0119      0.00000
  19244     331.0407      0.00000
  19245     331.0430      0.00000
  19246     331.0535      0.00000
  19247     331.0679      0.00000
  19248     331.0829      0.00000
  19249     331.0861      0.00000
  19250     331.1041      0.00000
  19251     331.1102      0.00000
  19252     331.1228      0.00000
  19253     331.1312      0.00000
  19254     331.1385      0.00000
  19255     331.1477      0.00000
  19256     331.1659      0.00000
  19257     331.1746      0.00000
  19258     331.1833      0.00000
  19259     331.1912      0.00000
  19260     331.2026      0.00000
  19261     331.2154      0.00000
  19262     331.2228      0.00000
  19263     331.2331      0.00000
  19264     331.2563      0.00000
  19265     331.2779      0.00000
  19266     331.2876      0.00000
  19267     331.2998      0.00000
  19268     331.3028      0.00000
  19269     331.3267      0.00000
  19270     331.3475      0.00000
  19271     331.3531      0.00000
  19272     331.3672      0.00000
  19273     331.3693      0.00000
  19274     331.3825      0.00000
  19275     331.3887      0.00000
  19276     331.3931      0.00000
  19277     331.4043      0.00000
  19278     331.4184      0.00000
  19279     331.4389      0.00000
  19280     331.4564      0.00000
  19281     331.4602      0.00000
  19282     331.4735      0.00000
  19283     331.4877      0.00000
  19284     331.4929      0.00000
  19285     331.5118      0.00000
  19286     331.5276      0.00000
  19287     331.5500      0.00000
  19288     331.5505      0.00000
  19289     331.5523      0.00000
  19290     331.5845      0.00000
  19291     331.5868      0.00000
  19292     331.5999      0.00000
  19293     331.6100      0.00000
  19294     331.6149      0.00000
  19295     331.6316      0.00000
  19296     331.6492      0.00000
  19297     331.6505      0.00000
  19298     331.6689      0.00000
  19299     331.6783      0.00000
  19300     331.6862      0.00000
  19301     331.7011      0.00000
  19302     331.7014      0.00000
  19303     331.7183      0.00000
  19304     331.7428      0.00000
  19305     331.7471      0.00000
  19306     331.7613      0.00000
  19307     331.7707      0.00000
  19308     331.7829      0.00000
  19309     331.7917      0.00000
  19310     331.8063      0.00000
  19311     331.8157      0.00000
  19312     331.8260      0.00000
  19313     331.8434      0.00000
  19314     331.8568      0.00000
  19315     331.8662      0.00000
  19316     331.8713      0.00000
  19317     331.8984      0.00000
  19318     331.9021      0.00000
  19319     331.9198      0.00000
  19320     331.9302      0.00000
  19321     331.9416      0.00000
  19322     331.9482      0.00000
  19323     331.9560      0.00000
  19324     331.9677      0.00000
  19325     331.9861      0.00000
  19326     331.9934      0.00000
  19327     332.0177      0.00000
  19328     332.0311      0.00000
  19329     332.0426      0.00000
  19330     332.0612      0.00000
  19331     332.0689      0.00000
  19332     332.0701      0.00000
  19333     332.0768      0.00000
  19334     332.0891      0.00000
  19335     332.1041      0.00000
  19336     332.1267      0.00000
  19337     332.1373      0.00000
  19338     332.1539      0.00000
  19339     332.1560      0.00000
  19340     332.1610      0.00000
  19341     332.1767      0.00000
  19342     332.1840      0.00000
  19343     332.2067      0.00000
  19344     332.2113      0.00000
  19345     332.2220      0.00000
  19346     332.2433      0.00000
  19347     332.2531      0.00000
  19348     332.2674      0.00000
  19349     332.2842      0.00000
  19350     332.2874      0.00000
  19351     332.3085      0.00000
  19352     332.3180      0.00000
  19353     332.3279      0.00000
  19354     332.3470      0.00000
  19355     332.3561      0.00000
  19356     332.3590      0.00000
  19357     332.3611      0.00000
  19358     332.3860      0.00000
  19359     332.3880      0.00000
  19360     332.3960      0.00000
  19361     332.4111      0.00000
  19362     332.4183      0.00000
  19363     332.4294      0.00000
  19364     332.4485      0.00000
  19365     332.4654      0.00000
  19366     332.4714      0.00000
  19367     332.4974      0.00000
  19368     332.5135      0.00000
  19369     332.5205      0.00000
  19370     332.5295      0.00000
  19371     332.5466      0.00000
  19372     332.5597      0.00000
  19373     332.5646      0.00000
  19374     332.5911      0.00000
  19375     332.5971      0.00000
  19376     332.6154      0.00000
  19377     332.6334      0.00000
  19378     332.6475      0.00000
  19379     332.6602      0.00000
  19380     332.6640      0.00000
  19381     332.6687      0.00000
  19382     332.6888      0.00000
  19383     332.6958      0.00000
  19384     332.7060      0.00000
  19385     332.7257      0.00000
  19386     332.7327      0.00000
  19387     332.7335      0.00000
  19388     332.7466      0.00000
  19389     332.7531      0.00000
  19390     332.7765      0.00000
  19391     332.7866      0.00000
  19392     332.7946      0.00000
  19393     332.8098      0.00000
  19394     332.8209      0.00000
  19395     332.8374      0.00000
  19396     332.8512      0.00000
  19397     332.8695      0.00000
  19398     332.8846      0.00000
  19399     332.8966      0.00000
  19400     332.9071      0.00000
  19401     332.9163      0.00000
  19402     332.9282      0.00000
  19403     332.9340      0.00000
  19404     332.9429      0.00000
  19405     332.9507      0.00000
  19406     332.9638      0.00000
  19407     332.9755      0.00000
  19408     332.9937      0.00000
  19409     332.9969      0.00000
  19410     333.0088      0.00000
  19411     333.0209      0.00000
  19412     333.0352      0.00000
  19413     333.0397      0.00000
  19414     333.0443      0.00000
  19415     333.0599      0.00000
  19416     333.0641      0.00000
  19417     333.0769      0.00000
  19418     333.0802      0.00000
  19419     333.0890      0.00000
  19420     333.1073      0.00000
  19421     333.1262      0.00000
  19422     333.1349      0.00000
  19423     333.1432      0.00000
  19424     333.1462      0.00000
  19425     333.1558      0.00000
  19426     333.1696      0.00000
  19427     333.1840      0.00000
  19428     333.1941      0.00000
  19429     333.2005      0.00000
  19430     333.2117      0.00000
  19431     333.2228      0.00000
  19432     333.2359      0.00000
  19433     333.2474      0.00000
  19434     333.2548      0.00000
  19435     333.2581      0.00000
  19436     333.2751      0.00000
  19437     333.2894      0.00000
  19438     333.2995      0.00000
  19439     333.3150      0.00000
  19440     333.3219      0.00000
  19441     333.3274      0.00000
  19442     333.3413      0.00000
  19443     333.3549      0.00000
  19444     333.3605      0.00000
  19445     333.3824      0.00000
  19446     333.3899      0.00000
  19447     333.4057      0.00000
  19448     333.4165      0.00000
  19449     333.4216      0.00000
  19450     333.4405      0.00000
  19451     333.4477      0.00000
  19452     333.4660      0.00000
  19453     333.4682      0.00000
  19454     333.4762      0.00000
  19455     333.4858      0.00000
  19456     333.5008      0.00000
  19457     333.5175      0.00000
  19458     333.5184      0.00000
  19459     333.5287      0.00000
  19460     333.5382      0.00000
  19461     333.5535      0.00000
  19462     333.5587      0.00000
  19463     333.5664      0.00000
  19464     333.5754      0.00000
  19465     333.5873      0.00000
  19466     333.6023      0.00000
  19467     333.6060      0.00000
  19468     333.6130      0.00000
  19469     333.6215      0.00000
  19470     333.6250      0.00000
  19471     333.6626      0.00000
  19472     333.6638      0.00000
  19473     333.6743      0.00000
  19474     333.6899      0.00000
  19475     333.6978      0.00000
  19476     333.7099      0.00000
  19477     333.7181      0.00000
  19478     333.7268      0.00000
  19479     333.7478      0.00000
  19480     333.7536      0.00000
  19481     333.7647      0.00000
  19482     333.7731      0.00000
  19483     333.7795      0.00000
  19484     333.7911      0.00000
  19485     333.8011      0.00000
  19486     333.8195      0.00000
  19487     333.8278      0.00000
  19488     333.8300      0.00000
  19489     333.8611      0.00000
  19490     333.8716      0.00000
  19491     333.8783      0.00000
  19492     333.8935      0.00000
  19493     333.8993      0.00000
  19494     333.9150      0.00000
  19495     333.9175      0.00000
  19496     333.9377      0.00000
  19497     333.9385      0.00000
  19498     333.9474      0.00000
  19499     333.9561      0.00000
  19500     333.9669      0.00000
  19501     333.9880      0.00000
  19502     334.0011      0.00000
  19503     334.0109      0.00000
  19504     334.0208      0.00000
  19505     334.0267      0.00000
  19506     334.0325      0.00000
  19507     334.0455      0.00000
  19508     334.0540      0.00000
  19509     334.0730      0.00000
  19510     334.0828      0.00000
  19511     334.0904      0.00000
  19512     334.1119      0.00000
  19513     334.1202      0.00000
  19514     334.1283      0.00000
  19515     334.1383      0.00000
  19516     334.1493      0.00000
  19517     334.1660      0.00000
  19518     334.1712      0.00000
  19519     334.1852      0.00000
  19520     334.1906      0.00000
  19521     334.2041      0.00000
  19522     334.2071      0.00000
  19523     334.2158      0.00000
  19524     334.2224      0.00000
  19525     334.2336      0.00000
  19526     334.2542      0.00000
  19527     334.2571      0.00000
  19528     334.2795      0.00000
  19529     334.2871      0.00000
  19530     334.2916      0.00000
  19531     334.3007      0.00000
  19532     334.3185      0.00000
  19533     334.3241      0.00000
  19534     334.3353      0.00000
  19535     334.3443      0.00000
  19536     334.3567      0.00000
  19537     334.3639      0.00000
  19538     334.3688      0.00000
  19539     334.3851      0.00000
  19540     334.3951      0.00000
  19541     334.4065      0.00000
  19542     334.4200      0.00000
  19543     334.4230      0.00000
  19544     334.4294      0.00000
  19545     334.4422      0.00000
  19546     334.4578      0.00000
  19547     334.4647      0.00000
  19548     334.4780      0.00000
  19549     334.4902      0.00000
  19550     334.4952      0.00000
  19551     334.5085      0.00000
  19552     334.5122      0.00000
  19553     334.5267      0.00000
  19554     334.5322      0.00000
  19555     334.5356      0.00000
  19556     334.5475      0.00000
  19557     334.5572      0.00000
  19558     334.5691      0.00000
  19559     334.5732      0.00000
  19560     334.6016      0.00000
  19561     334.6171      0.00000
  19562     334.6255      0.00000
  19563     334.6297      0.00000
  19564     334.6386      0.00000
  19565     334.6510      0.00000
  19566     334.6551      0.00000
  19567     334.6711      0.00000
  19568     334.6783      0.00000
  19569     334.6903      0.00000
  19570     334.6997      0.00000
  19571     334.7133      0.00000
  19572     334.7174      0.00000
  19573     334.7284      0.00000
  19574     334.7397      0.00000
  19575     334.7425      0.00000
  19576     334.7661      0.00000
  19577     334.7745      0.00000
  19578     334.7920      0.00000
  19579     334.8094      0.00000
  19580     334.8164      0.00000
  19581     334.8295      0.00000
  19582     334.8478      0.00000
  19583     334.8557      0.00000
  19584     334.8626      0.00000
  19585     334.8765      0.00000
  19586     334.8838      0.00000
  19587     334.9029      0.00000
  19588     334.9113      0.00000
  19589     334.9185      0.00000
  19590     334.9280      0.00000
  19591     334.9387      0.00000
  19592     334.9433      0.00000
  19593     334.9571      0.00000
  19594     334.9741      0.00000
  19595     334.9853      0.00000
  19596     334.9929      0.00000
  19597     335.0032      0.00000
  19598     335.0130      0.00000
  19599     335.0301      0.00000
  19600     335.0424      0.00000
  19601     335.0494      0.00000
  19602     335.0556      0.00000
  19603     335.0716      0.00000
  19604     335.0809      0.00000
  19605     335.0890      0.00000
  19606     335.0982      0.00000
  19607     335.1057      0.00000
  19608     335.1253      0.00000
  19609     335.1379      0.00000
  19610     335.1425      0.00000
  19611     335.1516      0.00000
  19612     335.1611      0.00000
  19613     335.1765      0.00000
  19614     335.1917      0.00000
  19615     335.2075      0.00000
  19616     335.2164      0.00000
  19617     335.2258      0.00000
  19618     335.2320      0.00000
  19619     335.2445      0.00000
  19620     335.2466      0.00000
  19621     335.2577      0.00000
  19622     335.2642      0.00000
  19623     335.2854      0.00000
  19624     335.2906      0.00000
  19625     335.2978      0.00000
  19626     335.3055      0.00000
  19627     335.3244      0.00000
  19628     335.3321      0.00000
  19629     335.3477      0.00000
  19630     335.3646      0.00000
  19631     335.3757      0.00000
  19632     335.3859      0.00000
  19633     335.4058      0.00000
  19634     335.4162      0.00000
  19635     335.4254      0.00000
  19636     335.4351      0.00000
  19637     335.4441      0.00000
  19638     335.4655      0.00000
  19639     335.4729      0.00000
  19640     335.4782      0.00000
  19641     335.4916      0.00000
  19642     335.5027      0.00000
  19643     335.5060      0.00000
  19644     335.5247      0.00000
  19645     335.5299      0.00000
  19646     335.5629      0.00000
  19647     335.5802      0.00000
  19648     335.5828      0.00000
  19649     335.5893      0.00000
  19650     335.6025      0.00000
  19651     335.6124      0.00000
  19652     335.6137      0.00000
  19653     335.6325      0.00000
  19654     335.6419      0.00000
  19655     335.6453      0.00000
  19656     335.6618      0.00000
  19657     335.6711      0.00000
  19658     335.6829      0.00000
  19659     335.7056      0.00000
  19660     335.7120      0.00000
  19661     335.7227      0.00000
  19662     335.7340      0.00000
  19663     335.7480      0.00000
  19664     335.7532      0.00000
  19665     335.7655      0.00000
  19666     335.7744      0.00000
  19667     335.7861      0.00000
  19668     335.8018      0.00000
  19669     335.8134      0.00000
  19670     335.8235      0.00000
  19671     335.8374      0.00000
  19672     335.8594      0.00000
  19673     335.8722      0.00000
  19674     335.8743      0.00000
  19675     335.8884      0.00000
  19676     335.8927      0.00000
  19677     335.9071      0.00000
  19678     335.9123      0.00000
  19679     335.9210      0.00000
  19680     335.9369      0.00000
  19681     335.9454      0.00000
  19682     335.9628      0.00000
  19683     335.9701      0.00000
  19684     335.9847      0.00000
  19685     335.9943      0.00000
  19686     336.0040      0.00000
  19687     336.0293      0.00000
  19688     336.0404      0.00000
  19689     336.0513      0.00000
  19690     336.0598      0.00000
  19691     336.0708      0.00000
  19692     336.0880      0.00000
  19693     336.0957      0.00000
  19694     336.1124      0.00000
  19695     336.1191      0.00000
  19696     336.1291      0.00000
  19697     336.1398      0.00000
  19698     336.1526      0.00000
  19699     336.1643      0.00000
  19700     336.1746      0.00000
  19701     336.1828      0.00000
  19702     336.1862      0.00000
  19703     336.1951      0.00000
  19704     336.2066      0.00000
  19705     336.2169      0.00000
  19706     336.2376      0.00000
  19707     336.2532      0.00000
  19708     336.2684      0.00000
  19709     336.2773      0.00000
  19710     336.2860      0.00000
  19711     336.2944      0.00000
  19712     336.3023      0.00000
  19713     336.3197      0.00000
  19714     336.3296      0.00000
  19715     336.3338      0.00000
  19716     336.3545      0.00000
  19717     336.3670      0.00000
  19718     336.3735      0.00000
  19719     336.3905      0.00000
  19720     336.3953      0.00000
  19721     336.4176      0.00000
  19722     336.4209      0.00000
  19723     336.4372      0.00000
  19724     336.4431      0.00000
  19725     336.4532      0.00000
  19726     336.4654      0.00000
  19727     336.4912      0.00000
  19728     336.5020      0.00000
  19729     336.5184      0.00000
  19730     336.5302      0.00000
  19731     336.5420      0.00000
  19732     336.5627      0.00000
  19733     336.5837      0.00000
  19734     336.5858      0.00000
  19735     336.6013      0.00000
  19736     336.6071      0.00000
  19737     336.6220      0.00000
  19738     336.6248      0.00000
  19739     336.6452      0.00000
  19740     336.6559      0.00000
  19741     336.6611      0.00000
  19742     336.6721      0.00000
  19743     336.6922      0.00000
  19744     336.7103      0.00000
  19745     336.7188      0.00000
  19746     336.7336      0.00000
  19747     336.7388      0.00000
  19748     336.7573      0.00000
  19749     336.7645      0.00000
  19750     336.7776      0.00000
  19751     336.7896      0.00000
  19752     336.7994      0.00000
  19753     336.8302      0.00000
  19754     336.8366      0.00000
  19755     336.8653      0.00000
  19756     336.8718      0.00000
  19757     336.8792      0.00000
  19758     336.9023      0.00000
  19759     336.9145      0.00000
  19760     336.9386      0.00000
  19761     336.9426      0.00000
  19762     336.9490      0.00000
  19763     336.9571      0.00000
  19764     336.9889      0.00000
  19765     336.9995      0.00000
  19766     337.0070      0.00000
  19767     337.0166      0.00000
  19768     337.0211      0.00000
  19769     337.0269      0.00000
  19770     337.0352      0.00000
  19771     337.0617      0.00000
  19772     337.0931      0.00000
  19773     337.0998      0.00000
  19774     337.1087      0.00000
  19775     337.1312      0.00000
  19776     337.1429      0.00000
  19777     337.1559      0.00000
  19778     337.1746      0.00000
  19779     337.1823      0.00000
  19780     337.1904      0.00000
  19781     337.2074      0.00000
  19782     337.2306      0.00000
  19783     337.2497      0.00000
  19784     337.2565      0.00000
  19785     337.2636      0.00000
  19786     337.2890      0.00000
  19787     337.2986      0.00000
  19788     337.3065      0.00000
  19789     337.3156      0.00000
  19790     337.3173      0.00000
  19791     337.3430      0.00000
  19792     337.3475      0.00000
  19793     337.3564      0.00000
  19794     337.3752      0.00000
  19795     337.3818      0.00000
  19796     337.4215      0.00000
  19797     337.4395      0.00000
  19798     337.4576      0.00000
  19799     337.4642      0.00000
  19800     337.4788      0.00000
  19801     337.4934      0.00000
  19802     337.5129      0.00000
  19803     337.5203      0.00000
  19804     337.5217      0.00000
  19805     337.5279      0.00000
  19806     337.5544      0.00000
  19807     337.5739      0.00000
  19808     337.5833      0.00000
  19809     337.5943      0.00000
  19810     337.6021      0.00000
  19811     337.6167      0.00000
  19812     337.6341      0.00000
  19813     337.6569      0.00000
  19814     337.6618      0.00000
  19815     337.6708      0.00000
  19816     337.6775      0.00000
  19817     337.6920      0.00000
  19818     337.7024      0.00000
  19819     337.7280      0.00000
  19820     337.7320      0.00000
  19821     337.7434      0.00000
  19822     337.7803      0.00000
  19823     337.7970      0.00000
  19824     337.8070      0.00000
  19825     337.8198      0.00000
  19826     337.8432      0.00000
  19827     337.8495      0.00000
  19828     337.8605      0.00000
  19829     337.8710      0.00000
  19830     337.8786      0.00000
  19831     337.8944      0.00000
  19832     337.9030      0.00000
  19833     337.9352      0.00000
  19834     337.9492      0.00000
  19835     337.9525      0.00000
  19836     337.9688      0.00000
  19837     337.9916      0.00000
  19838     338.0184      0.00000
  19839     338.0232      0.00000
  19840     338.0362      0.00000
  19841     338.0414      0.00000
  19842     338.0592      0.00000
  19843     338.0763      0.00000
  19844     338.0845      0.00000
  19845     338.0978      0.00000
  19846     338.1057      0.00000
  19847     338.1230      0.00000
  19848     338.1372      0.00000
  19849     338.1544      0.00000
  19850     338.1702      0.00000
  19851     338.1807      0.00000
  19852     338.1947      0.00000
  19853     338.2073      0.00000
  19854     338.2204      0.00000
  19855     338.2253      0.00000
  19856     338.2540      0.00000
  19857     338.2553      0.00000
  19858     338.2843      0.00000
  19859     338.2914      0.00000
  19860     338.3089      0.00000
  19861     338.3260      0.00000
  19862     338.3431      0.00000
  19863     338.3494      0.00000
  19864     338.3767      0.00000
  19865     338.3857      0.00000
  19866     338.3926      0.00000
  19867     338.4016      0.00000
  19868     338.4129      0.00000
  19869     338.4283      0.00000
  19870     338.4451      0.00000
  19871     338.4681      0.00000
  19872     338.4734      0.00000
  19873     338.4919      0.00000
  19874     338.5073      0.00000
  19875     338.5108      0.00000
  19876     338.5176      0.00000
  19877     338.5520      0.00000
  19878     338.5600      0.00000
  19879     338.5680      0.00000
  19880     338.5818      0.00000
  19881     338.5964      0.00000
  19882     338.6053      0.00000
  19883     338.6175      0.00000
  19884     338.6428      0.00000
  19885     338.6549      0.00000
  19886     338.6685      0.00000
  19887     338.6733      0.00000
  19888     338.6908      0.00000
  19889     338.6983      0.00000
  19890     338.7176      0.00000
  19891     338.7315      0.00000
  19892     338.7463      0.00000
  19893     338.7540      0.00000
  19894     338.7670      0.00000
  19895     338.7793      0.00000
  19896     338.7967      0.00000
  19897     338.8025      0.00000
  19898     338.8204      0.00000
  19899     338.8424      0.00000
  19900     338.8498      0.00000
  19901     338.8610      0.00000
  19902     338.8903      0.00000
  19903     338.8982      0.00000
  19904     338.9124      0.00000
  19905     338.9271      0.00000
  19906     338.9418      0.00000
  19907     338.9634      0.00000
  19908     338.9739      0.00000
  19909     338.9828      0.00000
  19910     338.9941      0.00000
  19911     339.0135      0.00000
  19912     339.0335      0.00000
  19913     339.0406      0.00000
  19914     339.0491      0.00000
  19915     339.0726      0.00000
  19916     339.0801      0.00000
  19917     339.1067      0.00000
  19918     339.1240      0.00000
  19919     339.1273      0.00000
  19920     339.1330      0.00000
  19921     339.1428      0.00000
  19922     339.1668      0.00000
  19923     339.1886      0.00000
  19924     339.1922      0.00000
  19925     339.1973      0.00000
  19926     339.2116      0.00000
  19927     339.2211      0.00000
  19928     339.2390      0.00000
  19929     339.2509      0.00000
  19930     339.2625      0.00000
  19931     339.2748      0.00000
  19932     339.3043      0.00000
  19933     339.3084      0.00000
  19934     339.3247      0.00000
  19935     339.3507      0.00000
  19936     339.3545      0.00000
  19937     339.3684      0.00000
  19938     339.3862      0.00000
  19939     339.3923      0.00000
  19940     339.3991      0.00000
  19941     339.4117      0.00000
  19942     339.4309      0.00000
  19943     339.4442      0.00000
  19944     339.4586      0.00000
  19945     339.4934      0.00000
  19946     339.5023      0.00000
  19947     339.5128      0.00000
  19948     339.5178      0.00000
  19949     339.5278      0.00000
  19950     339.5305      0.00000
  19951     339.5480      0.00000
  19952     339.5642      0.00000
  19953     339.5708      0.00000
  19954     339.5960      0.00000
  19955     339.6078      0.00000
  19956     339.6171      0.00000
  19957     339.6378      0.00000
  19958     339.6414      0.00000
  19959     339.6589      0.00000
  19960     339.6784      0.00000
  19961     339.6810      0.00000
  19962     339.7044      0.00000
  19963     339.7132      0.00000
  19964     339.7252      0.00000
  19965     339.7332      0.00000
  19966     339.7468      0.00000
  19967     339.7539      0.00000
  19968     339.7675      0.00000
  19969     339.8005      0.00000
  19970     339.8041      0.00000
  19971     339.8089      0.00000
  19972     339.8267      0.00000
  19973     339.8392      0.00000
  19974     339.8522      0.00000
  19975     339.8711      0.00000
  19976     339.8873      0.00000
  19977     339.8970      0.00000
  19978     339.9162      0.00000
  19979     339.9268      0.00000
  19980     339.9365      0.00000
  19981     339.9430      0.00000
  19982     339.9574      0.00000
  19983     339.9705      0.00000
  19984     339.9813      0.00000
  19985     339.9848      0.00000
  19986     340.0033      0.00000
  19987     340.0164      0.00000
  19988     340.0249      0.00000
  19989     340.0451      0.00000
  19990     340.0642      0.00000
  19991     340.0658      0.00000
  19992     340.0826      0.00000
  19993     340.1017      0.00000
  19994     340.1104      0.00000
  19995     340.1137      0.00000
  19996     340.1234      0.00000
  19997     340.1442      0.00000
  19998     340.1500      0.00000
  19999     340.1572      0.00000
  20000     340.1744      0.00000
  20001     340.1831      0.00000
  20002     340.1986      0.00000
  20003     340.2145      0.00000
  20004     340.2256      0.00000
  20005     340.2361      0.00000
  20006     340.2507      0.00000
  20007     340.2675      0.00000
  20008     340.2719      0.00000
  20009     340.2831      0.00000
  20010     340.2986      0.00000
  20011     340.3108      0.00000
  20012     340.3374      0.00000
  20013     340.3537      0.00000
  20014     340.3562      0.00000
  20015     340.3782      0.00000
  20016     340.3845      0.00000
  20017     340.3924      0.00000
  20018     340.4018      0.00000
  20019     340.4088      0.00000
  20020     340.4258      0.00000
  20021     340.4426      0.00000
  20022     340.4522      0.00000
  20023     340.4594      0.00000
  20024     340.4809      0.00000
  20025     340.4911      0.00000
  20026     340.4983      0.00000
  20027     340.5173      0.00000
  20028     340.5304      0.00000
  20029     340.5386      0.00000
  20030     340.5589      0.00000
  20031     340.5648      0.00000
  20032     340.5702      0.00000
  20033     340.5850      0.00000
  20034     340.5954      0.00000
  20035     340.6031      0.00000
  20036     340.6180      0.00000
  20037     340.6367      0.00000
  20038     340.6523      0.00000
  20039     340.6710      0.00000
  20040     340.6786      0.00000
  20041     340.6870      0.00000
  20042     340.6961      0.00000
  20043     340.7023      0.00000
  20044     340.7183      0.00000
  20045     340.7238      0.00000
  20046     340.7304      0.00000
  20047     340.7427      0.00000
  20048     340.7497      0.00000
  20049     340.7653      0.00000
  20050     340.7861      0.00000
  20051     340.7887      0.00000
  20052     340.8031      0.00000
  20053     340.8211      0.00000
  20054     340.8409      0.00000
  20055     340.8544      0.00000
  20056     340.8591      0.00000
  20057     340.8706      0.00000
  20058     340.8748      0.00000
  20059     340.8941      0.00000
  20060     340.9050      0.00000
  20061     340.9156      0.00000
  20062     340.9312      0.00000
  20063     340.9414      0.00000
  20064     340.9517      0.00000
  20065     340.9769      0.00000
  20066     340.9824      0.00000
  20067     340.9958      0.00000
  20068     341.0068      0.00000
  20069     341.0150      0.00000
  20070     341.0422      0.00000
  20071     341.0509      0.00000
  20072     341.0605      0.00000
  20073     341.0683      0.00000
  20074     341.0922      0.00000
  20075     341.1008      0.00000
  20076     341.1084      0.00000
  20077     341.1186      0.00000
  20078     341.1371      0.00000
  20079     341.1407      0.00000
  20080     341.1648      0.00000
  20081     341.1774      0.00000
  20082     341.1943      0.00000
  20083     341.1981      0.00000
  20084     341.2113      0.00000
  20085     341.2192      0.00000
  20086     341.2424      0.00000
  20087     341.2483      0.00000
  20088     341.2622      0.00000
  20089     341.2728      0.00000
  20090     341.2874      0.00000
  20091     341.2951      0.00000
  20092     341.3041      0.00000
  20093     341.3125      0.00000
  20094     341.3267      0.00000
  20095     341.3387      0.00000
  20096     341.3527      0.00000
  20097     341.3624      0.00000
  20098     341.3635      0.00000
  20099     341.3821      0.00000
  20100     341.3937      0.00000
  20101     341.4001      0.00000
  20102     341.4236      0.00000
  20103     341.4496      0.00000
  20104     341.4567      0.00000
  20105     341.4654      0.00000
  20106     341.4687      0.00000
  20107     341.4902      0.00000
  20108     341.4966      0.00000
  20109     341.5009      0.00000
  20110     341.5309      0.00000
  20111     341.5363      0.00000
  20112     341.5422      0.00000
  20113     341.5653      0.00000
  20114     341.5684      0.00000
  20115     341.5839      0.00000
  20116     341.5939      0.00000
  20117     341.6199      0.00000
  20118     341.6262      0.00000
  20119     341.6355      0.00000
  20120     341.6459      0.00000
  20121     341.6695      0.00000
  20122     341.6807      0.00000
  20123     341.6968      0.00000
  20124     341.6997      0.00000
  20125     341.7249      0.00000
  20126     341.7321      0.00000
  20127     341.7365      0.00000
  20128     341.7378      0.00000
  20129     341.7512      0.00000
  20130     341.7562      0.00000
  20131     341.7698      0.00000
  20132     341.7860      0.00000
  20133     341.8013      0.00000
  20134     341.8134      0.00000
  20135     341.8192      0.00000
  20136     341.8249      0.00000
  20137     341.8472      0.00000
  20138     341.8588      0.00000
  20139     341.8693      0.00000
  20140     341.8785      0.00000
  20141     341.8913      0.00000
  20142     341.9193      0.00000
  20143     341.9311      0.00000
  20144     341.9483      0.00000
  20145     341.9520      0.00000
  20146     341.9623      0.00000
  20147     341.9799      0.00000
  20148     341.9918      0.00000
  20149     341.9961      0.00000
  20150     342.0095      0.00000
  20151     342.0180      0.00000
  20152     342.0426      0.00000
  20153     342.0508      0.00000
  20154     342.0625      0.00000
  20155     342.0664      0.00000
  20156     342.0752      0.00000
  20157     342.0940      0.00000
  20158     342.1021      0.00000
  20159     342.1081      0.00000
  20160     342.1138      0.00000
  20161     342.1245      0.00000
  20162     342.1373      0.00000
  20163     342.1500      0.00000
  20164     342.1545      0.00000
  20165     342.1649      0.00000
  20166     342.1798      0.00000
  20167     342.1949      0.00000
  20168     342.1988      0.00000
  20169     342.2173      0.00000
  20170     342.2275      0.00000
  20171     342.2419      0.00000
  20172     342.2480      0.00000
  20173     342.2647      0.00000
  20174     342.2745      0.00000
  20175     342.2833      0.00000
  20176     342.2986      0.00000
  20177     342.3126      0.00000
  20178     342.3290      0.00000
  20179     342.3348      0.00000
  20180     342.3454      0.00000
  20181     342.3633      0.00000
  20182     342.3716      0.00000
  20183     342.3847      0.00000
  20184     342.3960      0.00000
  20185     342.4007      0.00000
  20186     342.4136      0.00000
  20187     342.4301      0.00000
  20188     342.4372      0.00000
  20189     342.4457      0.00000
  20190     342.4609      0.00000
  20191     342.4680      0.00000
  20192     342.4747      0.00000
  20193     342.4939      0.00000
  20194     342.5025      0.00000
  20195     342.5143      0.00000
  20196     342.5216      0.00000
  20197     342.5307      0.00000
  20198     342.5407      0.00000
  20199     342.5494      0.00000
  20200     342.5610      0.00000
  20201     342.5730      0.00000
  20202     342.5919      0.00000
  20203     342.5980      0.00000
  20204     342.6049      0.00000
  20205     342.6215      0.00000
  20206     342.6250      0.00000
  20207     342.6324      0.00000
  20208     342.6520      0.00000
  20209     342.6563      0.00000
  20210     342.6676      0.00000
  20211     342.6762      0.00000
  20212     342.6806      0.00000
  20213     342.6911      0.00000
  20214     342.6943      0.00000
  20215     342.7058      0.00000
  20216     342.7092      0.00000
  20217     342.7229      0.00000
  20218     342.7376      0.00000
  20219     342.7535      0.00000
  20220     342.7651      0.00000
  20221     342.7792      0.00000
  20222     342.7857      0.00000
  20223     342.7911      0.00000
  20224     342.7974      0.00000
  20225     342.8211      0.00000
  20226     342.8295      0.00000
  20227     342.8405      0.00000
  20228     342.8507      0.00000
  20229     342.8576      0.00000
  20230     342.8658      0.00000
  20231     342.8745      0.00000
  20232     342.8857      0.00000
  20233     342.9067      0.00000
  20234     342.9117      0.00000
  20235     342.9250      0.00000
  20236     342.9292      0.00000
  20237     342.9480      0.00000
  20238     342.9538      0.00000
  20239     342.9585      0.00000
  20240     342.9752      0.00000
  20241     342.9886      0.00000
  20242     342.9961      0.00000
  20243     343.0019      0.00000
  20244     343.0193      0.00000
  20245     343.0266      0.00000
  20246     343.0396      0.00000
  20247     343.0499      0.00000
  20248     343.0598      0.00000
  20249     343.0668      0.00000
  20250     343.0764      0.00000
  20251     343.0834      0.00000
  20252     343.0976      0.00000
  20253     343.1043      0.00000
  20254     343.1189      0.00000
  20255     343.1278      0.00000
  20256     343.1394      0.00000
  20257     343.1435      0.00000
  20258     343.1510      0.00000
  20259     343.1615      0.00000
  20260     343.1768      0.00000
  20261     343.1907      0.00000
  20262     343.1988      0.00000
  20263     343.2071      0.00000
  20264     343.2191      0.00000
  20265     343.2204      0.00000
  20266     343.2320      0.00000
  20267     343.2507      0.00000
  20268     343.2586      0.00000
  20269     343.2636      0.00000
  20270     343.2830      0.00000
  20271     343.3082      0.00000
  20272     343.3110      0.00000
  20273     343.3233      0.00000
  20274     343.3268      0.00000
  20275     343.3368      0.00000
  20276     343.3565      0.00000
  20277     343.3684      0.00000
  20278     343.3747      0.00000
  20279     343.3805      0.00000
  20280     343.3984      0.00000
  20281     343.4040      0.00000
  20282     343.4118      0.00000
  20283     343.4220      0.00000
  20284     343.4322      0.00000
  20285     343.4503      0.00000
  20286     343.4561      0.00000
  20287     343.4784      0.00000
  20288     343.4802      0.00000
  20289     343.4876      0.00000
  20290     343.4993      0.00000
  20291     343.5069      0.00000
  20292     343.5260      0.00000
  20293     343.5350      0.00000
  20294     343.5482      0.00000
  20295     343.5542      0.00000
  20296     343.5668      0.00000
  20297     343.5728      0.00000
  20298     343.5851      0.00000
  20299     343.5990      0.00000
  20300     343.6114      0.00000
  20301     343.6243      0.00000
  20302     343.6257      0.00000
  20303     343.6432      0.00000
  20304     343.6482      0.00000
  20305     343.6540      0.00000
  20306     343.6616      0.00000
  20307     343.6762      0.00000
  20308     343.6814      0.00000
  20309     343.6973      0.00000
  20310     343.7162      0.00000
  20311     343.7196      0.00000
  20312     343.7278      0.00000
  20313     343.7467      0.00000
  20314     343.7691      0.00000
  20315     343.7751      0.00000
  20316     343.7879      0.00000
  20317     343.7936      0.00000
  20318     343.8010      0.00000
  20319     343.8172      0.00000
  20320     343.8211      0.00000
  20321     343.8265      0.00000
  20322     343.8372      0.00000
  20323     343.8420      0.00000
  20324     343.8572      0.00000
  20325     343.8677      0.00000
  20326     343.8811      0.00000
  20327     343.8880      0.00000
  20328     343.8999      0.00000
  20329     343.9210      0.00000
  20330     343.9242      0.00000
  20331     343.9351      0.00000
  20332     343.9366      0.00000
  20333     343.9551      0.00000
  20334     343.9609      0.00000
  20335     343.9801      0.00000
  20336     343.9818      0.00000
  20337     344.0026      0.00000
  20338     344.0126      0.00000
  20339     344.0169      0.00000
  20340     344.0345      0.00000
  20341     344.0409      0.00000
  20342     344.0509      0.00000
  20343     344.0730      0.00000
  20344     344.0815      0.00000
  20345     344.0853      0.00000
  20346     344.0958      0.00000
  20347     344.1121      0.00000
  20348     344.1317      0.00000
  20349     344.1401      0.00000
  20350     344.1465      0.00000
  20351     344.1553      0.00000
  20352     344.1655      0.00000
  20353     344.1690      0.00000
  20354     344.1840      0.00000
  20355     344.1924      0.00000
  20356     344.1969      0.00000
  20357     344.2055      0.00000
  20358     344.2108      0.00000
  20359     344.2191      0.00000
  20360     344.2393      0.00000
  20361     344.2449      0.00000
  20362     344.2606      0.00000
  20363     344.2753      0.00000
  20364     344.2853      0.00000
  20365     344.2916      0.00000
  20366     344.3041      0.00000
  20367     344.3098      0.00000
  20368     344.3238      0.00000
  20369     344.3354      0.00000
  20370     344.3430      0.00000
  20371     344.3448      0.00000
  20372     344.3688      0.00000
  20373     344.3781      0.00000
  20374     344.3877      0.00000
  20375     344.3958      0.00000
  20376     344.4128      0.00000
  20377     344.4274      0.00000
  20378     344.4430      0.00000
  20379     344.4468      0.00000
  20380     344.4533      0.00000
  20381     344.4674      0.00000
  20382     344.4801      0.00000
  20383     344.4936      0.00000
  20384     344.4978      0.00000
  20385     344.5037      0.00000
  20386     344.5131      0.00000
  20387     344.5207      0.00000
  20388     344.5240      0.00000
  20389     344.5312      0.00000
  20390     344.5459      0.00000
  20391     344.5496      0.00000
  20392     344.5700      0.00000
  20393     344.5722      0.00000
  20394     344.5763      0.00000
  20395     344.5817      0.00000
  20396     344.6091      0.00000
  20397     344.6174      0.00000
  20398     344.6213      0.00000
  20399     344.6383      0.00000
  20400     344.6465      0.00000
  20401     344.6624      0.00000
  20402     344.6628      0.00000
  20403     344.6784      0.00000
  20404     344.6962      0.00000
  20405     344.7035      0.00000
  20406     344.7146      0.00000
  20407     344.7200      0.00000
  20408     344.7296      0.00000
  20409     344.7387      0.00000
  20410     344.7419      0.00000
  20411     344.7607      0.00000
  20412     344.7669      0.00000
  20413     344.7784      0.00000
  20414     344.7975      0.00000
  20415     344.8006      0.00000
  20416     344.8122      0.00000
  20417     344.8273      0.00000
  20418     344.8447      0.00000
  20419     344.8524      0.00000
  20420     344.8568      0.00000
  20421     344.8598      0.00000
  20422     344.8697      0.00000
  20423     344.8829      0.00000
  20424     344.8934      0.00000
  20425     344.9023      0.00000
  20426     344.9076      0.00000
  20427     344.9200      0.00000
  20428     344.9242      0.00000
  20429     344.9373      0.00000
  20430     344.9502      0.00000
  20431     344.9590      0.00000
  20432     344.9681      0.00000
  20433     344.9835      0.00000
  20434     344.9907      0.00000
  20435     345.0047      0.00000
  20436     345.0121      0.00000
  20437     345.0149      0.00000
  20438     345.0299      0.00000
  20439     345.0392      0.00000
  20440     345.0548      0.00000
  20441     345.0692      0.00000
  20442     345.0732      0.00000
  20443     345.0813      0.00000
  20444     345.0918      0.00000
  20445     345.0995      0.00000
  20446     345.1089      0.00000
  20447     345.1184      0.00000
  20448     345.1344      0.00000
  20449     345.1512      0.00000
  20450     345.1600      0.00000
  20451     345.1665      0.00000
  20452     345.1713      0.00000
  20453     345.1854      0.00000
  20454     345.1997      0.00000
  20455     345.2038      0.00000
  20456     345.2089      0.00000
  20457     345.2219      0.00000
  20458     345.2368      0.00000
  20459     345.2428      0.00000
  20460     345.2525      0.00000
  20461     345.2630      0.00000
  20462     345.2685      0.00000
  20463     345.2798      0.00000
  20464     345.2845      0.00000
  20465     345.3054      0.00000
  20466     345.3109      0.00000
  20467     345.3176      0.00000
  20468     345.3348      0.00000
  20469     345.3360      0.00000
  20470     345.3497      0.00000
  20471     345.3660      0.00000
  20472     345.3693      0.00000
  20473     345.3826      0.00000
  20474     345.3951      0.00000
  20475     345.4067      0.00000
  20476     345.4133      0.00000
  20477     345.4214      0.00000
  20478     345.4335      0.00000
  20479     345.4464      0.00000
  20480     345.4530      0.00000
  20481     345.4669      0.00000
  20482     345.4743      0.00000
  20483     345.4814      0.00000
  20484     345.4882      0.00000
  20485     345.5017      0.00000
  20486     345.5020      0.00000
  20487     345.5325      0.00000
  20488     345.5381      0.00000
  20489     345.5447      0.00000
  20490     345.5566      0.00000
  20491     345.5649      0.00000
  20492     345.5788      0.00000
  20493     345.5833      0.00000
  20494     345.5953      0.00000
  20495     345.6090      0.00000
  20496     345.6156      0.00000
  20497     345.6211      0.00000
  20498     345.6270      0.00000
  20499     345.6395      0.00000
  20500     345.6438      0.00000
  20501     345.6534      0.00000
  20502     345.6599      0.00000
  20503     345.6636      0.00000
  20504     345.6841      0.00000
  20505     345.6976      0.00000
  20506     345.7015      0.00000
  20507     345.7197      0.00000
  20508     345.7352      0.00000
  20509     345.7419      0.00000
  20510     345.7494      0.00000
  20511     345.7642      0.00000
  20512     345.7711      0.00000
  20513     345.7806      0.00000
  20514     345.7869      0.00000
  20515     345.7951      0.00000
  20516     345.8134      0.00000
  20517     345.8181      0.00000
  20518     345.8343      0.00000
  20519     345.8421      0.00000
  20520     345.8462      0.00000
  20521     345.8576      0.00000
  20522     345.8635      0.00000
  20523     345.8819      0.00000
  20524     345.8855      0.00000
  20525     345.8907      0.00000
  20526     345.9015      0.00000
  20527     345.9184      0.00000
  20528     345.9272      0.00000
  20529     345.9411      0.00000
  20530     345.9460      0.00000
  20531     345.9665      0.00000
  20532     345.9705      0.00000
  20533     345.9760      0.00000
  20534     345.9802      0.00000
  20535     345.9991      0.00000
  20536     346.0030      0.00000
  20537     346.0141      0.00000
  20538     346.0257      0.00000
  20539     346.0306      0.00000
  20540     346.0429      0.00000
  20541     346.0596      0.00000
  20542     346.0646      0.00000
  20543     346.0737      0.00000
  20544     346.0840      0.00000
  20545     346.1013      0.00000
  20546     346.1109      0.00000
  20547     346.1297      0.00000
  20548     346.1323      0.00000
  20549     346.1546      0.00000
  20550     346.1602      0.00000
  20551     346.1713      0.00000
  20552     346.1753      0.00000
  20553     346.1857      0.00000
  20554     346.1920      0.00000
  20555     346.2076      0.00000
  20556     346.2154      0.00000
  20557     346.2213      0.00000
  20558     346.2345      0.00000
  20559     346.2538      0.00000
  20560     346.2580      0.00000
  20561     346.2692      0.00000
  20562     346.2783      0.00000
  20563     346.2869      0.00000
  20564     346.2952      0.00000
  20565     346.3005      0.00000
  20566     346.3068      0.00000
  20567     346.3184      0.00000
  20568     346.3283      0.00000
  20569     346.3434      0.00000
  20570     346.3492      0.00000
  20571     346.3716      0.00000
  20572     346.3756      0.00000
  20573     346.3781      0.00000
  20574     346.3896      0.00000
  20575     346.3993      0.00000
  20576     346.4101      0.00000
  20577     346.4237      0.00000
  20578     346.4280      0.00000
  20579     346.4350      0.00000
  20580     346.4446      0.00000
  20581     346.4616      0.00000
  20582     346.4750      0.00000
  20583     346.4805      0.00000
  20584     346.4861      0.00000
  20585     346.4948      0.00000
  20586     346.4974      0.00000
  20587     346.5087      0.00000
  20588     346.5232      0.00000
  20589     346.5374      0.00000
  20590     346.5436      0.00000
  20591     346.5580      0.00000
  20592     346.5790      0.00000
  20593     346.5872      0.00000
  20594     346.5942      0.00000
  20595     346.6027      0.00000
  20596     346.6091      0.00000
  20597     346.6301      0.00000
  20598     346.6341      0.00000
  20599     346.6388      0.00000
  20600     346.6574      0.00000
  20601     346.6606      0.00000
  20602     346.6692      0.00000
  20603     346.6829      0.00000
  20604     346.6840      0.00000
  20605     346.6965      0.00000
  20606     346.7100      0.00000
  20607     346.7187      0.00000
  20608     346.7309      0.00000
  20609     346.7441      0.00000
  20610     346.7520      0.00000
  20611     346.7673      0.00000
  20612     346.7731      0.00000
  20613     346.7934      0.00000
  20614     346.7956      0.00000
  20615     346.8096      0.00000
  20616     346.8154      0.00000
  20617     346.8237      0.00000
  20618     346.8306      0.00000
  20619     346.8497      0.00000
  20620     346.8607      0.00000
  20621     346.8655      0.00000
  20622     346.8757      0.00000
  20623     346.8874      0.00000
  20624     346.9000      0.00000
  20625     346.9041      0.00000
  20626     346.9182      0.00000
  20627     346.9305      0.00000
  20628     346.9365      0.00000
  20629     346.9416      0.00000
  20630     346.9529      0.00000
  20631     346.9662      0.00000
  20632     346.9717      0.00000
  20633     346.9823      0.00000
  20634     346.9880      0.00000
  20635     346.9993      0.00000
  20636     347.0157      0.00000
  20637     347.0232      0.00000
  20638     347.0331      0.00000
  20639     347.0424      0.00000
  20640     347.0509      0.00000
  20641     347.0529      0.00000
  20642     347.0632      0.00000
  20643     347.0806      0.00000
  20644     347.0847      0.00000
  20645     347.1031      0.00000
  20646     347.1098      0.00000
  20647     347.1145      0.00000
  20648     347.1208      0.00000
  20649     347.1318      0.00000
  20650     347.1458      0.00000
  20651     347.1498      0.00000
  20652     347.1698      0.00000
  20653     347.1821      0.00000
  20654     347.1880      0.00000
  20655     347.1882      0.00000
  20656     347.1925      0.00000
  20657     347.2189      0.00000
  20658     347.2282      0.00000
  20659     347.2296      0.00000
  20660     347.2412      0.00000
  20661     347.2458      0.00000
  20662     347.2623      0.00000
  20663     347.2730      0.00000
  20664     347.2758      0.00000
  20665     347.2824      0.00000
  20666     347.2933      0.00000
  20667     347.3012      0.00000
  20668     347.3169      0.00000
  20669     347.3217      0.00000
  20670     347.3331      0.00000
  20671     347.3396      0.00000
  20672     347.3447      0.00000
  20673     347.3597      0.00000
  20674     347.3674      0.00000
  20675     347.3727      0.00000
  20676     347.3800      0.00000
  20677     347.3901      0.00000
  20678     347.3951      0.00000
  20679     347.4036      0.00000
  20680     347.4250      0.00000
  20681     347.4329      0.00000
  20682     347.4489      0.00000
  20683     347.4547      0.00000
  20684     347.4666      0.00000
  20685     347.4730      0.00000
  20686     347.4788      0.00000
  20687     347.4900      0.00000
  20688     347.4958      0.00000
  20689     347.4993      0.00000
  20690     347.5149      0.00000
  20691     347.5293      0.00000
  20692     347.5377      0.00000
  20693     347.5419      0.00000
  20694     347.5459      0.00000
  20695     347.5494      0.00000
  20696     347.5589      0.00000
  20697     347.5614      0.00000
  20698     347.5768      0.00000
  20699     347.5978      0.00000
  20700     347.6038      0.00000
  20701     347.6134      0.00000
  20702     347.6247      0.00000
  20703     347.6261      0.00000
  20704     347.6381      0.00000
  20705     347.6484      0.00000
  20706     347.6614      0.00000
  20707     347.6689      0.00000
  20708     347.6751      0.00000
  20709     347.6859      0.00000
  20710     347.6891      0.00000
  20711     347.6939      0.00000
  20712     347.6983      0.00000
  20713     347.7233      0.00000
  20714     347.7327      0.00000
  20715     347.7372      0.00000
  20716     347.7501      0.00000
  20717     347.7524      0.00000
  20718     347.7568      0.00000
  20719     347.7685      0.00000
  20720     347.7826      0.00000
  20721     347.7904      0.00000
  20722     347.8037      0.00000
  20723     347.8114      0.00000
  20724     347.8199      0.00000
  20725     347.8244      0.00000
  20726     347.8309      0.00000
  20727     347.8386      0.00000
  20728     347.8551      0.00000
  20729     347.8587      0.00000
  20730     347.8678      0.00000
  20731     347.8742      0.00000
  20732     347.8818      0.00000
  20733     347.8871      0.00000
  20734     347.9058      0.00000
  20735     347.9119      0.00000
  20736     347.9250      0.00000
  20737     347.9290      0.00000
  20738     347.9415      0.00000
  20739     347.9500      0.00000
  20740     347.9571      0.00000
  20741     347.9787      0.00000
  20742     347.9831      0.00000
  20743     347.9855      0.00000
  20744     348.0040      0.00000
  20745     348.0124      0.00000
  20746     348.0190      0.00000
  20747     348.0224      0.00000
  20748     348.0344      0.00000
  20749     348.0490      0.00000
  20750     348.0512      0.00000
  20751     348.0668      0.00000
  20752     348.0875      0.00000
  20753     348.0926      0.00000
  20754     348.1010      0.00000
  20755     348.1069      0.00000
  20756     348.1137      0.00000
  20757     348.1189      0.00000
  20758     348.1253      0.00000
  20759     348.1307      0.00000
  20760     348.1501      0.00000
  20761     348.1543      0.00000
  20762     348.1624      0.00000
  20763     348.1801      0.00000
  20764     348.1816      0.00000
  20765     348.1901      0.00000
  20766     348.2057      0.00000
  20767     348.2078      0.00000
  20768     348.2124      0.00000
  20769     348.2329      0.00000
  20770     348.2368      0.00000
  20771     348.2443      0.00000
  20772     348.2519      0.00000
  20773     348.2613      0.00000
  20774     348.2724      0.00000
  20775     348.2741      0.00000
  20776     348.2834      0.00000
  20777     348.2971      0.00000
  20778     348.3051      0.00000
  20779     348.3180      0.00000
  20780     348.3223      0.00000
  20781     348.3321      0.00000
  20782     348.3389      0.00000
  20783     348.3494      0.00000
  20784     348.3656      0.00000
  20785     348.3694      0.00000
  20786     348.3789      0.00000
  20787     348.3889      0.00000
  20788     348.3966      0.00000
  20789     348.4119      0.00000
  20790     348.4150      0.00000
  20791     348.4258      0.00000
  20792     348.4376      0.00000
  20793     348.4402      0.00000
  20794     348.4510      0.00000
  20795     348.4581      0.00000
  20796     348.4604      0.00000
  20797     348.4661      0.00000
  20798     348.4930      0.00000
  20799     348.5062      0.00000
  20800     348.5123      0.00000
  20801     348.5342      0.00000
  20802     348.5358      0.00000
  20803     348.5448      0.00000
  20804     348.5487      0.00000
  20805     348.5549      0.00000
  20806     348.5645      0.00000
  20807     348.5866      0.00000
  20808     348.5990      0.00000
  20809     348.6169      0.00000
  20810     348.6275      0.00000
  20811     348.6297      0.00000
  20812     348.6358      0.00000
  20813     348.6475      0.00000
  20814     348.6492      0.00000
  20815     348.6672      0.00000
  20816     348.6741      0.00000
  20817     348.6892      0.00000
  20818     348.7033      0.00000
  20819     348.7158      0.00000
  20820     348.7289      0.00000
  20821     348.7335      0.00000
  20822     348.7535      0.00000
  20823     348.7616      0.00000
  20824     348.7747      0.00000
  20825     348.7806      0.00000
  20826     348.7947      0.00000
  20827     348.8069      0.00000
  20828     348.8153      0.00000
  20829     348.8220      0.00000
  20830     348.8314      0.00000
  20831     348.8488      0.00000
  20832     348.8561      0.00000
  20833     348.8633      0.00000
  20834     348.8817      0.00000
  20835     348.8840      0.00000
  20836     348.8977      0.00000
  20837     348.9047      0.00000
  20838     348.9247      0.00000
  20839     348.9304      0.00000
  20840     348.9353      0.00000
  20841     348.9492      0.00000
  20842     348.9549      0.00000
  20843     348.9733      0.00000
  20844     348.9815      0.00000
  20845     348.9952      0.00000
  20846     349.0036      0.00000
  20847     349.0183      0.00000
  20848     349.0257      0.00000
  20849     349.0325      0.00000
  20850     349.0372      0.00000
  20851     349.0599      0.00000
  20852     349.0666      0.00000
  20853     349.0722      0.00000
  20854     349.0804      0.00000
  20855     349.1025      0.00000
  20856     349.1124      0.00000
  20857     349.1234      0.00000
  20858     349.1367      0.00000
  20859     349.1435      0.00000
  20860     349.1475      0.00000
  20861     349.1564      0.00000
  20862     349.1657      0.00000
  20863     349.1721      0.00000
  20864     349.1824      0.00000
  20865     349.2010      0.00000
  20866     349.2108      0.00000
  20867     349.2255      0.00000
  20868     349.2380      0.00000
  20869     349.2407      0.00000
  20870     349.2469      0.00000
  20871     349.2602      0.00000
  20872     349.2743      0.00000
  20873     349.2851      0.00000
  20874     349.2901      0.00000
  20875     349.2941      0.00000
  20876     349.3125      0.00000
  20877     349.3151      0.00000
  20878     349.3356      0.00000
  20879     349.3500      0.00000
  20880     349.3534      0.00000
  20881     349.3688      0.00000
  20882     349.3725      0.00000
  20883     349.3794      0.00000
  20884     349.3918      0.00000
  20885     349.3958      0.00000
  20886     349.4145      0.00000
  20887     349.4245      0.00000
  20888     349.4340      0.00000
  20889     349.4489      0.00000
  20890     349.4667      0.00000
  20891     349.4732      0.00000
  20892     349.4987      0.00000
  20893     349.5038      0.00000
  20894     349.5142      0.00000
  20895     349.5273      0.00000
  20896     349.5331      0.00000
  20897     349.5426      0.00000
  20898     349.5544      0.00000
  20899     349.5713      0.00000
  20900     349.5740      0.00000
  20901     349.5859      0.00000
  20902     349.6020      0.00000
  20903     349.6120      0.00000
  20904     349.6203      0.00000
  20905     349.6287      0.00000
  20906     349.6407      0.00000
  20907     349.6618      0.00000
  20908     349.6709      0.00000
  20909     349.6883      0.00000
  20910     349.7005      0.00000
  20911     349.7061      0.00000
  20912     349.7121      0.00000
  20913     349.7255      0.00000
  20914     349.7405      0.00000
  20915     349.7627      0.00000
  20916     349.7752      0.00000
  20917     349.7838      0.00000
  20918     349.7901      0.00000
  20919     349.8061      0.00000
  20920     349.8214      0.00000
  20921     349.8361      0.00000
  20922     349.8405      0.00000
  20923     349.8465      0.00000
  20924     349.8739      0.00000
  20925     349.8877      0.00000
  20926     349.8940      0.00000
  20927     349.9025      0.00000
  20928     349.9056      0.00000
  20929     349.9093      0.00000
  20930     349.9424      0.00000
  20931     349.9490      0.00000
  20932     349.9565      0.00000
  20933     349.9712      0.00000
  20934     349.9747      0.00000
  20935     349.9842      0.00000
  20936     349.9957      0.00000
  20937     350.0126      0.00000
  20938     350.0200      0.00000
  20939     350.0265      0.00000
  20940     350.0450      0.00000
  20941     350.0533      0.00000
  20942     350.0565      0.00000
  20943     350.0618      0.00000
  20944     350.0765      0.00000
  20945     350.0812      0.00000
  20946     350.1001      0.00000
  20947     350.1128      0.00000
  20948     350.1180      0.00000
  20949     350.1347      0.00000
  20950     350.1505      0.00000
  20951     350.1565      0.00000
  20952     350.1623      0.00000
  20953     350.1720      0.00000
  20954     350.1816      0.00000
  20955     350.1891      0.00000
  20956     350.2098      0.00000
  20957     350.2208      0.00000
  20958     350.2260      0.00000
  20959     350.2327      0.00000
  20960     350.2486      0.00000
  20961     350.2724      0.00000
  20962     350.2872      0.00000
  20963     350.2901      0.00000
  20964     350.2957      0.00000
  20965     350.3204      0.00000
  20966     350.3270      0.00000
  20967     350.3300      0.00000
  20968     350.3394      0.00000
  20969     350.3522      0.00000
  20970     350.3631      0.00000
  20971     350.3719      0.00000
  20972     350.3914      0.00000
  20973     350.4084      0.00000
  20974     350.4152      0.00000
  20975     350.4285      0.00000
  20976     350.4417      0.00000
  20977     350.4640      0.00000
  20978     350.4711      0.00000
  20979     350.4855      0.00000
  20980     350.5110      0.00000
  20981     350.5187      0.00000
  20982     350.5278      0.00000
  20983     350.5402      0.00000
  20984     350.5504      0.00000
  20985     350.5564      0.00000
  20986     350.5613      0.00000
  20987     350.5691      0.00000
  20988     350.5878      0.00000
  20989     350.6069      0.00000
  20990     350.6115      0.00000
  20991     350.6340      0.00000
  20992     350.6435      0.00000
  20993     350.6499      0.00000
  20994     350.6529      0.00000
  20995     350.6625      0.00000
  20996     350.6786      0.00000
  20997     350.7027      0.00000
  20998     350.7073      0.00000
  20999     350.7248      0.00000
  21000     350.7388      0.00000
  21001     350.7596      0.00000
  21002     350.7675      0.00000
  21003     350.7924      0.00000
  21004     350.7992      0.00000
  21005     350.8133      0.00000
  21006     350.8226      0.00000
  21007     350.8275      0.00000
  21008     350.8385      0.00000
  21009     350.8540      0.00000
  21010     350.8645      0.00000
  21011     350.8718      0.00000
  21012     350.8917      0.00000
  21013     350.9100      0.00000
  21014     350.9262      0.00000
  21015     350.9394      0.00000
  21016     350.9446      0.00000
  21017     350.9502      0.00000
  21018     350.9783      0.00000
  21019     350.9929      0.00000
  21020     350.9988      0.00000
  21021     351.0047      0.00000
  21022     351.0229      0.00000
  21023     351.0324      0.00000
  21024     351.0359      0.00000
  21025     351.0681      0.00000
  21026     351.0807      0.00000
  21027     351.0971      0.00000
  21028     351.1012      0.00000
  21029     351.1085      0.00000
  21030     351.1262      0.00000
  21031     351.1308      0.00000
  21032     351.1482      0.00000
  21033     351.1557      0.00000
  21034     351.1829      0.00000
  21035     351.1931      0.00000
  21036     351.1978      0.00000
  21037     351.2164      0.00000
  21038     351.2201      0.00000
  21039     351.2398      0.00000
  21040     351.2601      0.00000
  21041     351.2689      0.00000
  21042     351.2787      0.00000
  21043     351.2908      0.00000
  21044     351.3039      0.00000
  21045     351.3062      0.00000
  21046     351.3249      0.00000
  21047     351.3386      0.00000
  21048     351.3506      0.00000
  21049     351.3648      0.00000
  21050     351.3716      0.00000
  21051     351.3804      0.00000
  21052     351.4115      0.00000
  21053     351.4244      0.00000
  21054     351.4425      0.00000
  21055     351.4480      0.00000
  21056     351.4620      0.00000
  21057     351.4758      0.00000
  21058     351.4993      0.00000
  21059     351.5033      0.00000
  21060     351.5185      0.00000
  21061     351.5246      0.00000
  21062     351.5354      0.00000
  21063     351.5438      0.00000
  21064     351.5513      0.00000
  21065     351.5681      0.00000
  21066     351.5706      0.00000
  21067     351.5785      0.00000
  21068     351.5842      0.00000
  21069     351.6026      0.00000
  21070     351.6178      0.00000
  21071     351.6216      0.00000
  21072     351.6512      0.00000
  21073     351.6556      0.00000
  21074     351.6670      0.00000
  21075     351.6723      0.00000
  21076     351.6754      0.00000
  21077     351.6893      0.00000
  21078     351.6960      0.00000
  21079     351.7118      0.00000
  21080     351.7308      0.00000
  21081     351.7377      0.00000
  21082     351.7461      0.00000
  21083     351.7570      0.00000
  21084     351.7673      0.00000
  21085     351.7895      0.00000
  21086     351.7983      0.00000
  21087     351.8116      0.00000
  21088     351.8143      0.00000
  21089     351.8259      0.00000
  21090     351.8448      0.00000
  21091     351.8511      0.00000
  21092     351.8644      0.00000
  21093     351.8839      0.00000
  21094     351.8956      0.00000
  21095     351.9109      0.00000
  21096     351.9166      0.00000
  21097     351.9436      0.00000
  21098     351.9597      0.00000
  21099     351.9647      0.00000
  21100     351.9756      0.00000
  21101     351.9872      0.00000
  21102     351.9975      0.00000
  21103     352.0104      0.00000
  21104     352.0303      0.00000
  21105     352.0425      0.00000
  21106     352.0433      0.00000
  21107     352.0586      0.00000
  21108     352.0684      0.00000
  21109     352.0824      0.00000
  21110     352.0908      0.00000
  21111     352.1122      0.00000
  21112     352.1229      0.00000
  21113     352.1302      0.00000
  21114     352.1422      0.00000
  21115     352.1513      0.00000
  21116     352.1623      0.00000
  21117     352.1737      0.00000
  21118     352.1821      0.00000
  21119     352.1989      0.00000
  21120     352.2191      0.00000
  21121     352.2246      0.00000
  21122     352.2330      0.00000
  21123     352.2414      0.00000
  21124     352.2549      0.00000
  21125     352.2569      0.00000
  21126     352.2612      0.00000
  21127     352.2876      0.00000
  21128     352.2992      0.00000
  21129     352.3120      0.00000
  21130     352.3215      0.00000
  21131     352.3370      0.00000
  21132     352.3502      0.00000
  21133     352.3548      0.00000
  21134     352.3780      0.00000
  21135     352.3823      0.00000
  21136     352.3975      0.00000
  21137     352.4286      0.00000
  21138     352.4410      0.00000
  21139     352.4435      0.00000
  21140     352.4590      0.00000
  21141     352.4611      0.00000
  21142     352.4678      0.00000
  21143     352.4795      0.00000
  21144     352.4939      0.00000
  21145     352.4980      0.00000
  21146     352.5305      0.00000
  21147     352.5338      0.00000
  21148     352.5503      0.00000
  21149     352.5671      0.00000
  21150     352.5785      0.00000
  21151     352.5835      0.00000
  21152     352.6011      0.00000
  21153     352.6069      0.00000
  21154     352.6158      0.00000
  21155     352.6308      0.00000
  21156     352.6508      0.00000
  21157     352.6573      0.00000
  21158     352.6670      0.00000
  21159     352.6751      0.00000
  21160     352.6896      0.00000
  21161     352.7055      0.00000
  21162     352.7157      0.00000
  21163     352.7430      0.00000
  21164     352.7580      0.00000
  21165     352.7602      0.00000
  21166     352.7698      0.00000
  21167     352.7974      0.00000
  21168     352.7989      0.00000
  21169     352.8065      0.00000
  21170     352.8225      0.00000
  21171     352.8282      0.00000
  21172     352.8428      0.00000
  21173     352.8663      0.00000
  21174     352.8671      0.00000
  21175     352.8811      0.00000
  21176     352.8901      0.00000
  21177     352.9029      0.00000
  21178     352.9134      0.00000
  21179     352.9239      0.00000
  21180     352.9400      0.00000
  21181     352.9414      0.00000
  21182     352.9694      0.00000
  21183     352.9920      0.00000
  21184     353.0047      0.00000
  21185     353.0138      0.00000
  21186     353.0184      0.00000
  21187     353.0341      0.00000
  21188     353.0458      0.00000
  21189     353.0509      0.00000
  21190     353.0594      0.00000
  21191     353.0697      0.00000
  21192     353.0866      0.00000
  21193     353.0968      0.00000
  21194     353.1195      0.00000
  21195     353.1325      0.00000
  21196     353.1404      0.00000
  21197     353.1505      0.00000
  21198     353.1586      0.00000
  21199     353.1823      0.00000
  21200     353.1843      0.00000
  21201     353.2032      0.00000
  21202     353.2066      0.00000
  21203     353.2190      0.00000
  21204     353.2282      0.00000
  21205     353.2420      0.00000
  21206     353.2567      0.00000
  21207     353.2628      0.00000
  21208     353.2710      0.00000
  21209     353.2866      0.00000
  21210     353.2964      0.00000
  21211     353.3056      0.00000
  21212     353.3221      0.00000
  21213     353.3275      0.00000
  21214     353.3361      0.00000
  21215     353.3444      0.00000
  21216     353.3646      0.00000
  21217     353.3731      0.00000
  21218     353.3817      0.00000
  21219     353.3902      0.00000
  21220     353.4014      0.00000
  21221     353.4251      0.00000
  21222     353.4265      0.00000
  21223     353.4467      0.00000
  21224     353.4523      0.00000
  21225     353.4621      0.00000
  21226     353.4856      0.00000
  21227     353.5015      0.00000
  21228     353.5165      0.00000
  21229     353.5306      0.00000
  21230     353.5336      0.00000
  21231     353.5507      0.00000
  21232     353.5562      0.00000
  21233     353.5622      0.00000
  21234     353.5723      0.00000
  21235     353.5895      0.00000
  21236     353.6021      0.00000
  21237     353.6132      0.00000
  21238     353.6290      0.00000
  21239     353.6430      0.00000
  21240     353.6454      0.00000
  21241     353.6630      0.00000
  21242     353.6694      0.00000
  21243     353.6853      0.00000
  21244     353.6895      0.00000
  21245     353.7157      0.00000
  21246     353.7258      0.00000
  21247     353.7343      0.00000
  21248     353.7556      0.00000
  21249     353.7755      0.00000
  21250     353.7917      0.00000
  21251     353.7965      0.00000
  21252     353.8023      0.00000
  21253     353.8172      0.00000
  21254     353.8351      0.00000
  21255     353.8443      0.00000
  21256     353.8525      0.00000
  21257     353.8631      0.00000
  21258     353.8690      0.00000
  21259     353.8850      0.00000
  21260     353.9006      0.00000
  21261     353.9063      0.00000
  21262     353.9309      0.00000
  21263     353.9329      0.00000
  21264     353.9525      0.00000
  21265     353.9619      0.00000
  21266     353.9695      0.00000
  21267     353.9906      0.00000
  21268     353.9955      0.00000
  21269     354.0000      0.00000
  21270     354.0203      0.00000
  21271     354.0344      0.00000
  21272     354.0627      0.00000
  21273     354.0778      0.00000
  21274     354.0876      0.00000
  21275     354.1044      0.00000
  21276     354.1081      0.00000
  21277     354.1193      0.00000
  21278     354.1401      0.00000
  21279     354.1451      0.00000
  21280     354.1493      0.00000
  21281     354.1789      0.00000
  21282     354.1832      0.00000
  21283     354.1945      0.00000
  21284     354.2074      0.00000
  21285     354.2259      0.00000
  21286     354.2348      0.00000
  21287     354.2519      0.00000
  21288     354.2541      0.00000
  21289     354.2745      0.00000
  21290     354.2862      0.00000
  21291     354.2886      0.00000
  21292     354.2949      0.00000
  21293     354.3159      0.00000
  21294     354.3223      0.00000
  21295     354.3392      0.00000
  21296     354.3536      0.00000
  21297     354.3784      0.00000
  21298     354.3873      0.00000
  21299     354.3990      0.00000
  21300     354.4059      0.00000
  21301     354.4120      0.00000
  21302     354.4288      0.00000
  21303     354.4317      0.00000
  21304     354.4353      0.00000
  21305     354.4618      0.00000
  21306     354.4679      0.00000
  21307     354.4771      0.00000
  21308     354.4923      0.00000
  21309     354.5093      0.00000
  21310     354.5176      0.00000
  21311     354.5342      0.00000
  21312     354.5452      0.00000
  21313     354.5630      0.00000
  21314     354.5690      0.00000
  21315     354.5795      0.00000
  21316     354.5905      0.00000
  21317     354.6004      0.00000
  21318     354.6146      0.00000
  21319     354.6245      0.00000
  21320     354.6429      0.00000
  21321     354.6634      0.00000
  21322     354.6694      0.00000
  21323     354.6832      0.00000
  21324     354.6974      0.00000
  21325     354.7183      0.00000
  21326     354.7271      0.00000
  21327     354.7406      0.00000
  21328     354.7504      0.00000
  21329     354.7551      0.00000
  21330     354.7606      0.00000
  21331     354.7739      0.00000
  21332     354.7814      0.00000
  21333     354.7984      0.00000
  21334     354.8013      0.00000
  21335     354.8269      0.00000
  21336     354.8359      0.00000
  21337     354.8441      0.00000
  21338     354.8534      0.00000
  21339     354.8642      0.00000
  21340     354.8714      0.00000
  21341     354.8773      0.00000
  21342     354.8873      0.00000
  21343     354.9141      0.00000
  21344     354.9223      0.00000
  21345     354.9364      0.00000
  21346     354.9436      0.00000
  21347     354.9685      0.00000
  21348     354.9742      0.00000
  21349     354.9941      0.00000
  21350     355.0052      0.00000
  21351     355.0072      0.00000
  21352     355.0245      0.00000
  21353     355.0386      0.00000
  21354     355.0409      0.00000
  21355     355.0522      0.00000
  21356     355.0607      0.00000
  21357     355.0798      0.00000
  21358     355.0895      0.00000
  21359     355.1040      0.00000
  21360     355.1070      0.00000
  21361     355.1220      0.00000
  21362     355.1420      0.00000
  21363     355.1545      0.00000
  21364     355.1715      0.00000
  21365     355.1835      0.00000
  21366     355.1865      0.00000
  21367     355.2074      0.00000
  21368     355.2138      0.00000
  21369     355.2227      0.00000
  21370     355.2392      0.00000
  21371     355.2529      0.00000
  21372     355.2728      0.00000
  21373     355.2771      0.00000
  21374     355.2806      0.00000
  21375     355.2879      0.00000
  21376     355.2993      0.00000
  21377     355.3213      0.00000
  21378     355.3349      0.00000
  21379     355.3455      0.00000
  21380     355.3643      0.00000
  21381     355.3705      0.00000
  21382     355.3840      0.00000
  21383     355.3985      0.00000
  21384     355.4089      0.00000
  21385     355.4205      0.00000
  21386     355.4385      0.00000
  21387     355.4516      0.00000
  21388     355.4564      0.00000
  21389     355.4647      0.00000
  21390     355.4826      0.00000
  21391     355.4998      0.00000
  21392     355.5068      0.00000
  21393     355.5267      0.00000
  21394     355.5308      0.00000
  21395     355.5375      0.00000
  21396     355.5499      0.00000
  21397     355.5615      0.00000
  21398     355.5763      0.00000
  21399     355.5863      0.00000
  21400     355.5966      0.00000
  21401     355.6091      0.00000
  21402     355.6225      0.00000
  21403     355.6447      0.00000
  21404     355.6599      0.00000
  21405     355.6687      0.00000
  21406     355.6710      0.00000
  21407     355.6795      0.00000
  21408     355.6838      0.00000
  21409     355.6994      0.00000
  21410     355.7164      0.00000
  21411     355.7318      0.00000
  21412     355.7478      0.00000
  21413     355.7522      0.00000
  21414     355.7538      0.00000
  21415     355.7797      0.00000
  21416     355.7818      0.00000
  21417     355.7987      0.00000
  21418     355.8058      0.00000
  21419     355.8145      0.00000
  21420     355.8252      0.00000
  21421     355.8359      0.00000
  21422     355.8441      0.00000
  21423     355.8605      0.00000
  21424     355.8745      0.00000
  21425     355.8857      0.00000
  21426     355.8889      0.00000
  21427     355.9156      0.00000
  21428     355.9209      0.00000
  21429     355.9361      0.00000
  21430     355.9441      0.00000
  21431     355.9601      0.00000
  21432     355.9645      0.00000
  21433     355.9786      0.00000
  21434     355.9964      0.00000
  21435     356.0071      0.00000
  21436     356.0267      0.00000
  21437     356.0323      0.00000
  21438     356.0389      0.00000
  21439     356.0500      0.00000
  21440     356.0565      0.00000
  21441     356.0599      0.00000
  21442     356.0808      0.00000
  21443     356.0930      0.00000
  21444     356.1024      0.00000
  21445     356.1147      0.00000
  21446     356.1301      0.00000
  21447     356.1430      0.00000
  21448     356.1584      0.00000
  21449     356.1708      0.00000
  21450     356.1797      0.00000
  21451     356.2046      0.00000
  21452     356.2191      0.00000
  21453     356.2196      0.00000
  21454     356.2332      0.00000
  21455     356.2393      0.00000
  21456     356.2585      0.00000
  21457     356.2661      0.00000
  21458     356.2839      0.00000
  21459     356.2982      0.00000
  21460     356.3005      0.00000
  21461     356.3263      0.00000
  21462     356.3533      0.00000
  21463     356.3596      0.00000
  21464     356.3669      0.00000
  21465     356.3758      0.00000
  21466     356.3901      0.00000
  21467     356.3919      0.00000
  21468     356.4032      0.00000
  21469     356.4238      0.00000
  21470     356.4336      0.00000
  21471     356.4443      0.00000
  21472     356.4548      0.00000
  21473     356.4754      0.00000
  21474     356.4807      0.00000
  21475     356.4881      0.00000
  21476     356.5002      0.00000
  21477     356.5130      0.00000
  21478     356.5172      0.00000
  21479     356.5303      0.00000
  21480     356.5316      0.00000
  21481     356.5557      0.00000
  21482     356.5574      0.00000
  21483     356.5709      0.00000
  21484     356.5845      0.00000
  21485     356.6011      0.00000
  21486     356.6100      0.00000
  21487     356.6210      0.00000
  21488     356.6326      0.00000
  21489     356.6380      0.00000
  21490     356.6479      0.00000
  21491     356.6489      0.00000
  21492     356.6724      0.00000
  21493     356.6903      0.00000
  21494     356.6961      0.00000
  21495     356.7176      0.00000
  21496     356.7231      0.00000
  21497     356.7340      0.00000
  21498     356.7505      0.00000
  21499     356.7703      0.00000
  21500     356.7784      0.00000
  21501     356.7832      0.00000
  21502     356.7973      0.00000
  21503     356.8079      0.00000
  21504     356.8225      0.00000
  21505     356.8297      0.00000
  21506     356.8429      0.00000
  21507     356.8497      0.00000
  21508     356.8595      0.00000
  21509     356.8745      0.00000
  21510     356.8864      0.00000
  21511     356.8975      0.00000
  21512     356.9065      0.00000
  21513     356.9268      0.00000
  21514     356.9378      0.00000
  21515     356.9430      0.00000
  21516     356.9447      0.00000
  21517     356.9562      0.00000
  21518     356.9691      0.00000
  21519     356.9800      0.00000
  21520     356.9947      0.00000
  21521     357.0071      0.00000
  21522     357.0244      0.00000
  21523     357.0339      0.00000
  21524     357.0447      0.00000
  21525     357.0554      0.00000
  21526     357.0616      0.00000
  21527     357.0765      0.00000
  21528     357.0991      0.00000
  21529     357.1007      0.00000
  21530     357.1150      0.00000
  21531     357.1256      0.00000
  21532     357.1400      0.00000
  21533     357.1485      0.00000
  21534     357.1599      0.00000
  21535     357.1820      0.00000
  21536     357.1863      0.00000
  21537     357.1917      0.00000
  21538     357.1987      0.00000
  21539     357.2083      0.00000
  21540     357.2165      0.00000
  21541     357.2298      0.00000
  21542     357.2439      0.00000
  21543     357.2571      0.00000
  21544     357.2680      0.00000
  21545     357.2731      0.00000
  21546     357.2875      0.00000
  21547     357.2993      0.00000
  21548     357.3127      0.00000
  21549     357.3217      0.00000
  21550     357.3281      0.00000
  21551     357.3367      0.00000
  21552     357.3538      0.00000
  21553     357.3640      0.00000
  21554     357.3666      0.00000
  21555     357.3849      0.00000
  21556     357.4134      0.00000
  21557     357.4226      0.00000
  21558     357.4280      0.00000
  21559     357.4428      0.00000
  21560     357.4482      0.00000
  21561     357.4760      0.00000
  21562     357.4842      0.00000
  21563     357.4899      0.00000
  21564     357.5066      0.00000
  21565     357.5127      0.00000
  21566     357.5261      0.00000
  21567     357.5346      0.00000
  21568     357.5543      0.00000
  21569     357.5621      0.00000
  21570     357.5695      0.00000
  21571     357.5770      0.00000
  21572     357.5780      0.00000
  21573     357.5905      0.00000
  21574     357.6024      0.00000
  21575     357.6137      0.00000
  21576     357.6243      0.00000
  21577     357.6321      0.00000
  21578     357.6407      0.00000
  21579     357.6551      0.00000
  21580     357.6681      0.00000
  21581     357.6786      0.00000
  21582     357.6897      0.00000
  21583     357.6989      0.00000
  21584     357.7127      0.00000
  21585     357.7170      0.00000
  21586     357.7388      0.00000
  21587     357.7467      0.00000
  21588     357.7559      0.00000
  21589     357.7603      0.00000
  21590     357.7713      0.00000
  21591     357.7793      0.00000
  21592     357.7939      0.00000
  21593     357.8058      0.00000
  21594     357.8246      0.00000
  21595     357.8291      0.00000
  21596     357.8423      0.00000
  21597     357.8499      0.00000
  21598     357.8597      0.00000
  21599     357.8679      0.00000
  21600     357.8814      0.00000
  21601     357.8896      0.00000
  21602     357.8943      0.00000
  21603     357.9094      0.00000
  21604     357.9161      0.00000
  21605     357.9266      0.00000
  21606     357.9515      0.00000
  21607     357.9717      0.00000
  21608     357.9754      0.00000
  21609     357.9891      0.00000
  21610     357.9991      0.00000
  21611     358.0202      0.00000
  21612     358.0252      0.00000
  21613     358.0398      0.00000
  21614     358.0443      0.00000
  21615     358.0547      0.00000
  21616     358.0727      0.00000
  21617     358.0788      0.00000
  21618     358.0942      0.00000
  21619     358.1094      0.00000
  21620     358.1211      0.00000
  21621     358.1327      0.00000
  21622     358.1429      0.00000
  21623     358.1491      0.00000
  21624     358.1556      0.00000
  21625     358.1616      0.00000
  21626     358.1770      0.00000
  21627     358.1899      0.00000
  21628     358.1977      0.00000
  21629     358.2082      0.00000
  21630     358.2292      0.00000
  21631     358.2325      0.00000
  21632     358.2412      0.00000
  21633     358.2597      0.00000
  21634     358.2711      0.00000
  21635     358.2761      0.00000
  21636     358.2867      0.00000
  21637     358.2946      0.00000
  21638     358.3015      0.00000
  21639     358.3119      0.00000
  21640     358.3366      0.00000
  21641     358.3404      0.00000
  21642     358.3483      0.00000
  21643     358.3711      0.00000
  21644     358.3756      0.00000
  21645     358.3800      0.00000
  21646     358.3893      0.00000
  21647     358.4011      0.00000
  21648     358.4185      0.00000
  21649     358.4310      0.00000
  21650     358.4396      0.00000
  21651     358.4520      0.00000
  21652     358.4667      0.00000
  21653     358.4729      0.00000
  21654     358.4911      0.00000
  21655     358.5089      0.00000
  21656     358.5235      0.00000
  21657     358.5298      0.00000
  21658     358.5327      0.00000
  21659     358.5433      0.00000
  21660     358.5639      0.00000
  21661     358.5748      0.00000
  21662     358.5863      0.00000
  21663     358.5904      0.00000
  21664     358.5957      0.00000
  21665     358.6072      0.00000
  21666     358.6167      0.00000
  21667     358.6276      0.00000
  21668     358.6490      0.00000
  21669     358.6621      0.00000
  21670     358.6718      0.00000
  21671     358.6837      0.00000
  21672     358.6987      0.00000
  21673     358.7023      0.00000
  21674     358.7321      0.00000
  21675     358.7350      0.00000
  21676     358.7561      0.00000
  21677     358.7622      0.00000
  21678     358.7678      0.00000
  21679     358.7885      0.00000
  21680     358.8019      0.00000
  21681     358.8141      0.00000
  21682     358.8163      0.00000
  21683     358.8398      0.00000
  21684     358.8409      0.00000
  21685     358.8571      0.00000
  21686     358.8602      0.00000
  21687     358.8750      0.00000
  21688     358.8796      0.00000
  21689     358.8969      0.00000
  21690     358.9019      0.00000
  21691     358.9134      0.00000
  21692     358.9231      0.00000
  21693     358.9340      0.00000
  21694     358.9481      0.00000
  21695     358.9571      0.00000
  21696     358.9729      0.00000
  21697     358.9808      0.00000
  21698     358.9956      0.00000
  21699     359.0032      0.00000
  21700     359.0238      0.00000
  21701     359.0261      0.00000
  21702     359.0458      0.00000
  21703     359.0633      0.00000
  21704     359.0707      0.00000
  21705     359.0817      0.00000
  21706     359.0868      0.00000
  21707     359.1024      0.00000
  21708     359.1139      0.00000
  21709     359.1225      0.00000
  21710     359.1377      0.00000
  21711     359.1432      0.00000
  21712     359.1557      0.00000
  21713     359.1806      0.00000
  21714     359.1932      0.00000
  21715     359.1996      0.00000
  21716     359.2046      0.00000
  21717     359.2171      0.00000
  21718     359.2244      0.00000
  21719     359.2330      0.00000
  21720     359.2414      0.00000
  21721     359.2560      0.00000
  21722     359.2726      0.00000
  21723     359.2760      0.00000
  21724     359.2940      0.00000
  21725     359.3066      0.00000
  21726     359.3205      0.00000
  21727     359.3286      0.00000
  21728     359.3368      0.00000
  21729     359.3527      0.00000
  21730     359.3646      0.00000
  21731     359.3772      0.00000
  21732     359.3826      0.00000
  21733     359.4017      0.00000
  21734     359.4082      0.00000
  21735     359.4208      0.00000
  21736     359.4349      0.00000
  21737     359.4378      0.00000
  21738     359.4516      0.00000
  21739     359.4743      0.00000
  21740     359.4797      0.00000
  21741     359.5010      0.00000
  21742     359.5069      0.00000
  21743     359.5168      0.00000
  21744     359.5263      0.00000
  21745     359.5292      0.00000
  21746     359.5363      0.00000
  21747     359.5436      0.00000
  21748     359.5601      0.00000
  21749     359.5733      0.00000
  21750     359.5830      0.00000
  21751     359.5891      0.00000
  21752     359.6128      0.00000
  21753     359.6198      0.00000
  21754     359.6328      0.00000
  21755     359.6431      0.00000
  21756     359.6471      0.00000
  21757     359.6698      0.00000
  21758     359.6732      0.00000
  21759     359.6798      0.00000
  21760     359.6978      0.00000
  21761     359.7066      0.00000
  21762     359.7214      0.00000
  21763     359.7273      0.00000
  21764     359.7410      0.00000
  21765     359.7678      0.00000
  21766     359.7844      0.00000
  21767     359.7913      0.00000
  21768     359.7952      0.00000
  21769     359.8036      0.00000
  21770     359.8158      0.00000
  21771     359.8390      0.00000
  21772     359.8457      0.00000
  21773     359.8714      0.00000
  21774     359.8734      0.00000
  21775     359.8831      0.00000
  21776     359.8916      0.00000
  21777     359.8963      0.00000
  21778     359.9050      0.00000
  21779     359.9382      0.00000
  21780     359.9456      0.00000
  21781     359.9774      0.00000
  21782     359.9841      0.00000
  21783     359.9919      0.00000
  21784     360.0032      0.00000
  21785     360.0097      0.00000
  21786     360.0158      0.00000
  21787     360.0404      0.00000
  21788     360.0501      0.00000
  21789     360.0538      0.00000
  21790     360.0765      0.00000
  21791     360.0825      0.00000
  21792     360.1082      0.00000
  21793     360.1253      0.00000
  21794     360.1352      0.00000
  21795     360.1359      0.00000
  21796     360.1527      0.00000
  21797     360.1590      0.00000
  21798     360.1637      0.00000
  21799     360.1718      0.00000
  21800     360.1864      0.00000
  21801     360.2081      0.00000
  21802     360.2221      0.00000
  21803     360.2271      0.00000
  21804     360.2542      0.00000
  21805     360.2574      0.00000
  21806     360.2641      0.00000
  21807     360.2775      0.00000
  21808     360.2896      0.00000
  21809     360.3008      0.00000
  21810     360.3259      0.00000
  21811     360.3291      0.00000
  21812     360.3371      0.00000
  21813     360.3452      0.00000
  21814     360.3536      0.00000
  21815     360.3634      0.00000
  21816     360.3698      0.00000
  21817     360.3845      0.00000
  21818     360.3948      0.00000
  21819     360.4162      0.00000
  21820     360.4210      0.00000
  21821     360.4362      0.00000
  21822     360.4478      0.00000
  21823     360.4711      0.00000
  21824     360.4736      0.00000
  21825     360.4821      0.00000
  21826     360.4873      0.00000
  21827     360.4992      0.00000
  21828     360.5290      0.00000
  21829     360.5391      0.00000
  21830     360.5465      0.00000
  21831     360.5708      0.00000
  21832     360.5803      0.00000
  21833     360.5929      0.00000
  21834     360.6012      0.00000
  21835     360.6288      0.00000
  21836     360.6349      0.00000
  21837     360.6619      0.00000
  21838     360.6658      0.00000
  21839     360.6799      0.00000
  21840     360.6913      0.00000
  21841     360.7004      0.00000
  21842     360.7113      0.00000
  21843     360.7353      0.00000
  21844     360.7490      0.00000
  21845     360.7706      0.00000
  21846     360.7768      0.00000
  21847     360.7776      0.00000
  21848     360.7847      0.00000
  21849     360.8122      0.00000
  21850     360.8171      0.00000
  21851     360.8302      0.00000
  21852     360.8409      0.00000
  21853     360.8586      0.00000
  21854     360.8658      0.00000
  21855     360.8881      0.00000
  21856     360.8976      0.00000
  21857     360.9085      0.00000
  21858     360.9242      0.00000
  21859     360.9319      0.00000
  21860     360.9388      0.00000
  21861     360.9733      0.00000
  21862     360.9769      0.00000
  21863     360.9933      0.00000
  21864     361.0009      0.00000
  21865     361.0094      0.00000
  21866     361.0260      0.00000
  21867     361.0357      0.00000
  21868     361.0370      0.00000
  21869     361.0484      0.00000
  21870     361.0659      0.00000
  21871     361.0839      0.00000
  21872     361.0880      0.00000
  21873     361.1082      0.00000
  21874     361.1176      0.00000
  21875     361.1340      0.00000
  21876     361.1461      0.00000
  21877     361.1529      0.00000
  21878     361.1671      0.00000
  21879     361.1765      0.00000
  21880     361.1810      0.00000
  21881     361.2038      0.00000
  21882     361.2160      0.00000
  21883     361.2283      0.00000
  21884     361.2464      0.00000
  21885     361.2704      0.00000
  21886     361.2799      0.00000
  21887     361.2914      0.00000
  21888     361.2964      0.00000
  21889     361.3047      0.00000
  21890     361.3165      0.00000
  21891     361.3490      0.00000
  21892     361.3732      0.00000
  21893     361.3761      0.00000
  21894     361.3940      0.00000
  21895     361.4035      0.00000
  21896     361.4091      0.00000
  21897     361.4234      0.00000
  21898     361.4379      0.00000
  21899     361.4444      0.00000
  21900     361.4546      0.00000
  21901     361.4565      0.00000
  21902     361.4739      0.00000
  21903     361.4887      0.00000
  21904     361.4986      0.00000
  21905     361.5270      0.00000
  21906     361.5397      0.00000
  21907     361.5449      0.00000
  21908     361.5552      0.00000
  21909     361.5689      0.00000
  21910     361.5717      0.00000
  21911     361.5901      0.00000
  21912     361.6038      0.00000
  21913     361.6085      0.00000
  21914     361.6356      0.00000
  21915     361.6415      0.00000
  21916     361.6638      0.00000
  21917     361.6721      0.00000
  21918     361.6842      0.00000
  21919     361.7030      0.00000
  21920     361.7086      0.00000
  21921     361.7150      0.00000
  21922     361.7240      0.00000
  21923     361.7333      0.00000
  21924     361.7396      0.00000
  21925     361.7482      0.00000
  21926     361.7613      0.00000
  21927     361.7669      0.00000
  21928     361.7856      0.00000
  21929     361.8051      0.00000
  21930     361.8148      0.00000
  21931     361.8224      0.00000
  21932     361.8292      0.00000
  21933     361.8486      0.00000
  21934     361.8562      0.00000
  21935     361.8674      0.00000
  21936     361.8782      0.00000
  21937     361.8944      0.00000
  21938     361.9107      0.00000
  21939     361.9201      0.00000
  21940     361.9349      0.00000
  21941     361.9404      0.00000
  21942     361.9545      0.00000
  21943     361.9659      0.00000
  21944     361.9809      0.00000
  21945     361.9893      0.00000
  21946     361.9976      0.00000
  21947     362.0006      0.00000
  21948     362.0058      0.00000
  21949     362.0282      0.00000
  21950     362.0471      0.00000
  21951     362.0554      0.00000
  21952     362.0686      0.00000
  21953     362.0794      0.00000
  21954     362.0821      0.00000
  21955     362.0878      0.00000
  21956     362.0992      0.00000
  21957     362.1181      0.00000
  21958     362.1284      0.00000
  21959     362.1365      0.00000
  21960     362.1557      0.00000
  21961     362.1590      0.00000
  21962     362.1664      0.00000
  21963     362.1857      0.00000
  21964     362.1915      0.00000
  21965     362.1987      0.00000
  21966     362.2088      0.00000
  21967     362.2219      0.00000
  21968     362.2326      0.00000
  21969     362.2372      0.00000
  21970     362.2528      0.00000
  21971     362.2570      0.00000
  21972     362.2693      0.00000
  21973     362.2784      0.00000
  21974     362.2839      0.00000
  21975     362.3000      0.00000
  21976     362.3156      0.00000
  21977     362.3196      0.00000
  21978     362.3307      0.00000
  21979     362.3399      0.00000
  21980     362.3571      0.00000
  21981     362.3679      0.00000
  21982     362.3788      0.00000
  21983     362.3847      0.00000
  21984     362.3979      0.00000
  21985     362.4035      0.00000
  21986     362.4153      0.00000
  21987     362.4201      0.00000
  21988     362.4330      0.00000
  21989     362.4454      0.00000
  21990     362.4516      0.00000
  21991     362.4562      0.00000
  21992     362.4722      0.00000
  21993     362.4820      0.00000
  21994     362.4898      0.00000
  21995     362.5009      0.00000
  21996     362.5097      0.00000
  21997     362.5251      0.00000
  21998     362.5303      0.00000
  21999     362.5358      0.00000
  22000     362.5416      0.00000
  22001     362.5498      0.00000
  22002     362.5695      0.00000
  22003     362.5704      0.00000
  22004     362.5906      0.00000
  22005     362.5943      0.00000
  22006     362.6035      0.00000
  22007     362.6179      0.00000
  22008     362.6279      0.00000
  22009     362.6321      0.00000
  22010     362.6452      0.00000
  22011     362.6543      0.00000
  22012     362.6634      0.00000
  22013     362.6682      0.00000
  22014     362.6812      0.00000
  22015     362.6962      0.00000
  22016     362.7045      0.00000
  22017     362.7089      0.00000
  22018     362.7198      0.00000
  22019     362.7244      0.00000
  22020     362.7358      0.00000
  22021     362.7389      0.00000
  22022     362.7471      0.00000
  22023     362.7651      0.00000
  22024     362.7720      0.00000
  22025     362.7788      0.00000
  22026     362.7939      0.00000
  22027     362.8021      0.00000
  22028     362.8117      0.00000
  22029     362.8258      0.00000
  22030     362.8378      0.00000
  22031     362.8534      0.00000
  22032     362.8639      0.00000
  22033     362.8764      0.00000
  22034     362.8789      0.00000
  22035     362.8849      0.00000
  22036     362.9014      0.00000
  22037     362.9051      0.00000
  22038     362.9183      0.00000
  22039     362.9214      0.00000
  22040     362.9370      0.00000
  22041     362.9500      0.00000
  22042     362.9632      0.00000
  22043     362.9746      0.00000
  22044     362.9856      0.00000
  22045     362.9966      0.00000
  22046     363.0021      0.00000
  22047     363.0166      0.00000
  22048     363.0221      0.00000
  22049     363.0328      0.00000
  22050     363.0520      0.00000
  22051     363.0659      0.00000
  22052     363.0703      0.00000
  22053     363.0801      0.00000
  22054     363.0860      0.00000
  22055     363.1002      0.00000
  22056     363.1058      0.00000
  22057     363.1115      0.00000
  22058     363.1287      0.00000
  22059     363.1342      0.00000
  22060     363.1441      0.00000
  22061     363.1539      0.00000
  22062     363.1662      0.00000
  22063     363.1665      0.00000
  22064     363.1825      0.00000
  22065     363.1960      0.00000
  22066     363.1987      0.00000
  22067     363.2094      0.00000
  22068     363.2319      0.00000
  22069     363.2430      0.00000
  22070     363.2540      0.00000
  22071     363.2640      0.00000
  22072     363.2725      0.00000
  22073     363.2793      0.00000
  22074     363.2841      0.00000
  22075     363.3029      0.00000
  22076     363.3073      0.00000
  22077     363.3164      0.00000
  22078     363.3205      0.00000
  22079     363.3363      0.00000
  22080     363.3513      0.00000
  22081     363.3567      0.00000
  22082     363.3727      0.00000
  22083     363.3757      0.00000
  22084     363.3871      0.00000
  22085     363.3902      0.00000
  22086     363.4109      0.00000
  22087     363.4222      0.00000
  22088     363.4329      0.00000
  22089     363.4398      0.00000
  22090     363.4489      0.00000
  22091     363.4588      0.00000
  22092     363.4707      0.00000
  22093     363.4841      0.00000
  22094     363.4931      0.00000
  22095     363.5061      0.00000
  22096     363.5321      0.00000
  22097     363.5365      0.00000
  22098     363.5425      0.00000
  22099     363.5522      0.00000
  22100     363.5646      0.00000
  22101     363.5831      0.00000
  22102     363.5910      0.00000
  22103     363.6027      0.00000
  22104     363.6055      0.00000
  22105     363.6089      0.00000
  22106     363.6340      0.00000
  22107     363.6447      0.00000
  22108     363.6549      0.00000
  22109     363.6648      0.00000
  22110     363.6728      0.00000
  22111     363.6797      0.00000
  22112     363.6886      0.00000
  22113     363.7037      0.00000
  22114     363.7156      0.00000
  22115     363.7283      0.00000
  22116     363.7523      0.00000
  22117     363.7638      0.00000
  22118     363.7738      0.00000
  22119     363.7815      0.00000
  22120     363.8074      0.00000
  22121     363.8203      0.00000
  22122     363.8337      0.00000
  22123     363.8424      0.00000
  22124     363.8483      0.00000
  22125     363.8643      0.00000
  22126     363.8757      0.00000
  22127     363.8894      0.00000
  22128     363.8960      0.00000
  22129     363.9097      0.00000
  22130     363.9321      0.00000
  22131     363.9370      0.00000
  22132     363.9495      0.00000
  22133     363.9681      0.00000
  22134     363.9869      0.00000
  22135     363.9913      0.00000
  22136     363.9969      0.00000
  22137     364.0138      0.00000
  22138     364.0227      0.00000
  22139     364.0447      0.00000
  22140     364.0549      0.00000
  22141     364.0702      0.00000
  22142     364.0790      0.00000
  22143     364.0917      0.00000
  22144     364.0961      0.00000
  22145     364.1171      0.00000
  22146     364.1234      0.00000
  22147     364.1399      0.00000
  22148     364.1487      0.00000
  22149     364.1612      0.00000
  22150     364.1718      0.00000
  22151     364.1799      0.00000
  22152     364.1948      0.00000
  22153     364.2190      0.00000
  22154     364.2240      0.00000
  22155     364.2293      0.00000
  22156     364.2552      0.00000
  22157     364.2643      0.00000
  22158     364.2726      0.00000
  22159     364.2811      0.00000
  22160     364.3018      0.00000
  22161     364.3142      0.00000
  22162     364.3185      0.00000
  22163     364.3368      0.00000
  22164     364.3442      0.00000
  22165     364.3624      0.00000
  22166     364.3629      0.00000
  22167     364.3959      0.00000
  22168     364.4053      0.00000
  22169     364.4241      0.00000
  22170     364.4346      0.00000
  22171     364.4434      0.00000
  22172     364.4625      0.00000
  22173     364.4802      0.00000
  22174     364.4908      0.00000
  22175     364.5021      0.00000
  22176     364.5145      0.00000
  22177     364.5258      0.00000
  22178     364.5510      0.00000
  22179     364.5579      0.00000
  22180     364.5726      0.00000
  22181     364.5927      0.00000
  22182     364.6030      0.00000
  22183     364.6154      0.00000
  22184     364.6216      0.00000
  22185     364.6382      0.00000
  22186     364.6444      0.00000
  22187     364.6512      0.00000
  22188     364.6759      0.00000
  22189     364.6918      0.00000
  22190     364.7082      0.00000
  22191     364.7254      0.00000
  22192     364.7445      0.00000
  22193     364.7610      0.00000
  22194     364.7684      0.00000
  22195     364.7746      0.00000
  22196     364.7906      0.00000
  22197     364.8063      0.00000
  22198     364.8153      0.00000
  22199     364.8331      0.00000
  22200     364.8426      0.00000
  22201     364.8587      0.00000
  22202     364.8623      0.00000
  22203     364.8820      0.00000
  22204     364.8846      0.00000
  22205     364.8875      0.00000
  22206     364.9088      0.00000
  22207     364.9334      0.00000
  22208     364.9487      0.00000
  22209     364.9537      0.00000
  22210     364.9772      0.00000
  22211     364.9970      0.00000
  22212     365.0117      0.00000
  22213     365.0217      0.00000
  22214     365.0280      0.00000
  22215     365.0391      0.00000
  22216     365.0629      0.00000
  22217     365.0714      0.00000
  22218     365.0767      0.00000
  22219     365.0937      0.00000
  22220     365.1041      0.00000
  22221     365.1186      0.00000
  22222     365.1265      0.00000
  22223     365.1515      0.00000
  22224     365.1577      0.00000
  22225     365.1611      0.00000
  22226     365.1846      0.00000
  22227     365.1959      0.00000
  22228     365.2164      0.00000
  22229     365.2435      0.00000
  22230     365.2515      0.00000
  22231     365.2584      0.00000
  22232     365.2751      0.00000
  22233     365.2895      0.00000
  22234     365.3008      0.00000
  22235     365.3340      0.00000
  22236     365.3484      0.00000
  22237     365.3624      0.00000
  22238     365.3666      0.00000
  22239     365.3787      0.00000
  22240     365.3976      0.00000
  22241     365.4087      0.00000
  22242     365.4221      0.00000
  22243     365.4359      0.00000
  22244     365.4448      0.00000
  22245     365.4534      0.00000
  22246     365.4660      0.00000
  22247     365.4710      0.00000
  22248     365.4821      0.00000
  22249     365.4993      0.00000
  22250     365.5165      0.00000
  22251     365.5275      0.00000
  22252     365.5463      0.00000
  22253     365.5730      0.00000
  22254     365.5788      0.00000
  22255     365.5855      0.00000
  22256     365.6079      0.00000
  22257     365.6147      0.00000
  22258     365.6214      0.00000
  22259     365.6341      0.00000
  22260     365.6591      0.00000
  22261     365.6594      0.00000
  22262     365.6694      0.00000
  22263     365.6959      0.00000
  22264     365.6998      0.00000
  22265     365.7085      0.00000
  22266     365.7312      0.00000
  22267     365.7413      0.00000
  22268     365.7577      0.00000
  22269     365.7707      0.00000
  22270     365.7748      0.00000
  22271     365.7985      0.00000
  22272     365.8044      0.00000
  22273     365.8144      0.00000
  22274     365.8380      0.00000
  22275     365.8422      0.00000
  22276     365.8536      0.00000
  22277     365.8633      0.00000
  22278     365.8871      0.00000
  22279     365.9070      0.00000
  22280     365.9143      0.00000
  22281     365.9312      0.00000
  22282     365.9387      0.00000
  22283     365.9658      0.00000
  22284     365.9789      0.00000
  22285     365.9862      0.00000
  22286     365.9993      0.00000
  22287     366.0181      0.00000
  22288     366.0252      0.00000
  22289     366.0363      0.00000
  22290     366.0660      0.00000
  22291     366.0784      0.00000
  22292     366.0929      0.00000
  22293     366.1003      0.00000
  22294     366.1205      0.00000
  22295     366.1250      0.00000
  22296     366.1475      0.00000
  22297     366.1548      0.00000
  22298     366.1582      0.00000
  22299     366.1666      0.00000
  22300     366.2011      0.00000
  22301     366.2048      0.00000
  22302     366.2135      0.00000
  22303     366.2231      0.00000
  22304     366.2333      0.00000
  22305     366.2446      0.00000
  22306     366.2532      0.00000
  22307     366.2613      0.00000
  22308     366.2803      0.00000
  22309     366.2924      0.00000
  22310     366.3187      0.00000
  22311     366.3319      0.00000
  22312     366.3396      0.00000
  22313     366.3511      0.00000
  22314     366.3594      0.00000
  22315     366.3789      0.00000
  22316     366.3976      0.00000
  22317     366.4011      0.00000
  22318     366.4113      0.00000
  22319     366.4172      0.00000
  22320     366.4277      0.00000
  22321     366.4437      0.00000
  22322     366.4532      0.00000
  22323     366.4655      0.00000
  22324     366.4667      0.00000
  22325     366.4869      0.00000
  22326     366.5056      0.00000
  22327     366.5226      0.00000
  22328     366.5310      0.00000
  22329     366.5400      0.00000
  22330     366.5454      0.00000
  22331     366.5633      0.00000
  22332     366.5833      0.00000
  22333     366.5952      0.00000
  22334     366.6071      0.00000
  22335     366.6178      0.00000
  22336     366.6232      0.00000
  22337     366.6435      0.00000
  22338     366.6555      0.00000
  22339     366.6608      0.00000
  22340     366.6805      0.00000
  22341     366.6926      0.00000
  22342     366.7074      0.00000
  22343     366.7296      0.00000
  22344     366.7404      0.00000
  22345     366.7456      0.00000
  22346     366.7576      0.00000
  22347     366.7674      0.00000
  22348     366.7737      0.00000
  22349     366.7946      0.00000
  22350     366.8036      0.00000
  22351     366.8220      0.00000
  22352     366.8354      0.00000
  22353     366.8516      0.00000
  22354     366.8668      0.00000
  22355     366.8729      0.00000
  22356     366.8738      0.00000
  22357     366.8981      0.00000
  22358     366.8993      0.00000
  22359     366.9062      0.00000
  22360     366.9324      0.00000
  22361     366.9462      0.00000
  22362     366.9539      0.00000
  22363     366.9598      0.00000
  22364     366.9725      0.00000
  22365     366.9878      0.00000
  22366     366.9960      0.00000
  22367     367.0149      0.00000
  22368     367.0222      0.00000
  22369     367.0232      0.00000
  22370     367.0386      0.00000
  22371     367.0489      0.00000
  22372     367.0605      0.00000
  22373     367.0702      0.00000
  22374     367.0775      0.00000
  22375     367.0914      0.00000
  22376     367.1053      0.00000
  22377     367.1257      0.00000
  22378     367.1425      0.00000
  22379     367.1563      0.00000
  22380     367.1620      0.00000
  22381     367.1711      0.00000
  22382     367.1822      0.00000
  22383     367.1948      0.00000
  22384     367.2135      0.00000
  22385     367.2169      0.00000
  22386     367.2354      0.00000
  22387     367.2438      0.00000
  22388     367.2543      0.00000
  22389     367.2583      0.00000
  22390     367.2800      0.00000
  22391     367.2884      0.00000
  22392     367.3155      0.00000
  22393     367.3250      0.00000
  22394     367.3280      0.00000
  22395     367.3527      0.00000
  22396     367.3558      0.00000
  22397     367.3721      0.00000
  22398     367.3730      0.00000
  22399     367.3880      0.00000
  22400     367.4074      0.00000
  22401     367.4336      0.00000
  22402     367.4358      0.00000
  22403     367.4482      0.00000
  22404     367.4516      0.00000
  22405     367.4709      0.00000
  22406     367.4865      0.00000
  22407     367.4898      0.00000
  22408     367.5055      0.00000
  22409     367.5288      0.00000
  22410     367.5378      0.00000
  22411     367.5481      0.00000
  22412     367.5487      0.00000
  22413     367.5707      0.00000
  22414     367.5863      0.00000
  22415     367.6031      0.00000
  22416     367.6294      0.00000
  22417     367.6462      0.00000
  22418     367.6527      0.00000
  22419     367.6585      0.00000
  22420     367.6687      0.00000
  22421     367.6890      0.00000
  22422     367.6906      0.00000
  22423     367.7153      0.00000
  22424     367.7206      0.00000
  22425     367.7346      0.00000
  22426     367.7470      0.00000
  22427     367.7643      0.00000
  22428     367.7653      0.00000
  22429     367.7743      0.00000
  22430     367.7904      0.00000
  22431     367.8001      0.00000
  22432     367.8135      0.00000
  22433     367.8289      0.00000
  22434     367.8373      0.00000
  22435     367.8418      0.00000
  22436     367.8703      0.00000
  22437     367.8750      0.00000
  22438     367.8808      0.00000
  22439     367.9039      0.00000
  22440     367.9225      0.00000
  22441     367.9311      0.00000
  22442     367.9409      0.00000
  22443     367.9535      0.00000
  22444     367.9605      0.00000
  22445     367.9671      0.00000
  22446     367.9818      0.00000
  22447     368.0021      0.00000
  22448     368.0079      0.00000
  22449     368.0176      0.00000
  22450     368.0316      0.00000
  22451     368.0416      0.00000
  22452     368.0546      0.00000
  22453     368.0574      0.00000
  22454     368.0769      0.00000
  22455     368.1035      0.00000
  22456     368.1093      0.00000
  22457     368.1336      0.00000
  22458     368.1401      0.00000
  22459     368.1522      0.00000
  22460     368.1550      0.00000
  22461     368.1646      0.00000
  22462     368.2006      0.00000
  22463     368.2083      0.00000
  22464     368.2101      0.00000
  22465     368.2233      0.00000
  22466     368.2344      0.00000
  22467     368.2426      0.00000
  22468     368.2538      0.00000
  22469     368.2633      0.00000
  22470     368.2832      0.00000
  22471     368.2908      0.00000
  22472     368.3055      0.00000
  22473     368.3217      0.00000
  22474     368.3238      0.00000
  22475     368.3341      0.00000
  22476     368.3514      0.00000
  22477     368.3624      0.00000
  22478     368.3726      0.00000
  22479     368.3969      0.00000
  22480     368.4086      0.00000
  22481     368.4186      0.00000
  22482     368.4373      0.00000
  22483     368.4488      0.00000
  22484     368.4642      0.00000
  22485     368.4672      0.00000
  22486     368.4740      0.00000
  22487     368.4745      0.00000
  22488     368.4900      0.00000
  22489     368.4919      0.00000
  22490     368.5201      0.00000
  22491     368.5239      0.00000
  22492     368.5453      0.00000
  22493     368.5676      0.00000
  22494     368.5833      0.00000
  22495     368.5870      0.00000
  22496     368.5939      0.00000
  22497     368.6140      0.00000
  22498     368.6173      0.00000
  22499     368.6318      0.00000
  22500     368.6363      0.00000
  22501     368.6492      0.00000
  22502     368.6695      0.00000
  22503     368.6939      0.00000
  22504     368.7057      0.00000
  22505     368.7097      0.00000
  22506     368.7205      0.00000
  22507     368.7361      0.00000
  22508     368.7399      0.00000
  22509     368.7587      0.00000
  22510     368.7698      0.00000
  22511     368.7751      0.00000
  22512     368.7962      0.00000
  22513     368.8057      0.00000
  22514     368.8175      0.00000
  22515     368.8336      0.00000
  22516     368.8412      0.00000
  22517     368.8458      0.00000
  22518     368.8582      0.00000
  22519     368.8660      0.00000
  22520     368.8772      0.00000
  22521     368.8883      0.00000
  22522     368.8966      0.00000
  22523     368.9036      0.00000
  22524     368.9150      0.00000
  22525     368.9487      0.00000
  22526     368.9586      0.00000
  22527     368.9707      0.00000
  22528     368.9836      0.00000
  22529     369.0038      0.00000
  22530     369.0095      0.00000
  22531     369.0273      0.00000
  22532     369.0306      0.00000
  22533     369.0369      0.00000
  22534     369.0541      0.00000
  22535     369.0604      0.00000
  22536     369.0751      0.00000
  22537     369.0824      0.00000
  22538     369.0982      0.00000
  22539     369.1240      0.00000
  22540     369.1367      0.00000
  22541     369.1495      0.00000
  22542     369.1645      0.00000
  22543     369.1802      0.00000
  22544     369.1852      0.00000
  22545     369.2090      0.00000
  22546     369.2213      0.00000
  22547     369.2214      0.00000
  22548     369.2325      0.00000
  22549     369.2475      0.00000
  22550     369.2652      0.00000
  22551     369.2695      0.00000
  22552     369.2909      0.00000
  22553     369.2972      0.00000
  22554     369.3064      0.00000
  22555     369.3269      0.00000
  22556     369.3390      0.00000
  22557     369.3473      0.00000
  22558     369.3552      0.00000
  22559     369.3772      0.00000
  22560     369.3838      0.00000
  22561     369.3975      0.00000
  22562     369.4158      0.00000
  22563     369.4307      0.00000
  22564     369.4381      0.00000
  22565     369.4455      0.00000
  22566     369.4587      0.00000
  22567     369.4933      0.00000
  22568     369.5043      0.00000
  22569     369.5216      0.00000
  22570     369.5298      0.00000
  22571     369.5372      0.00000
  22572     369.5486      0.00000
  22573     369.5638      0.00000
  22574     369.5815      0.00000
  22575     369.5866      0.00000
  22576     369.5944      0.00000
  22577     369.6021      0.00000
  22578     369.6194      0.00000
  22579     369.6249      0.00000
  22580     369.6455      0.00000
  22581     369.6471      0.00000
  22582     369.6626      0.00000
  22583     369.6801      0.00000
  22584     369.6997      0.00000
  22585     369.7049      0.00000
  22586     369.7194      0.00000
  22587     369.7275      0.00000
  22588     369.7535      0.00000
  22589     369.7599      0.00000
  22590     369.7788      0.00000
  22591     369.7826      0.00000
  22592     369.7934      0.00000
  22593     369.8070      0.00000
  22594     369.8181      0.00000
  22595     369.8298      0.00000
  22596     369.8461      0.00000
  22597     369.8562      0.00000
  22598     369.8698      0.00000
  22599     369.8787      0.00000
  22600     369.8922      0.00000
  22601     369.9027      0.00000
  22602     369.9182      0.00000
  22603     369.9409      0.00000
  22604     369.9443      0.00000
  22605     369.9515      0.00000
  22606     369.9696      0.00000
  22607     369.9907      0.00000
  22608     369.9914      0.00000
  22609     370.0089      0.00000
  22610     370.0162      0.00000
  22611     370.0407      0.00000
  22612     370.0531      0.00000
  22613     370.0645      0.00000
  22614     370.0783      0.00000
  22615     370.0930      0.00000
  22616     370.1075      0.00000
  22617     370.1187      0.00000
  22618     370.1294      0.00000
  22619     370.1337      0.00000
  22620     370.1470      0.00000
  22621     370.1610      0.00000
  22622     370.1830      0.00000
  22623     370.1914      0.00000
  22624     370.2123      0.00000
  22625     370.2187      0.00000
  22626     370.2255      0.00000
  22627     370.2528      0.00000
  22628     370.2561      0.00000
  22629     370.2685      0.00000
  22630     370.2907      0.00000
  22631     370.2948      0.00000
  22632     370.2990      0.00000
  22633     370.3105      0.00000
  22634     370.3332      0.00000
  22635     370.3362      0.00000
  22636     370.3493      0.00000
  22637     370.3619      0.00000
  22638     370.3685      0.00000
  22639     370.3800      0.00000
  22640     370.3944      0.00000
  22641     370.4206      0.00000
  22642     370.4366      0.00000
  22643     370.4467      0.00000
  22644     370.4575      0.00000
  22645     370.4675      0.00000
  22646     370.4823      0.00000
  22647     370.4972      0.00000
  22648     370.5008      0.00000
  22649     370.5127      0.00000
  22650     370.5223      0.00000
  22651     370.5443      0.00000
  22652     370.5497      0.00000
  22653     370.5533      0.00000
  22654     370.5716      0.00000
  22655     370.5879      0.00000
  22656     370.5905      0.00000
  22657     370.6030      0.00000
  22658     370.6066      0.00000
  22659     370.6210      0.00000
  22660     370.6244      0.00000
  22661     370.6392      0.00000
  22662     370.6462      0.00000
  22663     370.6686      0.00000
  22664     370.6745      0.00000
  22665     370.6858      0.00000
  22666     370.7001      0.00000
  22667     370.7129      0.00000
  22668     370.7226      0.00000
  22669     370.7357      0.00000
  22670     370.7443      0.00000
  22671     370.7670      0.00000
  22672     370.7791      0.00000
  22673     370.7878      0.00000
  22674     370.7968      0.00000
  22675     370.7994      0.00000
  22676     370.8144      0.00000
  22677     370.8282      0.00000
  22678     370.8378      0.00000
  22679     370.8413      0.00000
  22680     370.8467      0.00000
  22681     370.8734      0.00000
  22682     370.8804      0.00000
  22683     370.8941      0.00000
  22684     370.9021      0.00000
  22685     370.9119      0.00000
  22686     370.9268      0.00000
  22687     370.9406      0.00000
  22688     370.9534      0.00000
  22689     370.9626      0.00000
  22690     370.9716      0.00000
  22691     370.9794      0.00000
  22692     370.9992      0.00000
  22693     371.0043      0.00000
  22694     371.0134      0.00000
  22695     371.0188      0.00000
  22696     371.0327      0.00000
  22697     371.0414      0.00000
  22698     371.0488      0.00000
  22699     371.0595      0.00000
  22700     371.0712      0.00000
  22701     371.0939      0.00000
  22702     371.1111      0.00000
  22703     371.1177      0.00000
  22704     371.1244      0.00000
  22705     371.1334      0.00000
  22706     371.1399      0.00000
  22707     371.1632      0.00000
  22708     371.1786      0.00000
  22709     371.1794      0.00000
  22710     371.1914      0.00000
  22711     371.1977      0.00000
  22712     371.2098      0.00000
  22713     371.2365      0.00000
  22714     371.2398      0.00000
  22715     371.2442      0.00000
  22716     371.2484      0.00000
  22717     371.2691      0.00000
  22718     371.2707      0.00000
  22719     371.2820      0.00000
  22720     371.3026      0.00000
  22721     371.3098      0.00000
  22722     371.3220      0.00000
  22723     371.3338      0.00000
  22724     371.3394      0.00000
  22725     371.3549      0.00000
  22726     371.3585      0.00000
  22727     371.3703      0.00000
  22728     371.3836      0.00000
  22729     371.3915      0.00000
  22730     371.3989      0.00000
  22731     371.4060      0.00000
  22732     371.4186      0.00000
  22733     371.4264      0.00000
  22734     371.4364      0.00000
  22735     371.4496      0.00000
  22736     371.4689      0.00000
  22737     371.4715      0.00000
  22738     371.4774      0.00000
  22739     371.4811      0.00000
  22740     371.4923      0.00000
  22741     371.5010      0.00000
  22742     371.5194      0.00000
  22743     371.5264      0.00000
  22744     371.5374      0.00000
  22745     371.5400      0.00000
  22746     371.5558      0.00000
  22747     371.5738      0.00000
  22748     371.5806      0.00000
  22749     371.5873      0.00000
  22750     371.6041      0.00000
  22751     371.6078      0.00000
  22752     371.6124      0.00000
  22753     371.6188      0.00000
  22754     371.6401      0.00000
  22755     371.6511      0.00000
  22756     371.6572      0.00000
  22757     371.6594      0.00000
  22758     371.6770      0.00000
  22759     371.6824      0.00000
  22760     371.7006      0.00000
  22761     371.7132      0.00000
  22762     371.7162      0.00000
  22763     371.7267      0.00000
  22764     371.7385      0.00000
  22765     371.7407      0.00000
  22766     371.7529      0.00000
  22767     371.7679      0.00000
  22768     371.7775      0.00000
  22769     371.7912      0.00000
  22770     371.7953      0.00000
  22771     371.7996      0.00000
  22772     371.8247      0.00000
  22773     371.8288      0.00000
  22774     371.8442      0.00000
  22775     371.8454      0.00000
  22776     371.8595      0.00000
  22777     371.8741      0.00000
  22778     371.8792      0.00000
  22779     371.8936      0.00000
  22780     371.9007      0.00000
  22781     371.9052      0.00000
  22782     371.9112      0.00000
  22783     371.9278      0.00000
  22784     371.9419      0.00000
  22785     371.9476      0.00000
  22786     371.9527      0.00000
  22787     371.9568      0.00000
  22788     371.9742      0.00000
  22789     371.9916      0.00000
  22790     371.9977      0.00000
  22791     372.0071      0.00000
  22792     372.0144      0.00000
  22793     372.0258      0.00000
  22794     372.0422      0.00000
  22795     372.0450      0.00000
  22796     372.0528      0.00000
  22797     372.0701      0.00000
  22798     372.0736      0.00000
  22799     372.0796      0.00000
  22800     372.0977      0.00000
  22801     372.1085      0.00000
  22802     372.1149      0.00000
  22803     372.1243      0.00000
  22804     372.1367      0.00000
  22805     372.1412      0.00000
  22806     372.1445      0.00000
  22807     372.1526      0.00000
  22808     372.1623      0.00000
  22809     372.1707      0.00000
  22810     372.1774      0.00000
  22811     372.2004      0.00000
  22812     372.2068      0.00000
  22813     372.2154      0.00000
  22814     372.2237      0.00000
  22815     372.2271      0.00000
  22816     372.2394      0.00000
  22817     372.2536      0.00000
  22818     372.2635      0.00000
  22819     372.2670      0.00000
  22820     372.2734      0.00000
  22821     372.2896      0.00000
  22822     372.2941      0.00000
  22823     372.3016      0.00000
  22824     372.3152      0.00000
  22825     372.3232      0.00000
  22826     372.3241      0.00000
  22827     372.3421      0.00000
  22828     372.3491      0.00000
  22829     372.3541      0.00000
  22830     372.3632      0.00000
  22831     372.3854      0.00000
  22832     372.4002      0.00000
  22833     372.4027      0.00000
  22834     372.4134      0.00000
  22835     372.4282      0.00000
  22836     372.4470      0.00000
  22837     372.4551      0.00000
  22838     372.4616      0.00000
  22839     372.4693      0.00000
  22840     372.4743      0.00000
  22841     372.4887      0.00000
  22842     372.4957      0.00000
  22843     372.5057      0.00000
  22844     372.5116      0.00000
  22845     372.5193      0.00000
  22846     372.5394      0.00000
  22847     372.5598      0.00000
  22848     372.5655      0.00000
  22849     372.5835      0.00000
  22850     372.5945      0.00000
  22851     372.6040      0.00000
  22852     372.6102      0.00000
  22853     372.6206      0.00000
  22854     372.6253      0.00000
  22855     372.6288      0.00000
  22856     372.6330      0.00000
  22857     372.6398      0.00000
  22858     372.6526      0.00000
  22859     372.6702      0.00000
  22860     372.6718      0.00000
  22861     372.6768      0.00000
  22862     372.6797      0.00000
  22863     372.6936      0.00000
  22864     372.7024      0.00000
  22865     372.7049      0.00000
  22866     372.7249      0.00000
  22867     372.7333      0.00000
  22868     372.7369      0.00000
  22869     372.7621      0.00000
  22870     372.7693      0.00000
  22871     372.7781      0.00000
  22872     372.7820      0.00000
  22873     372.7869      0.00000
  22874     372.8067      0.00000
  22875     372.8123      0.00000
  22876     372.8163      0.00000
  22877     372.8319      0.00000
  22878     372.8469      0.00000
  22879     372.8636      0.00000
  22880     372.8747      0.00000
  22881     372.8868      0.00000
  22882     372.8929      0.00000
  22883     372.8989      0.00000
  22884     372.9040      0.00000
  22885     372.9155      0.00000
  22886     372.9273      0.00000
  22887     372.9356      0.00000
  22888     372.9543      0.00000
  22889     372.9592      0.00000
  22890     372.9748      0.00000
  22891     372.9786      0.00000
  22892     372.9884      0.00000
  22893     372.9992      0.00000
  22894     373.0153      0.00000
  22895     373.0299      0.00000
  22896     373.0340      0.00000
  22897     373.0442      0.00000
  22898     373.0587      0.00000
  22899     373.0714      0.00000
  22900     373.0822      0.00000
  22901     373.1006      0.00000
  22902     373.1076      0.00000
  22903     373.1146      0.00000
  22904     373.1233      0.00000
  22905     373.1236      0.00000
  22906     373.1383      0.00000
  22907     373.1498      0.00000
  22908     373.1585      0.00000
  22909     373.1776      0.00000
  22910     373.1797      0.00000
  22911     373.1875      0.00000
  22912     373.2069      0.00000
  22913     373.2133      0.00000
  22914     373.2256      0.00000
  22915     373.2356      0.00000
  22916     373.2521      0.00000
  22917     373.2557      0.00000
  22918     373.2658      0.00000
  22919     373.2795      0.00000
  22920     373.2894      0.00000
  22921     373.2931      0.00000
  22922     373.3055      0.00000
  22923     373.3128      0.00000
  22924     373.3259      0.00000
  22925     373.3314      0.00000
  22926     373.3394      0.00000
  22927     373.3501      0.00000
  22928     373.3617      0.00000
  22929     373.3638      0.00000
  22930     373.3829      0.00000
  22931     373.3885      0.00000
  22932     373.3987      0.00000
  22933     373.4233      0.00000
  22934     373.4282      0.00000
  22935     373.4399      0.00000
  22936     373.4504      0.00000
  22937     373.4599      0.00000
  22938     373.4798      0.00000
  22939     373.4872      0.00000
  22940     373.5045      0.00000
  22941     373.5060      0.00000
  22942     373.5145      0.00000
  22943     373.5222      0.00000
  22944     373.5521      0.00000
  22945     373.5578      0.00000
  22946     373.5685      0.00000
  22947     373.5734      0.00000
  22948     373.5795      0.00000
  22949     373.5847      0.00000
  22950     373.5960      0.00000
  22951     373.6044      0.00000
  22952     373.6139      0.00000
  22953     373.6199      0.00000
  22954     373.6282      0.00000
  22955     373.6348      0.00000
  22956     373.6430      0.00000
  22957     373.6540      0.00000
  22958     373.6646      0.00000
  22959     373.6774      0.00000
  22960     373.6835      0.00000
  22961     373.6965      0.00000
  22962     373.7132      0.00000
  22963     373.7164      0.00000
  22964     373.7236      0.00000
  22965     373.7375      0.00000
  22966     373.7477      0.00000
  22967     373.7608      0.00000
  22968     373.7631      0.00000
  22969     373.7706      0.00000
  22970     373.7856      0.00000
  22971     373.7950      0.00000
  22972     373.8076      0.00000
  22973     373.8193      0.00000
  22974     373.8312      0.00000
  22975     373.8368      0.00000
  22976     373.8475      0.00000
  22977     373.8575      0.00000
  22978     373.8592      0.00000
  22979     373.8790      0.00000
  22980     373.8824      0.00000
  22981     373.8976      0.00000
  22982     373.9100      0.00000
  22983     373.9157      0.00000
  22984     373.9283      0.00000
  22985     373.9432      0.00000
  22986     373.9458      0.00000
  22987     373.9574      0.00000
  22988     373.9629      0.00000
  22989     373.9695      0.00000
  22990     373.9804      0.00000
  22991     373.9965      0.00000
  22992     374.0079      0.00000
  22993     374.0245      0.00000
  22994     374.0255      0.00000
  22995     374.0323      0.00000
  22996     374.0511      0.00000
  22997     374.0648      0.00000
  22998     374.0688      0.00000
  22999     374.0896      0.00000
  23000     374.0939      0.00000
  23001     374.1032      0.00000
  23002     374.1129      0.00000
  23003     374.1173      0.00000
  23004     374.1205      0.00000
  23005     374.1292      0.00000
  23006     374.1438      0.00000
  23007     374.1568      0.00000
  23008     374.1654      0.00000
  23009     374.1797      0.00000
  23010     374.1830      0.00000
  23011     374.1910      0.00000
  23012     374.2004      0.00000
  23013     374.2093      0.00000
  23014     374.2216      0.00000
  23015     374.2316      0.00000
  23016     374.2384      0.00000
  23017     374.2512      0.00000
  23018     374.2646      0.00000
  23019     374.2730      0.00000
  23020     374.2753      0.00000
  23021     374.2830      0.00000
  23022     374.2906      0.00000
  23023     374.3064      0.00000
  23024     374.3069      0.00000
  23025     374.3252      0.00000
  23026     374.3335      0.00000
  23027     374.3364      0.00000
  23028     374.3550      0.00000
  23029     374.3651      0.00000
  23030     374.3718      0.00000
  23031     374.3789      0.00000
  23032     374.3921      0.00000
  23033     374.4052      0.00000
  23034     374.4156      0.00000
  23035     374.4284      0.00000
  23036     374.4365      0.00000
  23037     374.4408      0.00000
  23038     374.4495      0.00000
  23039     374.4653      0.00000
  23040     374.4696      0.00000
  23041     374.4759      0.00000
  23042     374.4773      0.00000
  23043     374.5008      0.00000
  23044     374.5039      0.00000
  23045     374.5136      0.00000
  23046     374.5221      0.00000
  23047     374.5360      0.00000
  23048     374.5451      0.00000
  23049     374.5572      0.00000
  23050     374.5727      0.00000
  23051     374.5853      0.00000
  23052     374.5938      0.00000
  23053     374.5987      0.00000
  23054     374.6155      0.00000
  23055     374.6193      0.00000
  23056     374.6316      0.00000
  23057     374.6391      0.00000
  23058     374.6435      0.00000
  23059     374.6470      0.00000
  23060     374.6676      0.00000
  23061     374.6727      0.00000
  23062     374.6768      0.00000
  23063     374.6865      0.00000
  23064     374.6986      0.00000
  23065     374.7092      0.00000
  23066     374.7210      0.00000
  23067     374.7281      0.00000
  23068     374.7365      0.00000
  23069     374.7454      0.00000
  23070     374.7535      0.00000
  23071     374.7590      0.00000
  23072     374.7658      0.00000
  23073     374.7805      0.00000
  23074     374.7873      0.00000
  23075     374.7959      0.00000
  23076     374.8109      0.00000
  23077     374.8218      0.00000
  23078     374.8269      0.00000
  23079     374.8446      0.00000
  23080     374.8524      0.00000
  23081     374.8576      0.00000
  23082     374.8676      0.00000
  23083     374.8688      0.00000
  23084     374.8750      0.00000
  23085     374.8881      0.00000
  23086     374.8914      0.00000
  23087     374.8976      0.00000
  23088     374.9191      0.00000
  23089     374.9276      0.00000
  23090     374.9403      0.00000
  23091     374.9617      0.00000
  23092     374.9687      0.00000
  23093     374.9764      0.00000
  23094     374.9817      0.00000
  23095     374.9906      0.00000
  23096     375.0070      0.00000
  23097     375.0310      0.00000
  23098     375.0348      0.00000
  23099     375.0418      0.00000
  23100     375.0477      0.00000
  23101     375.0503      0.00000
  23102     375.0581      0.00000
  23103     375.0707      0.00000
  23104     375.0871      0.00000
  23105     375.1087      0.00000
  23106     375.1192      0.00000
  23107     375.1302      0.00000
  23108     375.1360      0.00000
  23109     375.1444      0.00000
  23110     375.1558      0.00000
  23111     375.1645      0.00000
  23112     375.1688      0.00000
  23113     375.1748      0.00000
  23114     375.1855      0.00000
  23115     375.1958      0.00000
  23116     375.2051      0.00000
  23117     375.2237      0.00000
  23118     375.2309      0.00000
  23119     375.2434      0.00000
  23120     375.2507      0.00000
  23121     375.2585      0.00000
  23122     375.2731      0.00000
  23123     375.2751      0.00000
  23124     375.2903      0.00000
  23125     375.3034      0.00000
  23126     375.3116      0.00000
  23127     375.3136      0.00000
  23128     375.3211      0.00000
  23129     375.3421      0.00000
  23130     375.3494      0.00000
  23131     375.3554      0.00000
  23132     375.3571      0.00000
  23133     375.3632      0.00000
  23134     375.3790      0.00000
  23135     375.3958      0.00000
  23136     375.4024      0.00000
  23137     375.4104      0.00000
  23138     375.4241      0.00000
  23139     375.4297      0.00000
  23140     375.4394      0.00000
  23141     375.4435      0.00000
  23142     375.4526      0.00000
  23143     375.4663      0.00000
  23144     375.4728      0.00000
  23145     375.4846      0.00000
  23146     375.4896      0.00000
  23147     375.4992      0.00000
  23148     375.5081      0.00000
  23149     375.5174      0.00000
  23150     375.5432      0.00000
  23151     375.5524      0.00000
  23152     375.5636      0.00000
  23153     375.5747      0.00000
  23154     375.5792      0.00000
  23155     375.5875      0.00000
  23156     375.5974      0.00000
  23157     375.6033      0.00000
  23158     375.6180      0.00000
  23159     375.6235      0.00000
  23160     375.6303      0.00000
  23161     375.6460      0.00000
  23162     375.6589      0.00000
  23163     375.6666      0.00000
  23164     375.6820      0.00000
  23165     375.6893      0.00000
  23166     375.6956      0.00000
  23167     375.7087      0.00000
  23168     375.7163      0.00000
  23169     375.7253      0.00000
  23170     375.7446      0.00000
  23171     375.7487      0.00000
  23172     375.7556      0.00000
  23173     375.7681      0.00000
  23174     375.7735      0.00000
  23175     375.7884      0.00000
  23176     375.7932      0.00000
  23177     375.8067      0.00000
  23178     375.8167      0.00000
  23179     375.8282      0.00000
  23180     375.8305      0.00000
  23181     375.8422      0.00000
  23182     375.8599      0.00000
  23183     375.8624      0.00000
  23184     375.8786      0.00000
  23185     375.8889      0.00000
  23186     375.9030      0.00000
  23187     375.9097      0.00000
  23188     375.9141      0.00000
  23189     375.9320      0.00000
  23190     375.9350      0.00000
  23191     375.9548      0.00000
  23192     375.9608      0.00000
  23193     375.9660      0.00000
  23194     375.9698      0.00000
  23195     375.9762      0.00000
  23196     375.9860      0.00000
  23197     375.9903      0.00000
  23198     376.0012      0.00000
  23199     376.0154      0.00000
  23200     376.0199      0.00000
  23201     376.0366      0.00000
  23202     376.0429      0.00000
  23203     376.0608      0.00000
  23204     376.0725      0.00000
  23205     376.0763      0.00000
  23206     376.1043      0.00000
  23207     376.1125      0.00000
  23208     376.1189      0.00000
  23209     376.1231      0.00000
  23210     376.1270      0.00000
  23211     376.1325      0.00000
  23212     376.1489      0.00000
  23213     376.1557      0.00000
  23214     376.1638      0.00000
  23215     376.1790      0.00000
  23216     376.1837      0.00000
  23217     376.1942      0.00000
  23218     376.2107      0.00000
  23219     376.2176      0.00000
  23220     376.2223      0.00000
  23221     376.2270      0.00000
  23222     376.2380      0.00000
  23223     376.2487      0.00000
  23224     376.2521      0.00000
  23225     376.2618      0.00000
  23226     376.2694      0.00000
  23227     376.2808      0.00000
  23228     376.2975      0.00000
  23229     376.3038      0.00000
  23230     376.3093      0.00000
  23231     376.3187      0.00000
  23232     376.3260      0.00000
  23233     376.3422      0.00000
  23234     376.3471      0.00000
  23235     376.3619      0.00000
  23236     376.3729      0.00000
  23237     376.3761      0.00000
  23238     376.3821      0.00000
  23239     376.3888      0.00000
  23240     376.4130      0.00000
  23241     376.4244      0.00000
  23242     376.4323      0.00000
  23243     376.4394      0.00000
  23244     376.4560      0.00000
  23245     376.4705      0.00000
  23246     376.4750      0.00000
  23247     376.4831      0.00000
  23248     376.4886      0.00000
  23249     376.4928      0.00000
  23250     376.5142      0.00000
  23251     376.5192      0.00000
  23252     376.5369      0.00000
  23253     376.5468      0.00000
  23254     376.5519      0.00000
  23255     376.5569      0.00000
  23256     376.5652      0.00000
  23257     376.5841      0.00000
  23258     376.5905      0.00000
  23259     376.6011      0.00000
  23260     376.6185      0.00000
  23261     376.6256      0.00000
  23262     376.6306      0.00000
  23263     376.6396      0.00000
  23264     376.6538      0.00000
  23265     376.6567      0.00000
  23266     376.6621      0.00000
  23267     376.6646      0.00000
  23268     376.6846      0.00000
  23269     376.6893      0.00000
  23270     376.7077      0.00000
  23271     376.7166      0.00000
  23272     376.7204      0.00000
  23273     376.7303      0.00000
  23274     376.7516      0.00000
  23275     376.7544      0.00000
  23276     376.7622      0.00000
  23277     376.7714      0.00000
  23278     376.7813      0.00000
  23279     376.7897      0.00000
  23280     376.7949      0.00000
  23281     376.8044      0.00000
  23282     376.8248      0.00000
  23283     376.8297      0.00000
  23284     376.8359      0.00000
  23285     376.8427      0.00000
  23286     376.8577      0.00000
  23287     376.8724      0.00000
  23288     376.8792      0.00000
  23289     376.8831      0.00000
  23290     376.8964      0.00000
  23291     376.9077      0.00000
  23292     376.9283      0.00000
  23293     376.9375      0.00000
  23294     376.9480      0.00000
  23295     376.9536      0.00000
  23296     376.9645      0.00000
  23297     376.9715      0.00000
  23298     376.9811      0.00000
  23299     377.0141      0.00000
  23300     377.0194      0.00000
  23301     377.0267      0.00000
  23302     377.0297      0.00000
  23303     377.0352      0.00000
  23304     377.0593      0.00000
  23305     377.0673      0.00000
  23306     377.0687      0.00000
  23307     377.0820      0.00000
  23308     377.0873      0.00000
  23309     377.0979      0.00000
  23310     377.1034      0.00000
  23311     377.1156      0.00000
  23312     377.1178      0.00000
  23313     377.1357      0.00000
  23314     377.1381      0.00000
  23315     377.1470      0.00000
  23316     377.1547      0.00000
  23317     377.1715      0.00000
  23318     377.1804      0.00000
  23319     377.1850      0.00000
  23320     377.1924      0.00000
  23321     377.2249      0.00000
  23322     377.2347      0.00000
  23323     377.2382      0.00000
  23324     377.2544      0.00000
  23325     377.2608      0.00000
  23326     377.2652      0.00000
  23327     377.2732      0.00000
  23328     377.2953      0.00000
  23329     377.3065      0.00000
  23330     377.3110      0.00000
  23331     377.3203      0.00000
  23332     377.3247      0.00000
  23333     377.3332      0.00000
  23334     377.3389      0.00000
  23335     377.3560      0.00000
  23336     377.3667      0.00000
  23337     377.3767      0.00000
  23338     377.3888      0.00000
  23339     377.3927      0.00000
  23340     377.4027      0.00000
  23341     377.4155      0.00000
  23342     377.4196      0.00000
  23343     377.4302      0.00000
  23344     377.4397      0.00000
  23345     377.4505      0.00000
  23346     377.4579      0.00000
  23347     377.4634      0.00000
  23348     377.4811      0.00000
  23349     377.4956      0.00000
  23350     377.4994      0.00000
  23351     377.5149      0.00000
  23352     377.5210      0.00000
  23353     377.5348      0.00000
  23354     377.5417      0.00000
  23355     377.5569      0.00000
  23356     377.5668      0.00000
  23357     377.5726      0.00000
  23358     377.5787      0.00000
  23359     377.5876      0.00000
  23360     377.5971      0.00000
  23361     377.6007      0.00000
  23362     377.6138      0.00000
  23363     377.6195      0.00000
  23364     377.6270      0.00000
  23365     377.6359      0.00000
  23366     377.6447      0.00000
  23367     377.6604      0.00000
  23368     377.6694      0.00000
  23369     377.6740      0.00000
  23370     377.6965      0.00000
  23371     377.7004      0.00000
  23372     377.7115      0.00000
  23373     377.7178      0.00000
  23374     377.7257      0.00000
  23375     377.7332      0.00000
  23376     377.7490      0.00000
  23377     377.7523      0.00000
  23378     377.7641      0.00000
  23379     377.7672      0.00000
  23380     377.7747      0.00000
  23381     377.7904      0.00000
  23382     377.7969      0.00000
  23383     377.8018      0.00000
  23384     377.8155      0.00000
  23385     377.8242      0.00000
  23386     377.8277      0.00000
  23387     377.8446      0.00000
  23388     377.8518      0.00000
  23389     377.8702      0.00000
  23390     377.8809      0.00000
  23391     377.8905      0.00000
  23392     377.8950      0.00000
  23393     377.8962      0.00000
  23394     377.9138      0.00000
  23395     377.9180      0.00000
  23396     377.9278      0.00000
  23397     377.9329      0.00000
  23398     377.9520      0.00000
  23399     377.9691      0.00000
  23400     377.9744      0.00000
  23401     377.9758      0.00000
  23402     377.9854      0.00000
  23403     378.0013      0.00000
  23404     378.0146      0.00000
  23405     378.0270      0.00000
  23406     378.0377      0.00000
  23407     378.0396      0.00000
  23408     378.0573      0.00000
  23409     378.0595      0.00000
  23410     378.0658      0.00000
  23411     378.0741      0.00000
  23412     378.0848      0.00000
  23413     378.0995      0.00000
  23414     378.1125      0.00000
  23415     378.1184      0.00000
  23416     378.1203      0.00000
  23417     378.1298      0.00000
  23418     378.1363      0.00000
  23419     378.1463      0.00000
  23420     378.1601      0.00000
  23421     378.1765      0.00000
  23422     378.1905      0.00000
  23423     378.2027      0.00000
  23424     378.2166      0.00000
  23425     378.2230      0.00000
  23426     378.2239      0.00000
  23427     378.2285      0.00000
  23428     378.2384      0.00000
  23429     378.2461      0.00000
  23430     378.2611      0.00000
  23431     378.2638      0.00000
  23432     378.2697      0.00000
  23433     378.2853      0.00000
  23434     378.2947      0.00000
  23435     378.2990      0.00000
  23436     378.3191      0.00000
  23437     378.3332      0.00000
  23438     378.3392      0.00000
  23439     378.3416      0.00000
  23440     378.3537      0.00000
  23441     378.3695      0.00000
  23442     378.3717      0.00000
  23443     378.3806      0.00000
  23444     378.3879      0.00000
  23445     378.4007      0.00000
  23446     378.4098      0.00000
  23447     378.4159      0.00000
  23448     378.4236      0.00000
  23449     378.4394      0.00000
  23450     378.4430      0.00000
  23451     378.4672      0.00000
  23452     378.4826      0.00000
  23453     378.4844      0.00000
  23454     378.4970      0.00000
  23455     378.5055      0.00000
  23456     378.5110      0.00000
  23457     378.5181      0.00000
  23458     378.5231      0.00000
  23459     378.5292      0.00000
  23460     378.5389      0.00000
  23461     378.5426      0.00000
  23462     378.5560      0.00000
  23463     378.5717      0.00000
  23464     378.5778      0.00000
  23465     378.5832      0.00000
  23466     378.5884      0.00000
  23467     378.6038      0.00000
  23468     378.6143      0.00000
  23469     378.6197      0.00000
  23470     378.6324      0.00000
  23471     378.6381      0.00000
  23472     378.6462      0.00000
  23473     378.6482      0.00000
  23474     378.6553      0.00000
  23475     378.6676      0.00000
  23476     378.6821      0.00000
  23477     378.6979      0.00000
  23478     378.7122      0.00000
  23479     378.7169      0.00000
  23480     378.7260      0.00000
  23481     378.7389      0.00000
  23482     378.7465      0.00000
  23483     378.7515      0.00000
  23484     378.7625      0.00000
  23485     378.7699      0.00000
  23486     378.7778      0.00000
  23487     378.7940      0.00000
  23488     378.8028      0.00000
  23489     378.8144      0.00000
  23490     378.8268      0.00000
  23491     378.8304      0.00000
  23492     378.8541      0.00000
  23493     378.8546      0.00000
  23494     378.8645      0.00000
  23495     378.8825      0.00000
  23496     378.8903      0.00000
  23497     378.9054      0.00000
  23498     378.9117      0.00000
  23499     378.9278      0.00000
  23500     378.9345      0.00000
  23501     378.9442      0.00000
  23502     378.9558      0.00000
  23503     378.9680      0.00000
  23504     378.9753      0.00000
  23505     378.9853      0.00000
  23506     378.9886      0.00000
  23507     378.9994      0.00000
  23508     379.0136      0.00000
  23509     379.0174      0.00000
  23510     379.0315      0.00000
  23511     379.0398      0.00000
  23512     379.0436      0.00000
  23513     379.0487      0.00000
  23514     379.0616      0.00000
  23515     379.0764      0.00000
  23516     379.0801      0.00000
  23517     379.0863      0.00000
  23518     379.0983      0.00000
  23519     379.1080      0.00000
  23520     379.1161      0.00000
  23521     379.1243      0.00000
  23522     379.1550      0.00000
  23523     379.1649      0.00000
  23524     379.1710      0.00000
  23525     379.1837      0.00000
  23526     379.1925      0.00000
  23527     379.2002      0.00000
  23528     379.2090      0.00000
  23529     379.2229      0.00000
  23530     379.2304      0.00000
  23531     379.2389      0.00000
  23532     379.2508      0.00000
  23533     379.2570      0.00000
  23534     379.2618      0.00000
  23535     379.2786      0.00000
  23536     379.2855      0.00000
  23537     379.2983      0.00000
  23538     379.3067      0.00000
  23539     379.3160      0.00000
  23540     379.3258      0.00000
  23541     379.3342      0.00000
  23542     379.3500      0.00000
  23543     379.3528      0.00000
  23544     379.3614      0.00000
  23545     379.3678      0.00000
  23546     379.3741      0.00000
  23547     379.3853      0.00000
  23548     379.4053      0.00000
  23549     379.4112      0.00000
  23550     379.4269      0.00000
  23551     379.4355      0.00000
  23552     379.4439      0.00000
  23553     379.4483      0.00000
  23554     379.4678      0.00000
  23555     379.4754      0.00000
  23556     379.4798      0.00000
  23557     379.4878      0.00000
  23558     379.5018      0.00000
  23559     379.5020      0.00000
  23560     379.5148      0.00000
  23561     379.5236      0.00000
  23562     379.5350      0.00000
  23563     379.5416      0.00000
  23564     379.5511      0.00000
  23565     379.5696      0.00000
  23566     379.5730      0.00000
  23567     379.5840      0.00000
  23568     379.5899      0.00000
  23569     379.5946      0.00000
  23570     379.6265      0.00000
  23571     379.6280      0.00000
  23572     379.6400      0.00000
  23573     379.6479      0.00000
  23574     379.6542      0.00000
  23575     379.6666      0.00000
  23576     379.6748      0.00000
  23577     379.7000      0.00000
  23578     379.7047      0.00000
  23579     379.7196      0.00000
  23580     379.7307      0.00000
  23581     379.7380      0.00000
  23582     379.7504      0.00000
  23583     379.7585      0.00000
  23584     379.7773      0.00000
  23585     379.7784      0.00000
  23586     379.7944      0.00000
  23587     379.8108      0.00000
  23588     379.8160      0.00000
  23589     379.8303      0.00000
  23590     379.8386      0.00000
  23591     379.8421      0.00000
  23592     379.8510      0.00000
  23593     379.8716      0.00000
  23594     379.8866      0.00000
  23595     379.8936      0.00000
  23596     379.9055      0.00000
  23597     379.9159      0.00000
  23598     379.9277      0.00000
  23599     379.9426      0.00000
  23600     379.9533      0.00000
  23601     379.9559      0.00000
  23602     379.9696      0.00000
  23603     379.9777      0.00000
  23604     379.9823      0.00000
  23605     379.9997      0.00000
  23606     380.0032      0.00000
  23607     380.0116      0.00000
  23608     380.0157      0.00000
  23609     380.0242      0.00000
  23610     380.0328      0.00000
  23611     380.0579      0.00000
  23612     380.0649      0.00000
  23613     380.0732      0.00000
  23614     380.0810      0.00000
  23615     380.0868      0.00000
  23616     380.1094      0.00000
  23617     380.1215      0.00000
  23618     380.1275      0.00000
  23619     380.1316      0.00000
  23620     380.1407      0.00000
  23621     380.1503      0.00000
  23622     380.1668      0.00000
  23623     380.1862      0.00000
  23624     380.1956      0.00000
  23625     380.2089      0.00000
  23626     380.2115      0.00000
  23627     380.2192      0.00000
  23628     380.2292      0.00000
  23629     380.2426      0.00000
  23630     380.2478      0.00000
  23631     380.2511      0.00000
  23632     380.2619      0.00000
  23633     380.2683      0.00000
  23634     380.2753      0.00000
  23635     380.2893      0.00000
  23636     380.2992      0.00000
  23637     380.3048      0.00000
  23638     380.3175      0.00000
  23639     380.3246      0.00000
  23640     380.3472      0.00000
  23641     380.3544      0.00000
  23642     380.3652      0.00000
  23643     380.3724      0.00000
  23644     380.3837      0.00000
  23645     380.3910      0.00000
  23646     380.4020      0.00000
  23647     380.4173      0.00000
  23648     380.4199      0.00000
  23649     380.4308      0.00000
  23650     380.4456      0.00000
  23651     380.4586      0.00000
  23652     380.4624      0.00000
  23653     380.4708      0.00000
  23654     380.4771      0.00000
  23655     380.4814      0.00000
  23656     380.4890      0.00000
  23657     380.5032      0.00000
  23658     380.5256      0.00000
  23659     380.5315      0.00000
  23660     380.5342      0.00000
  23661     380.5408      0.00000
  23662     380.5520      0.00000
  23663     380.5657      0.00000
  23664     380.5746      0.00000
  23665     380.5869      0.00000
  23666     380.5945      0.00000
  23667     380.6151      0.00000
  23668     380.6242      0.00000
  23669     380.6315      0.00000
  23670     380.6404      0.00000
  23671     380.6578      0.00000
  23672     380.6592      0.00000
  23673     380.6729      0.00000
  23674     380.6839      0.00000
  23675     380.6925      0.00000
  23676     380.7031      0.00000
  23677     380.7123      0.00000
  23678     380.7252      0.00000
  23679     380.7309      0.00000
  23680     380.7469      0.00000
  23681     380.7561      0.00000
  23682     380.7681      0.00000
  23683     380.7726      0.00000
  23684     380.7765      0.00000
  23685     380.7827      0.00000
  23686     380.8036      0.00000
  23687     380.8042      0.00000
  23688     380.8088      0.00000
  23689     380.8233      0.00000
  23690     380.8298      0.00000
  23691     380.8331      0.00000
  23692     380.8441      0.00000
  23693     380.8507      0.00000
  23694     380.8545      0.00000
  23695     380.8676      0.00000
  23696     380.8811      0.00000
  23697     380.8909      0.00000
  23698     380.9017      0.00000
  23699     380.9061      0.00000
  23700     380.9211      0.00000
  23701     380.9292      0.00000
  23702     380.9437      0.00000
  23703     380.9470      0.00000
  23704     380.9627      0.00000
  23705     380.9721      0.00000
  23706     380.9789      0.00000
  23707     380.9901      0.00000
  23708     380.9920      0.00000
  23709     381.0053      0.00000
  23710     381.0158      0.00000
  23711     381.0297      0.00000
  23712     381.0380      0.00000
  23713     381.0519      0.00000
  23714     381.0636      0.00000
  23715     381.0777      0.00000
  23716     381.0892      0.00000
  23717     381.0940      0.00000
  23718     381.1014      0.00000
  23719     381.1045      0.00000
  23720     381.1114      0.00000
  23721     381.1217      0.00000
  23722     381.1423      0.00000
  23723     381.1549      0.00000
  23724     381.1663      0.00000
  23725     381.1709      0.00000
  23726     381.1785      0.00000
  23727     381.1939      0.00000
  23728     381.1967      0.00000
  23729     381.2164      0.00000
  23730     381.2225      0.00000
  23731     381.2347      0.00000
  23732     381.2410      0.00000
  23733     381.2633      0.00000
  23734     381.2721      0.00000
  23735     381.2823      0.00000
  23736     381.2872      0.00000
  23737     381.3013      0.00000
  23738     381.3089      0.00000
  23739     381.3113      0.00000
  23740     381.3270      0.00000
  23741     381.3407      0.00000
  23742     381.3481      0.00000
  23743     381.3589      0.00000
  23744     381.3685      0.00000
  23745     381.3764      0.00000
  23746     381.3875      0.00000
  23747     381.3964      0.00000
  23748     381.4036      0.00000
  23749     381.4112      0.00000
  23750     381.4234      0.00000
  23751     381.4332      0.00000
  23752     381.4384      0.00000
  23753     381.4502      0.00000
  23754     381.4555      0.00000
  23755     381.4744      0.00000
  23756     381.4887      0.00000
  23757     381.4981      0.00000
  23758     381.5029      0.00000
  23759     381.5121      0.00000
  23760     381.5224      0.00000
  23761     381.5358      0.00000
  23762     381.5441      0.00000
  23763     381.5558      0.00000
  23764     381.5586      0.00000
  23765     381.5702      0.00000
  23766     381.5773      0.00000
  23767     381.5783      0.00000
  23768     381.5862      0.00000
  23769     381.5935      0.00000
  23770     381.6097      0.00000
  23771     381.6186      0.00000
  23772     381.6259      0.00000
  23773     381.6341      0.00000
  23774     381.6416      0.00000
  23775     381.6535      0.00000
  23776     381.6629      0.00000
  23777     381.6740      0.00000
  23778     381.6857      0.00000
  23779     381.6899      0.00000
  23780     381.6969      0.00000
  23781     381.7027      0.00000
  23782     381.7123      0.00000
  23783     381.7281      0.00000
  23784     381.7336      0.00000
  23785     381.7414      0.00000
  23786     381.7538      0.00000
  23787     381.7602      0.00000
  23788     381.7710      0.00000
  23789     381.7747      0.00000
  23790     381.7832      0.00000
  23791     381.7980      0.00000
  23792     381.8079      0.00000
  23793     381.8120      0.00000
  23794     381.8245      0.00000
  23795     381.8387      0.00000
  23796     381.8468      0.00000
  23797     381.8576      0.00000
  23798     381.8721      0.00000
  23799     381.8752      0.00000
  23800     381.8797      0.00000
  23801     381.9012      0.00000
  23802     381.9078      0.00000
  23803     381.9161      0.00000
  23804     381.9176      0.00000
  23805     381.9302      0.00000
  23806     381.9457      0.00000
  23807     381.9616      0.00000
  23808     381.9651      0.00000
  23809     381.9768      0.00000
  23810     381.9911      0.00000
  23811     381.9964      0.00000
  23812     382.0069      0.00000
  23813     382.0111      0.00000
  23814     382.0252      0.00000
  23815     382.0381      0.00000
  23816     382.0447      0.00000
  23817     382.0592      0.00000
  23818     382.0665      0.00000
  23819     382.0757      0.00000
  23820     382.0855      0.00000
  23821     382.0918      0.00000
  23822     382.1099      0.00000
  23823     382.1159      0.00000
  23824     382.1246      0.00000
  23825     382.1346      0.00000
  23826     382.1479      0.00000
  23827     382.1521      0.00000
  23828     382.1633      0.00000
  23829     382.1654      0.00000
  23830     382.1808      0.00000
  23831     382.1851      0.00000
  23832     382.1977      0.00000
  23833     382.2061      0.00000
  23834     382.2088      0.00000
  23835     382.2249      0.00000
  23836     382.2438      0.00000
  23837     382.2478      0.00000
  23838     382.2573      0.00000
  23839     382.2674      0.00000
  23840     382.2755      0.00000
  23841     382.2910      0.00000
  23842     382.2921      0.00000
  23843     382.2969      0.00000
  23844     382.3184      0.00000
  23845     382.3203      0.00000
  23846     382.3351      0.00000
  23847     382.3430      0.00000
  23848     382.3504      0.00000
  23849     382.3594      0.00000
  23850     382.3783      0.00000
  23851     382.3990      0.00000
  23852     382.4062      0.00000
  23853     382.4176      0.00000
  23854     382.4250      0.00000
  23855     382.4402      0.00000
  23856     382.4498      0.00000
  23857     382.4579      0.00000
  23858     382.4642      0.00000
  23859     382.4760      0.00000
  23860     382.4814      0.00000
  23861     382.4874      0.00000
  23862     382.4989      0.00000
  23863     382.5076      0.00000
  23864     382.5166      0.00000
  23865     382.5217      0.00000
  23866     382.5345      0.00000
  23867     382.5558      0.00000
  23868     382.5622      0.00000
  23869     382.5746      0.00000
  23870     382.5998      0.00000
  23871     382.6168      0.00000
  23872     382.6244      0.00000
  23873     382.6299      0.00000
  23874     382.6412      0.00000
  23875     382.6491      0.00000
  23876     382.6627      0.00000
  23877     382.6748      0.00000
  23878     382.6996      0.00000
  23879     382.7058      0.00000
  23880     382.7173      0.00000
  23881     382.7287      0.00000
  23882     382.7377      0.00000
  23883     382.7475      0.00000
  23884     382.7604      0.00000
  23885     382.7652      0.00000
  23886     382.7777      0.00000
  23887     382.7833      0.00000
  23888     382.8007      0.00000
  23889     382.8187      0.00000
  23890     382.8241      0.00000
  23891     382.8419      0.00000
  23892     382.8457      0.00000
  23893     382.8508      0.00000
  23894     382.8769      0.00000
  23895     382.8867      0.00000
  23896     382.8917      0.00000
  23897     382.9017      0.00000
  23898     382.9088      0.00000
  23899     382.9146      0.00000
  23900     382.9226      0.00000
  23901     382.9519      0.00000
  23902     382.9671      0.00000
  23903     382.9864      0.00000
  23904     382.9886      0.00000
  23905     382.9947      0.00000
  23906     383.0083      0.00000
  23907     383.0102      0.00000
  23908     383.0281      0.00000
  23909     383.0315      0.00000
  23910     383.0522      0.00000
  23911     383.0588      0.00000
  23912     383.0668      0.00000
  23913     383.0916      0.00000
  23914     383.1012      0.00000
  23915     383.1166      0.00000
  23916     383.1356      0.00000
  23917     383.1464      0.00000
  23918     383.1492      0.00000
  23919     383.1571      0.00000
  23920     383.1652      0.00000
  23921     383.1853      0.00000
  23922     383.1915      0.00000
  23923     383.1982      0.00000
  23924     383.2106      0.00000
  23925     383.2189      0.00000
  23926     383.2351      0.00000
  23927     383.2422      0.00000
  23928     383.2542      0.00000
  23929     383.2677      0.00000
  23930     383.2777      0.00000
  23931     383.2886      0.00000
  23932     383.2987      0.00000
  23933     383.3022      0.00000
  23934     383.3215      0.00000
  23935     383.3404      0.00000
  23936     383.3479      0.00000
  23937     383.3510      0.00000
  23938     383.3671      0.00000
  23939     383.3823      0.00000
  23940     383.3951      0.00000
  23941     383.4030      0.00000
  23942     383.4154      0.00000
  23943     383.4286      0.00000
  23944     383.4412      0.00000
  23945     383.4464      0.00000
  23946     383.4598      0.00000
  23947     383.4686      0.00000
  23948     383.4806      0.00000
  23949     383.4889      0.00000
  23950     383.5105      0.00000
  23951     383.5205      0.00000
  23952     383.5268      0.00000
  23953     383.5396      0.00000
  23954     383.5629      0.00000
  23955     383.5717      0.00000
  23956     383.5848      0.00000
  23957     383.5877      0.00000
  23958     383.6038      0.00000
  23959     383.6090      0.00000
  23960     383.6202      0.00000
  23961     383.6299      0.00000
  23962     383.6330      0.00000
  23963     383.6449      0.00000
  23964     383.6579      0.00000
  23965     383.6613      0.00000
  23966     383.6826      0.00000
  23967     383.6869      0.00000
  23968     383.6981      0.00000
  23969     383.7022      0.00000
  23970     383.7179      0.00000
  23971     383.7304      0.00000
  23972     383.7451      0.00000
  23973     383.7575      0.00000
  23974     383.7696      0.00000
  23975     383.7738      0.00000
  23976     383.7956      0.00000
  23977     383.8059      0.00000
  23978     383.8213      0.00000
  23979     383.8309      0.00000
  23980     383.8370      0.00000
  23981     383.8494      0.00000
  23982     383.8507      0.00000
  23983     383.8777      0.00000
  23984     383.8780      0.00000
  23985     383.8983      0.00000
  23986     383.9079      0.00000
  23987     383.9128      0.00000
  23988     383.9254      0.00000
  23989     383.9427      0.00000
  23990     383.9457      0.00000
  23991     383.9539      0.00000
  23992     383.9711      0.00000
  23993     383.9793      0.00000
  23994     383.9925      0.00000
  23995     383.9977      0.00000
  23996     384.0222      0.00000
  23997     384.0331      0.00000
  23998     384.0416      0.00000
  23999     384.0537      0.00000
  24000     384.0690      0.00000
  24001     384.0781      0.00000
  24002     384.0878      0.00000
  24003     384.0946      0.00000
  24004     384.1040      0.00000
  24005     384.1200      0.00000
  24006     384.1258      0.00000
  24007     384.1379      0.00000
  24008     384.1507      0.00000
  24009     384.1579      0.00000
  24010     384.1617      0.00000
  24011     384.1821      0.00000
  24012     384.1950      0.00000
  24013     384.2138      0.00000
  24014     384.2270      0.00000
  24015     384.2305      0.00000
  24016     384.2415      0.00000
  24017     384.2559      0.00000
  24018     384.2826      0.00000
  24019     384.2950      0.00000
  24020     384.2964      0.00000
  24021     384.3145      0.00000
  24022     384.3191      0.00000
  24023     384.3282      0.00000
  24024     384.3529      0.00000
  24025     384.3570      0.00000
  24026     384.3653      0.00000
  24027     384.3686      0.00000
  24028     384.3883      0.00000
  24029     384.4017      0.00000
  24030     384.4079      0.00000
  24031     384.4204      0.00000
  24032     384.4236      0.00000
  24033     384.4283      0.00000
  24034     384.4403      0.00000
  24035     384.4540      0.00000
  24036     384.4630      0.00000
  24037     384.4718      0.00000
  24038     384.4870      0.00000
  24039     384.4915      0.00000
  24040     384.5046      0.00000
  24041     384.5088      0.00000
  24042     384.5165      0.00000
  24043     384.5363      0.00000
  24044     384.5490      0.00000
  24045     384.5532      0.00000
  24046     384.5684      0.00000
  24047     384.5753      0.00000
  24048     384.5821      0.00000
  24049     384.5945      0.00000
  24050     384.6093      0.00000
  24051     384.6121      0.00000
  24052     384.6285      0.00000
  24053     384.6408      0.00000
  24054     384.6521      0.00000
  24055     384.6605      0.00000
  24056     384.6759      0.00000
  24057     384.6883      0.00000
  24058     384.7018      0.00000
  24059     384.7127      0.00000
  24060     384.7191      0.00000
  24061     384.7353      0.00000
  24062     384.7381      0.00000
  24063     384.7495      0.00000
  24064     384.7592      0.00000
  24065     384.7669      0.00000
  24066     384.7739      0.00000
  24067     384.7990      0.00000
  24068     384.8076      0.00000
  24069     384.8127      0.00000
  24070     384.8148      0.00000
  24071     384.8180      0.00000
  24072     384.8241      0.00000
  24073     384.8458      0.00000
  24074     384.8465      0.00000
  24075     384.8760      0.00000
  24076     384.8824      0.00000
  24077     384.8989      0.00000
  24078     384.9062      0.00000
  24079     384.9246      0.00000
  24080     384.9411      0.00000
  24081     384.9511      0.00000
  24082     384.9657      0.00000
  24083     384.9718      0.00000
  24084     384.9803      0.00000
  24085     384.9928      0.00000
  24086     384.9975      0.00000
  24087     385.0019      0.00000
  24088     385.0323      0.00000
  24089     385.0491      0.00000
  24090     385.0583      0.00000
  24091     385.0737      0.00000
  24092     385.0785      0.00000
  24093     385.0885      0.00000
  24094     385.0974      0.00000
  24095     385.1027      0.00000
  24096     385.1168      0.00000
  24097     385.1222      0.00000
  24098     385.1308      0.00000
  24099     385.1525      0.00000
  24100     385.1632      0.00000
  24101     385.1883      0.00000
  24102     385.1970      0.00000
  24103     385.2123      0.00000
  24104     385.2177      0.00000
  24105     385.2291      0.00000
  24106     385.2387      0.00000
  24107     385.2559      0.00000
  24108     385.2599      0.00000
  24109     385.2667      0.00000
  24110     385.2809      0.00000
  24111     385.2834      0.00000
  24112     385.3058      0.00000
  24113     385.3106      0.00000
  24114     385.3254      0.00000
  24115     385.3337      0.00000
  24116     385.3423      0.00000
  24117     385.3559      0.00000
  24118     385.3623      0.00000
  24119     385.3730      0.00000
  24120     385.3811      0.00000
  24121     385.3955      0.00000
  24122     385.4013      0.00000
  24123     385.4133      0.00000
  24124     385.4275      0.00000
  24125     385.4315      0.00000
  24126     385.4388      0.00000
  24127     385.4449      0.00000
  24128     385.4601      0.00000
  24129     385.4799      0.00000
  24130     385.4855      0.00000
  24131     385.4992      0.00000
  24132     385.5155      0.00000
  24133     385.5258      0.00000
  24134     385.5287      0.00000
  24135     385.5444      0.00000
  24136     385.5564      0.00000
  24137     385.5679      0.00000
  24138     385.5779      0.00000
  24139     385.5840      0.00000
  24140     385.5993      0.00000
  24141     385.6081      0.00000
  24142     385.6191      0.00000
  24143     385.6242      0.00000
  24144     385.6330      0.00000
  24145     385.6390      0.00000
  24146     385.6499      0.00000
  24147     385.6713      0.00000
  24148     385.6737      0.00000
  24149     385.6861      0.00000
  24150     385.6952      0.00000
  24151     385.7065      0.00000
  24152     385.7213      0.00000
  24153     385.7355      0.00000
  24154     385.7433      0.00000
  24155     385.7502      0.00000
  24156     385.7570      0.00000
  24157     385.7667      0.00000
  24158     385.7881      0.00000
  24159     385.8002      0.00000
  24160     385.8114      0.00000
  24161     385.8188      0.00000
  24162     385.8295      0.00000
  24163     385.8330      0.00000
  24164     385.8488      0.00000
  24165     385.8676      0.00000
  24166     385.8714      0.00000
  24167     385.8727      0.00000
  24168     385.8888      0.00000
  24169     385.8988      0.00000
  24170     385.9109      0.00000
  24171     385.9159      0.00000
  24172     385.9467      0.00000
  24173     385.9527      0.00000
  24174     385.9651      0.00000
  24175     385.9667      0.00000
  24176     385.9816      0.00000
  24177     385.9889      0.00000
  24178     385.9931      0.00000
  24179     386.0086      0.00000
  24180     386.0190      0.00000
  24181     386.0252      0.00000
  24182     386.0524      0.00000
  24183     386.0535      0.00000
  24184     386.0620      0.00000
  24185     386.0797      0.00000
  24186     386.0938      0.00000
  24187     386.1041      0.00000
  24188     386.1148      0.00000
  24189     386.1158      0.00000
  24190     386.1290      0.00000
  24191     386.1362      0.00000
  24192     386.1388      0.00000
  24193     386.1673      0.00000
  24194     386.1795      0.00000
  24195     386.1925      0.00000
  24196     386.1973      0.00000
  24197     386.2203      0.00000
  24198     386.2264      0.00000
  24199     386.2277      0.00000
  24200     386.2389      0.00000
  24201     386.2406      0.00000
  24202     386.2650      0.00000
  24203     386.2719      0.00000
  24204     386.2900      0.00000
  24205     386.3023      0.00000
  24206     386.3140      0.00000
  24207     386.3183      0.00000
  24208     386.3317      0.00000
  24209     386.3433      0.00000
  24210     386.3600      0.00000
  24211     386.3698      0.00000
  24212     386.3783      0.00000
  24213     386.3894      0.00000
  24214     386.4012      0.00000
  24215     386.4105      0.00000
  24216     386.4169      0.00000
  24217     386.4257      0.00000
  24218     386.4428      0.00000
  24219     386.4452      0.00000
  24220     386.4646      0.00000
  24221     386.4723      0.00000
  24222     386.4871      0.00000
  24223     386.4953      0.00000
  24224     386.5071      0.00000
  24225     386.5168      0.00000
  24226     386.5475      0.00000
  24227     386.5553      0.00000
  24228     386.5714      0.00000
  24229     386.5731      0.00000
  24230     386.5961      0.00000
  24231     386.6034      0.00000
  24232     386.6151      0.00000
  24233     386.6177      0.00000
  24234     386.6295      0.00000
  24235     386.6384      0.00000
  24236     386.6495      0.00000
  24237     386.6606      0.00000
  24238     386.6692      0.00000
  24239     386.6741      0.00000
  24240     386.6905      0.00000
  24241     386.6911      0.00000
  24242     386.7088      0.00000
  24243     386.7110      0.00000
  24244     386.7309      0.00000
  24245     386.7341      0.00000
  24246     386.7545      0.00000
  24247     386.7705      0.00000
  24248     386.7824      0.00000
  24249     386.7890      0.00000
  24250     386.8015      0.00000
  24251     386.8055      0.00000
  24252     386.8195      0.00000
  24253     386.8213      0.00000
  24254     386.8366      0.00000
  24255     386.8429      0.00000
  24256     386.8570      0.00000
  24257     386.8672      0.00000
  24258     386.8752      0.00000
  24259     386.8911      0.00000
  24260     386.8915      0.00000
  24261     386.9131      0.00000
  24262     386.9195      0.00000
  24263     386.9266      0.00000
  24264     386.9353      0.00000
  24265     386.9487      0.00000
  24266     386.9568      0.00000
  24267     386.9774      0.00000
  24268     386.9824      0.00000
  24269     386.9895      0.00000
  24270     386.9967      0.00000
  24271     387.0108      0.00000
  24272     387.0206      0.00000
  24273     387.0426      0.00000
  24274     387.0573      0.00000
  24275     387.0582      0.00000
  24276     387.0731      0.00000
  24277     387.0797      0.00000
  24278     387.0939      0.00000
  24279     387.1089      0.00000
  24280     387.1158      0.00000
  24281     387.1253      0.00000
  24282     387.1338      0.00000
  24283     387.1493      0.00000
  24284     387.1558      0.00000
  24285     387.1684      0.00000
  24286     387.1812      0.00000
  24287     387.1884      0.00000
  24288     387.1932      0.00000
  24289     387.2104      0.00000
  24290     387.2199      0.00000
  24291     387.2411      0.00000
  24292     387.2481      0.00000
  24293     387.2606      0.00000
  24294     387.2652      0.00000
  24295     387.2719      0.00000
  24296     387.2906      0.00000
  24297     387.3168      0.00000
  24298     387.3197      0.00000
  24299     387.3275      0.00000
  24300     387.3376      0.00000
  24301     387.3504      0.00000
  24302     387.3578      0.00000
  24303     387.3711      0.00000
  24304     387.3746      0.00000
  24305     387.3866      0.00000
  24306     387.4080      0.00000
  24307     387.4283      0.00000
  24308     387.4336      0.00000
  24309     387.4396      0.00000
  24310     387.4615      0.00000
  24311     387.4689      0.00000
  24312     387.4815      0.00000
  24313     387.4961      0.00000
  24314     387.5008      0.00000
  24315     387.5100      0.00000
  24316     387.5158      0.00000
  24317     387.5310      0.00000
  24318     387.5460      0.00000
  24319     387.5497      0.00000
  24320     387.5646      0.00000
  24321     387.5730      0.00000
  24322     387.5795      0.00000
  24323     387.6034      0.00000
  24324     387.6103      0.00000
  24325     387.6195      0.00000
  24326     387.6317      0.00000
  24327     387.6502      0.00000
  24328     387.6537      0.00000
  24329     387.6623      0.00000
  24330     387.6773      0.00000
  24331     387.6895      0.00000
  24332     387.6956      0.00000
  24333     387.7075      0.00000
  24334     387.7118      0.00000
  24335     387.7240      0.00000
  24336     387.7335      0.00000
  24337     387.7460      0.00000
  24338     387.7619      0.00000
  24339     387.7878      0.00000
  24340     387.7995      0.00000
  24341     387.8131      0.00000
  24342     387.8226      0.00000
  24343     387.8307      0.00000
  24344     387.8492      0.00000
  24345     387.8544      0.00000
  24346     387.8771      0.00000
  24347     387.8861      0.00000
  24348     387.8921      0.00000
  24349     387.8986      0.00000
  24350     387.9149      0.00000
  24351     387.9236      0.00000
  24352     387.9376      0.00000
  24353     387.9512      0.00000
  24354     387.9680      0.00000
  24355     387.9819      0.00000
  24356     388.0014      0.00000
  24357     388.0087      0.00000
  24358     388.0219      0.00000
  24359     388.0316      0.00000
  24360     388.0507      0.00000
  24361     388.0671      0.00000
  24362     388.0864      0.00000
  24363     388.1062      0.00000
  24364     388.1147      0.00000
  24365     388.1211      0.00000
  24366     388.1305      0.00000
  24367     388.1446      0.00000
  24368     388.1626      0.00000
  24369     388.1838      0.00000
  24370     388.1922      0.00000
  24371     388.2015      0.00000
  24372     388.2133      0.00000
  24373     388.2345      0.00000
  24374     388.2566      0.00000
  24375     388.2582      0.00000
  24376     388.2692      0.00000
  24377     388.2863      0.00000
  24378     388.3067      0.00000
  24379     388.3119      0.00000
  24380     388.3206      0.00000
  24381     388.3318      0.00000
  24382     388.3437      0.00000
  24383     388.3617      0.00000
  24384     388.3789      0.00000
  24385     388.3914      0.00000
  24386     388.4055      0.00000
  24387     388.4078      0.00000
  24388     388.4236      0.00000
  24389     388.4445      0.00000
  24390     388.4521      0.00000
  24391     388.4695      0.00000
  24392     388.4826      0.00000
  24393     388.4943      0.00000
  24394     388.5064      0.00000
  24395     388.5171      0.00000
  24396     388.5370      0.00000
  24397     388.5398      0.00000
  24398     388.5844      0.00000
  24399     388.5881      0.00000
  24400     388.5938      0.00000
  24401     388.6066      0.00000
  24402     388.6260      0.00000
  24403     388.6300      0.00000
  24404     388.6347      0.00000
  24405     388.6432      0.00000
  24406     388.6611      0.00000
  24407     388.6703      0.00000
  24408     388.7123      0.00000
  24409     388.7218      0.00000
  24410     388.7465      0.00000
  24411     388.7599      0.00000
  24412     388.7779      0.00000
  24413     388.7820      0.00000
  24414     388.7928      0.00000
  24415     388.8081      0.00000
  24416     388.8113      0.00000
  24417     388.8278      0.00000
  24418     388.8467      0.00000
  24419     388.8546      0.00000
  24420     388.8733      0.00000
  24421     388.8838      0.00000
  24422     388.9114      0.00000
  24423     388.9238      0.00000
  24424     388.9529      0.00000
  24425     388.9669      0.00000
  24426     388.9797      0.00000
  24427     388.9865      0.00000
  24428     388.9948      0.00000
  24429     389.0033      0.00000
  24430     389.0371      0.00000
  24431     389.0426      0.00000
  24432     389.0519      0.00000
  24433     389.0743      0.00000
  24434     389.0786      0.00000
  24435     389.0866      0.00000
  24436     389.0979      0.00000
  24437     389.1121      0.00000
  24438     389.1177      0.00000
  24439     389.1400      0.00000
  24440     389.1502      0.00000
  24441     389.1617      0.00000
  24442     389.1714      0.00000
  24443     389.1778      0.00000
  24444     389.1956      0.00000
  24445     389.2194      0.00000
  24446     389.2349      0.00000
  24447     389.2435      0.00000
  24448     389.2466      0.00000
  24449     389.2642      0.00000
  24450     389.2772      0.00000
  24451     389.2802      0.00000
  24452     389.2981      0.00000
  24453     389.3161      0.00000
  24454     389.3228      0.00000
  24455     389.3340      0.00000
  24456     389.3508      0.00000
  24457     389.3625      0.00000
  24458     389.3851      0.00000
  24459     389.3909      0.00000
  24460     389.4055      0.00000
  24461     389.4220      0.00000
  24462     389.4414      0.00000
  24463     389.4446      0.00000
  24464     389.4571      0.00000
  24465     389.4674      0.00000
  24466     389.4787      0.00000
  24467     389.5085      0.00000
  24468     389.5131      0.00000
  24469     389.5306      0.00000
  24470     389.5391      0.00000
  24471     389.5491      0.00000
  24472     389.5654      0.00000
  24473     389.5745      0.00000
  24474     389.5860      0.00000
  24475     389.6013      0.00000
  24476     389.6043      0.00000
  24477     389.6172      0.00000
  24478     389.6351      0.00000
  24479     389.6536      0.00000
  24480     389.6665      0.00000
  24481     389.6838      0.00000
  24482     389.6873      0.00000
  24483     389.6966      0.00000
  24484     389.7119      0.00000
  24485     389.7444      0.00000
  24486     389.7512      0.00000
  24487     389.7607      0.00000
  24488     389.7722      0.00000
  24489     389.7946      0.00000
  24490     389.7965      0.00000
  24491     389.8197      0.00000
  24492     389.8337      0.00000
  24493     389.8515      0.00000
  24494     389.8597      0.00000
  24495     389.8777      0.00000
  24496     389.8874      0.00000
  24497     389.8931      0.00000
  24498     389.8973      0.00000
  24499     389.9241      0.00000
  24500     389.9301      0.00000
  24501     389.9490      0.00000
  24502     389.9660      0.00000
  24503     389.9726      0.00000
  24504     389.9824      0.00000
  24505     389.9925      0.00000
  24506     389.9975      0.00000
  24507     390.0292      0.00000
  24508     390.0379      0.00000
  24509     390.0532      0.00000
  24510     390.0550      0.00000
  24511     390.0681      0.00000
  24512     390.0736      0.00000
  24513     390.0879      0.00000
  24514     390.1096      0.00000
  24515     390.1165      0.00000
  24516     390.1284      0.00000
  24517     390.1334      0.00000
  24518     390.1574      0.00000
  24519     390.1629      0.00000
  24520     390.1786      0.00000
  24521     390.1836      0.00000
  24522     390.1906      0.00000
  24523     390.1996      0.00000
  24524     390.2232      0.00000
  24525     390.2264      0.00000
  24526     390.2475      0.00000
  24527     390.2673      0.00000
  24528     390.2792      0.00000
  24529     390.2979      0.00000
  24530     390.3190      0.00000
  24531     390.3258      0.00000
  24532     390.3325      0.00000
  24533     390.3480      0.00000
  24534     390.3537      0.00000
  24535     390.3837      0.00000
  24536     390.4004      0.00000
  24537     390.4096      0.00000
  24538     390.4129      0.00000
  24539     390.4341      0.00000
  24540     390.4367      0.00000
  24541     390.4398      0.00000
  24542     390.4641      0.00000
  24543     390.4706      0.00000
  24544     390.4766      0.00000
  24545     390.4813      0.00000
  24546     390.4947      0.00000
  24547     390.5067      0.00000
  24548     390.5228      0.00000
  24549     390.5256      0.00000
  24550     390.5410      0.00000
  24551     390.5537      0.00000
  24552     390.5585      0.00000
  24553     390.5798      0.00000
  24554     390.5848      0.00000
  24555     390.5948      0.00000
  24556     390.6160      0.00000
  24557     390.6217      0.00000
  24558     390.6464      0.00000
  24559     390.6506      0.00000
  24560     390.6635      0.00000
  24561     390.6776      0.00000
  24562     390.6862      0.00000
  24563     390.7000      0.00000
  24564     390.7121      0.00000
  24565     390.7157      0.00000
  24566     390.7423      0.00000
  24567     390.7547      0.00000
  24568     390.7628      0.00000
  24569     390.7838      0.00000
  24570     390.7939      0.00000
  24571     390.8075      0.00000
  24572     390.8187      0.00000
  24573     390.8263      0.00000
  24574     390.8294      0.00000
  24575     390.8434      0.00000
  24576     390.8689      0.00000
  24577     390.8719      0.00000
  24578     390.8933      0.00000
  24579     390.9013      0.00000
  24580     390.9102      0.00000
  24581     390.9179      0.00000
  24582     390.9277      0.00000
  24583     390.9376      0.00000
  24584     390.9523      0.00000
  24585     390.9621      0.00000
  24586     390.9700      0.00000
  24587     390.9886      0.00000
  24588     390.9928      0.00000
  24589     391.0071      0.00000
  24590     391.0152      0.00000
  24591     391.0262      0.00000
  24592     391.0433      0.00000
  24593     391.0528      0.00000
  24594     391.0618      0.00000
  24595     391.0628      0.00000
  24596     391.0756      0.00000
  24597     391.0940      0.00000
  24598     391.1085      0.00000
  24599     391.1144      0.00000
  24600     391.1196      0.00000
  24601     391.1313      0.00000
  24602     391.1395      0.00000
  24603     391.1513      0.00000
  24604     391.1587      0.00000
  24605     391.1711      0.00000
  24606     391.1926      0.00000
  24607     391.2024      0.00000
  24608     391.2093      0.00000
  24609     391.2208      0.00000
  24610     391.2361      0.00000
  24611     391.2385      0.00000
  24612     391.2431      0.00000
  24613     391.2624      0.00000
  24614     391.2766      0.00000
  24615     391.2817      0.00000
  24616     391.3036      0.00000
  24617     391.3112      0.00000
  24618     391.3192      0.00000
  24619     391.3345      0.00000
  24620     391.3413      0.00000
  24621     391.3470      0.00000
  24622     391.3719      0.00000
  24623     391.3822      0.00000
  24624     391.3934      0.00000
  24625     391.3991      0.00000
  24626     391.4161      0.00000
  24627     391.4187      0.00000
  24628     391.4314      0.00000
  24629     391.4407      0.00000
  24630     391.4558      0.00000
  24631     391.4594      0.00000
  24632     391.4659      0.00000
  24633     391.4806      0.00000
  24634     391.4926      0.00000
  24635     391.4993      0.00000
  24636     391.5086      0.00000
  24637     391.5243      0.00000
  24638     391.5363      0.00000
  24639     391.5499      0.00000
  24640     391.5616      0.00000
  24641     391.5665      0.00000
  24642     391.5688      0.00000
  24643     391.5856      0.00000
  24644     391.5990      0.00000
  24645     391.6055      0.00000
  24646     391.6164      0.00000
  24647     391.6264      0.00000
  24648     391.6369      0.00000
  24649     391.6475      0.00000
  24650     391.6571      0.00000
  24651     391.6823      0.00000
  24652     391.6836      0.00000
  24653     391.6942      0.00000
  24654     391.7069      0.00000
  24655     391.7148      0.00000
  24656     391.7301      0.00000
  24657     391.7409      0.00000
  24658     391.7439      0.00000
  24659     391.7598      0.00000
  24660     391.7679      0.00000
  24661     391.7790      0.00000
  24662     391.7951      0.00000
  24663     391.8056      0.00000
  24664     391.8100      0.00000
  24665     391.8206      0.00000
  24666     391.8256      0.00000
  24667     391.8362      0.00000
  24668     391.8524      0.00000
  24669     391.8666      0.00000
  24670     391.8750      0.00000
  24671     391.8900      0.00000
  24672     391.9059      0.00000
  24673     391.9089      0.00000
  24674     391.9149      0.00000
  24675     391.9213      0.00000
  24676     391.9460      0.00000
  24677     391.9610      0.00000
  24678     391.9704      0.00000
  24679     391.9760      0.00000
  24680     392.0032      0.00000
  24681     392.0114      0.00000
  24682     392.0171      0.00000
  24683     392.0284      0.00000
  24684     392.0329      0.00000
  24685     392.0445      0.00000
  24686     392.0568      0.00000
  24687     392.0727      0.00000
  24688     392.0789      0.00000
  24689     392.0847      0.00000
  24690     392.0947      0.00000
  24691     392.1032      0.00000
  24692     392.1071      0.00000
  24693     392.1228      0.00000
  24694     392.1342      0.00000
  24695     392.1366      0.00000
  24696     392.1465      0.00000
  24697     392.1602      0.00000
  24698     392.1665      0.00000
  24699     392.1889      0.00000
  24700     392.1992      0.00000
  24701     392.2170      0.00000
  24702     392.2245      0.00000
  24703     392.2324      0.00000
  24704     392.2397      0.00000
  24705     392.2545      0.00000
  24706     392.2685      0.00000
  24707     392.2738      0.00000
  24708     392.2893      0.00000
  24709     392.3013      0.00000
  24710     392.3088      0.00000
  24711     392.3185      0.00000
  24712     392.3257      0.00000
  24713     392.3334      0.00000
  24714     392.3397      0.00000
  24715     392.3677      0.00000
  24716     392.3766      0.00000
  24717     392.3885      0.00000
  24718     392.3930      0.00000
  24719     392.4133      0.00000
  24720     392.4268      0.00000
  24721     392.4330      0.00000
  24722     392.4414      0.00000
  24723     392.4508      0.00000
  24724     392.4642      0.00000
  24725     392.4804      0.00000
  24726     392.4956      0.00000
  24727     392.5098      0.00000
  24728     392.5312      0.00000
  24729     392.5414      0.00000
  24730     392.5511      0.00000
  24731     392.5705      0.00000
  24732     392.5786      0.00000
  24733     392.5904      0.00000
  24734     392.6066      0.00000
  24735     392.6098      0.00000
  24736     392.6136      0.00000
  24737     392.6297      0.00000
  24738     392.6477      0.00000
  24739     392.6536      0.00000
  24740     392.6594      0.00000
  24741     392.6746      0.00000
  24742     392.6784      0.00000
  24743     392.6851      0.00000
  24744     392.6969      0.00000
  24745     392.7246      0.00000
  24746     392.7394      0.00000
  24747     392.7471      0.00000
  24748     392.7589      0.00000
  24749     392.7736      0.00000
  24750     392.7913      0.00000
  24751     392.7997      0.00000
  24752     392.8003      0.00000
  24753     392.8109      0.00000
  24754     392.8183      0.00000
  24755     392.8323      0.00000
  24756     392.8569      0.00000
  24757     392.8623      0.00000
  24758     392.8641      0.00000
  24759     392.8754      0.00000
  24760     392.8807      0.00000
  24761     392.9066      0.00000
  24762     392.9246      0.00000
  24763     392.9428      0.00000
  24764     392.9630      0.00000
  24765     392.9727      0.00000
  24766     392.9876      0.00000
  24767     392.9989      0.00000
  24768     393.0082      0.00000
  24769     393.0298      0.00000
  24770     393.0405      0.00000
  24771     393.0500      0.00000
  24772     393.0639      0.00000
  24773     393.0802      0.00000
  24774     393.0851      0.00000
  24775     393.1043      0.00000
  24776     393.1216      0.00000
  24777     393.1469      0.00000
  24778     393.1602      0.00000
  24779     393.1661      0.00000
  24780     393.1817      0.00000
  24781     393.1920      0.00000
  24782     393.2015      0.00000
  24783     393.2095      0.00000
  24784     393.2205      0.00000
  24785     393.2326      0.00000
  24786     393.2443      0.00000
  24787     393.2463      0.00000
  24788     393.2654      0.00000
  24789     393.2753      0.00000
  24790     393.2956      0.00000
  24791     393.3114      0.00000
  24792     393.3215      0.00000
  24793     393.3254      0.00000
  24794     393.3363      0.00000
  24795     393.3536      0.00000
  24796     393.3571      0.00000
  24797     393.3671      0.00000
  24798     393.3876      0.00000
  24799     393.3970      0.00000
  24800     393.4213      0.00000
  24801     393.4297      0.00000
  24802     393.4398      0.00000
  24803     393.4557      0.00000
  24804     393.4610      0.00000
  24805     393.4831      0.00000
  24806     393.4988      0.00000
  24807     393.5125      0.00000
  24808     393.5173      0.00000
  24809     393.5244      0.00000
  24810     393.5349      0.00000
  24811     393.5402      0.00000
  24812     393.5567      0.00000
  24813     393.5667      0.00000
  24814     393.5813      0.00000
  24815     393.6051      0.00000
  24816     393.6084      0.00000
  24817     393.6257      0.00000
  24818     393.6463      0.00000
  24819     393.6512      0.00000
  24820     393.6758      0.00000
  24821     393.6921      0.00000
  24822     393.7035      0.00000
  24823     393.7170      0.00000
  24824     393.7239      0.00000
  24825     393.7347      0.00000
  24826     393.7477      0.00000
  24827     393.7539      0.00000
  24828     393.7681      0.00000
  24829     393.7850      0.00000
  24830     393.7905      0.00000
  24831     393.7968      0.00000
  24832     393.8101      0.00000
  24833     393.8162      0.00000
  24834     393.8364      0.00000
  24835     393.8424      0.00000
  24836     393.8578      0.00000
  24837     393.8675      0.00000
  24838     393.8797      0.00000
  24839     393.8867      0.00000
  24840     393.9007      0.00000
  24841     393.9145      0.00000
  24842     393.9390      0.00000
  24843     393.9506      0.00000
  24844     393.9691      0.00000
  24845     393.9774      0.00000
  24846     393.9896      0.00000
  24847     393.9957      0.00000
  24848     393.9990      0.00000
  24849     394.0102      0.00000
  24850     394.0290      0.00000
  24851     394.0395      0.00000
  24852     394.0519      0.00000
  24853     394.0632      0.00000
  24854     394.0698      0.00000
  24855     394.0731      0.00000
  24856     394.1013      0.00000
  24857     394.1121      0.00000
  24858     394.1369      0.00000
  24859     394.1422      0.00000
  24860     394.1434      0.00000
  24861     394.1609      0.00000
  24862     394.1710      0.00000
  24863     394.1819      0.00000
  24864     394.1879      0.00000
  24865     394.2056      0.00000
  24866     394.2168      0.00000
  24867     394.2230      0.00000
  24868     394.2352      0.00000
  24869     394.2421      0.00000
  24870     394.2510      0.00000
  24871     394.2692      0.00000
  24872     394.2845      0.00000
  24873     394.2913      0.00000
  24874     394.2952      0.00000
  24875     394.3053      0.00000
  24876     394.3275      0.00000
  24877     394.3418      0.00000
  24878     394.3483      0.00000
  24879     394.3607      0.00000
  24880     394.3799      0.00000
  24881     394.3826      0.00000
  24882     394.3955      0.00000
  24883     394.4069      0.00000
  24884     394.4172      0.00000
  24885     394.4259      0.00000
  24886     394.4398      0.00000
  24887     394.4460      0.00000
  24888     394.4537      0.00000
  24889     394.4776      0.00000
  24890     394.4895      0.00000
  24891     394.4921      0.00000
  24892     394.5096      0.00000
  24893     394.5180      0.00000
  24894     394.5304      0.00000
  24895     394.5392      0.00000
  24896     394.5484      0.00000
  24897     394.5807      0.00000
  24898     394.5816      0.00000
  24899     394.5912      0.00000
  24900     394.5975      0.00000
  24901     394.6046      0.00000
  24902     394.6224      0.00000
  24903     394.6329      0.00000
  24904     394.6411      0.00000
  24905     394.6552      0.00000
  24906     394.6637      0.00000
  24907     394.6683      0.00000
  24908     394.6864      0.00000
  24909     394.6941      0.00000
  24910     394.7051      0.00000
  24911     394.7129      0.00000
  24912     394.7242      0.00000
  24913     394.7283      0.00000
  24914     394.7407      0.00000
  24915     394.7508      0.00000
  24916     394.7706      0.00000
  24917     394.7821      0.00000
  24918     394.7925      0.00000
  24919     394.7981      0.00000
  24920     394.8048      0.00000
  24921     394.8217      0.00000
  24922     394.8374      0.00000
  24923     394.8448      0.00000
  24924     394.8557      0.00000
  24925     394.8619      0.00000
  24926     394.8826      0.00000
  24927     394.8892      0.00000
  24928     394.9013      0.00000
  24929     394.9144      0.00000
  24930     394.9278      0.00000
  24931     394.9352      0.00000
  24932     394.9424      0.00000
  24933     394.9558      0.00000
  24934     394.9595      0.00000
  24935     394.9696      0.00000
  24936     394.9767      0.00000
  24937     394.9878      0.00000
  24938     394.9924      0.00000
  24939     395.0194      0.00000
  24940     395.0254      0.00000
  24941     395.0463      0.00000
  24942     395.0472      0.00000
  24943     395.0526      0.00000
  24944     395.0697      0.00000
  24945     395.0796      0.00000
  24946     395.0929      0.00000
  24947     395.1056      0.00000
  24948     395.1167      0.00000
  24949     395.1287      0.00000
  24950     395.1317      0.00000
  24951     395.1420      0.00000
  24952     395.1490      0.00000
  24953     395.1681      0.00000
  24954     395.1860      0.00000
  24955     395.1971      0.00000
  24956     395.2062      0.00000
  24957     395.2104      0.00000
  24958     395.2185      0.00000
  24959     395.2284      0.00000
  24960     395.2398      0.00000
  24961     395.2549      0.00000
  24962     395.2610      0.00000
  24963     395.2737      0.00000
  24964     395.2749      0.00000
  24965     395.2958      0.00000
  24966     395.2997      0.00000
  24967     395.3125      0.00000
  24968     395.3234      0.00000
  24969     395.3295      0.00000
  24970     395.3341      0.00000
  24971     395.3413      0.00000
  24972     395.3571      0.00000
  24973     395.3629      0.00000
  24974     395.3723      0.00000
  24975     395.3924      0.00000
  24976     395.4035      0.00000
  24977     395.4120      0.00000
  24978     395.4160      0.00000
  24979     395.4212      0.00000
  24980     395.4288      0.00000
  24981     395.4435      0.00000
  24982     395.4495      0.00000
  24983     395.4535      0.00000
  24984     395.4777      0.00000
  24985     395.4864      0.00000
  24986     395.4905      0.00000
  24987     395.5117      0.00000
  24988     395.5169      0.00000
  24989     395.5220      0.00000
  24990     395.5316      0.00000
  24991     395.5348      0.00000
  24992     395.5573      0.00000
  24993     395.5657      0.00000
  24994     395.5824      0.00000
  24995     395.5951      0.00000
  24996     395.5985      0.00000
  24997     395.6082      0.00000
  24998     395.6184      0.00000
  24999     395.6248      0.00000
  25000     395.6424      0.00000
  25001     395.6466      0.00000
  25002     395.6584      0.00000
  25003     395.6625      0.00000
  25004     395.6735      0.00000
  25005     395.6822      0.00000
  25006     395.6938      0.00000
  25007     395.7056      0.00000
  25008     395.7168      0.00000
  25009     395.7328      0.00000
  25010     395.7412      0.00000
  25011     395.7705      0.00000
  25012     395.7759      0.00000
  25013     395.7852      0.00000
  25014     395.7906      0.00000
  25015     395.7938      0.00000
  25016     395.8126      0.00000
  25017     395.8283      0.00000
  25018     395.8445      0.00000
  25019     395.8508      0.00000
  25020     395.8533      0.00000
  25021     395.8637      0.00000
  25022     395.8685      0.00000
  25023     395.8918      0.00000
  25024     395.8962      0.00000
  25025     395.9144      0.00000
  25026     395.9158      0.00000
  25027     395.9312      0.00000
  25028     395.9387      0.00000
  25029     395.9472      0.00000
  25030     395.9581      0.00000
  25031     395.9673      0.00000
  25032     395.9736      0.00000
  25033     395.9841      0.00000
  25034     395.9976      0.00000
  25035     396.0128      0.00000
  25036     396.0238      0.00000
  25037     396.0315      0.00000
  25038     396.0378      0.00000
  25039     396.0479      0.00000
  25040     396.0556      0.00000
  25041     396.0670      0.00000
  25042     396.0768      0.00000
  25043     396.0876      0.00000
  25044     396.0936      0.00000
  25045     396.1032      0.00000
  25046     396.1245      0.00000
  25047     396.1409      0.00000
  25048     396.1521      0.00000
  25049     396.1544      0.00000
  25050     396.1672      0.00000
  25051     396.1749      0.00000
  25052     396.1789      0.00000
  25053     396.1964      0.00000
  25054     396.2006      0.00000
  25055     396.2116      0.00000
  25056     396.2254      0.00000
  25057     396.2348      0.00000
  25058     396.2488      0.00000
  25059     396.2530      0.00000
  25060     396.2705      0.00000
  25061     396.2745      0.00000
  25062     396.2807      0.00000
  25063     396.2878      0.00000
  25064     396.2952      0.00000
  25065     396.3073      0.00000
  25066     396.3233      0.00000
  25067     396.3271      0.00000
  25068     396.3454      0.00000
  25069     396.3516      0.00000
  25070     396.3654      0.00000
  25071     396.3684      0.00000
  25072     396.3858      0.00000
  25073     396.3995      0.00000
  25074     396.4207      0.00000
  25075     396.4248      0.00000
  25076     396.4336      0.00000
  25077     396.4346      0.00000
  25078     396.4546      0.00000
  25079     396.4586      0.00000
  25080     396.4789      0.00000
  25081     396.4840      0.00000
  25082     396.4855      0.00000
  25083     396.4892      0.00000
  25084     396.5027      0.00000
  25085     396.5143      0.00000
  25086     396.5219      0.00000
  25087     396.5376      0.00000
  25088     396.5477      0.00000
  25089     396.5532      0.00000
  25090     396.5614      0.00000
  25091     396.5770      0.00000
  25092     396.5806      0.00000
  25093     396.5902      0.00000
  25094     396.6010      0.00000
  25095     396.6096      0.00000
  25096     396.6282      0.00000
  25097     396.6348      0.00000
  25098     396.6469      0.00000
  25099     396.6607      0.00000
  25100     396.6631      0.00000
  25101     396.6680      0.00000
  25102     396.6750      0.00000
  25103     396.7008      0.00000
  25104     396.7051      0.00000
  25105     396.7119      0.00000
  25106     396.7181      0.00000
  25107     396.7255      0.00000
  25108     396.7318      0.00000
  25109     396.7484      0.00000
  25110     396.7496      0.00000
  25111     396.7666      0.00000
  25112     396.7841      0.00000
  25113     396.7913      0.00000
  25114     396.7923      0.00000
  25115     396.8021      0.00000
  25116     396.8089      0.00000
  25117     396.8235      0.00000
  25118     396.8310      0.00000
  25119     396.8510      0.00000
  25120     396.8602      0.00000
  25121     396.8720      0.00000
  25122     396.8745      0.00000
  25123     396.8840      0.00000
  25124     396.9020      0.00000
  25125     396.9119      0.00000
  25126     396.9180      0.00000
  25127     396.9205      0.00000
  25128     396.9373      0.00000
  25129     396.9478      0.00000
  25130     396.9517      0.00000
  25131     396.9569      0.00000
  25132     396.9666      0.00000
  25133     396.9771      0.00000
  25134     396.9847      0.00000
  25135     396.9964      0.00000
  25136     397.0143      0.00000
  25137     397.0242      0.00000
  25138     397.0276      0.00000
  25139     397.0387      0.00000
  25140     397.0440      0.00000
  25141     397.0486      0.00000
  25142     397.0563      0.00000
  25143     397.0661      0.00000
  25144     397.0825      0.00000
  25145     397.0969      0.00000
  25146     397.1035      0.00000
  25147     397.1083      0.00000
  25148     397.1225      0.00000
  25149     397.1258      0.00000
  25150     397.1324      0.00000
  25151     397.1530      0.00000
  25152     397.1599      0.00000
  25153     397.1776      0.00000
  25154     397.1836      0.00000
  25155     397.1882      0.00000
  25156     397.2002      0.00000
  25157     397.2044      0.00000
  25158     397.2200      0.00000
  25159     397.2308      0.00000
  25160     397.2481      0.00000
  25161     397.2529      0.00000
  25162     397.2594      0.00000
  25163     397.2641      0.00000
  25164     397.2703      0.00000
  25165     397.2760      0.00000
  25166     397.2904      0.00000
  25167     397.2978      0.00000
  25168     397.3080      0.00000
  25169     397.3244      0.00000
  25170     397.3275      0.00000
  25171     397.3425      0.00000
  25172     397.3532      0.00000
  25173     397.3578      0.00000
  25174     397.3602      0.00000
  25175     397.3725      0.00000
  25176     397.3781      0.00000
  25177     397.3923      0.00000
  25178     397.4034      0.00000
  25179     397.4093      0.00000
  25180     397.4115      0.00000
  25181     397.4263      0.00000
  25182     397.4395      0.00000
  25183     397.4448      0.00000
  25184     397.4595      0.00000
  25185     397.4646      0.00000
  25186     397.4717      0.00000
  25187     397.4816      0.00000
  25188     397.4951      0.00000
  25189     397.4978      0.00000
  25190     397.5173      0.00000
  25191     397.5211      0.00000
  25192     397.5242      0.00000
  25193     397.5430      0.00000
  25194     397.5575      0.00000
  25195     397.5625      0.00000
  25196     397.5788      0.00000
  25197     397.5836      0.00000
  25198     397.5875      0.00000
  25199     397.5929      0.00000
  25200     397.6076      0.00000
  25201     397.6192      0.00000
  25202     397.6278      0.00000
  25203     397.6403      0.00000
  25204     397.6433      0.00000
  25205     397.6543      0.00000
  25206     397.6673      0.00000
  25207     397.6803      0.00000
  25208     397.6837      0.00000
  25209     397.6894      0.00000
  25210     397.6960      0.00000
  25211     397.7017      0.00000
  25212     397.7195      0.00000
  25213     397.7226      0.00000
  25214     397.7449      0.00000
  25215     397.7516      0.00000
  25216     397.7536      0.00000
  25217     397.7728      0.00000
  25218     397.7776      0.00000
  25219     397.7877      0.00000
  25220     397.7980      0.00000
  25221     397.8062      0.00000
  25222     397.8168      0.00000
  25223     397.8228      0.00000
  25224     397.8345      0.00000
  25225     397.8387      0.00000
  25226     397.8489      0.00000
  25227     397.8548      0.00000
  25228     397.8644      0.00000
  25229     397.8778      0.00000
  25230     397.8867      0.00000
  25231     397.9012      0.00000
  25232     397.9042      0.00000
  25233     397.9263      0.00000
  25234     397.9291      0.00000
  25235     397.9341      0.00000
  25236     397.9435      0.00000
  25237     397.9579      0.00000
  25238     397.9690      0.00000
  25239     397.9767      0.00000
  25240     397.9890      0.00000
  25241     398.0003      0.00000
  25242     398.0092      0.00000
  25243     398.0235      0.00000
  25244     398.0473      0.00000
  25245     398.0550      0.00000
  25246     398.0696      0.00000
  25247     398.0750      0.00000
  25248     398.0813      0.00000
  25249     398.0924      0.00000
  25250     398.1053      0.00000
  25251     398.1086      0.00000
  25252     398.1154      0.00000
  25253     398.1267      0.00000
  25254     398.1349      0.00000
  25255     398.1477      0.00000
  25256     398.1562      0.00000
  25257     398.1748      0.00000
  25258     398.1859      0.00000
  25259     398.1933      0.00000
  25260     398.2042      0.00000
  25261     398.2102      0.00000
  25262     398.2242      0.00000
  25263     398.2270      0.00000
  25264     398.2413      0.00000
  25265     398.2450      0.00000
  25266     398.2576      0.00000
  25267     398.2585      0.00000
  25268     398.2749      0.00000
  25269     398.2950      0.00000
  25270     398.3015      0.00000
  25271     398.3047      0.00000
  25272     398.3136      0.00000
  25273     398.3207      0.00000
  25274     398.3269      0.00000
  25275     398.3341      0.00000
  25276     398.3544      0.00000
  25277     398.3649      0.00000
  25278     398.3702      0.00000
  25279     398.3806      0.00000
  25280     398.3852      0.00000
  25281     398.3938      0.00000
  25282     398.4203      0.00000
  25283     398.4213      0.00000
  25284     398.4309      0.00000
  25285     398.4402      0.00000
  25286     398.4486      0.00000
  25287     398.4690      0.00000
  25288     398.4762      0.00000
  25289     398.4779      0.00000
  25290     398.4822      0.00000
  25291     398.4919      0.00000
  25292     398.5046      0.00000
  25293     398.5109      0.00000
  25294     398.5239      0.00000
  25295     398.5269      0.00000
  25296     398.5435      0.00000
  25297     398.5480      0.00000
  25298     398.5596      0.00000
  25299     398.5719      0.00000
  25300     398.5811      0.00000
  25301     398.5957      0.00000
  25302     398.6056      0.00000
  25303     398.6120      0.00000
  25304     398.6235      0.00000
  25305     398.6307      0.00000
  25306     398.6408      0.00000
  25307     398.6416      0.00000
  25308     398.6461      0.00000
  25309     398.6604      0.00000
  25310     398.6750      0.00000
  25311     398.6801      0.00000
  25312     398.6898      0.00000
  25313     398.6942      0.00000
  25314     398.6987      0.00000
  25315     398.7151      0.00000
  25316     398.7361      0.00000
  25317     398.7434      0.00000
  25318     398.7646      0.00000
  25319     398.7674      0.00000
  25320     398.7738      0.00000
  25321     398.7841      0.00000
  25322     398.7901      0.00000
  25323     398.8056      0.00000
  25324     398.8127      0.00000
  25325     398.8179      0.00000
  25326     398.8216      0.00000
  25327     398.8325      0.00000
  25328     398.8414      0.00000
  25329     398.8457      0.00000
  25330     398.8546      0.00000
  25331     398.8687      0.00000
  25332     398.8779      0.00000
  25333     398.8880      0.00000
  25334     398.8974      0.00000
  25335     398.9156      0.00000
  25336     398.9201      0.00000
  25337     398.9259      0.00000
  25338     398.9439      0.00000
  25339     398.9528      0.00000
  25340     398.9590      0.00000
  25341     398.9699      0.00000
  25342     398.9743      0.00000
  25343     398.9848      0.00000
  25344     399.0020      0.00000
  25345     399.0056      0.00000
  25346     399.0078      0.00000
  25347     399.0256      0.00000
  25348     399.0305      0.00000
  25349     399.0360      0.00000
  25350     399.0481      0.00000
  25351     399.0565      0.00000
  25352     399.0632      0.00000
  25353     399.0712      0.00000
  25354     399.0815      0.00000
  25355     399.0933      0.00000
  25356     399.0970      0.00000
  25357     399.1056      0.00000
  25358     399.1185      0.00000
  25359     399.1279      0.00000
  25360     399.1457      0.00000
  25361     399.1488      0.00000
  25362     399.1547      0.00000
  25363     399.1687      0.00000
  25364     399.1783      0.00000
  25365     399.1835      0.00000
  25366     399.1937      0.00000
  25367     399.2032      0.00000
  25368     399.2125      0.00000
  25369     399.2314      0.00000
  25370     399.2337      0.00000
  25371     399.2440      0.00000
  25372     399.2466      0.00000
  25373     399.2613      0.00000
  25374     399.2674      0.00000
  25375     399.2812      0.00000
  25376     399.2907      0.00000
  25377     399.2939      0.00000
  25378     399.3040      0.00000
  25379     399.3264      0.00000
  25380     399.3349      0.00000
  25381     399.3374      0.00000
  25382     399.3400      0.00000
  25383     399.3572      0.00000
  25384     399.3649      0.00000
  25385     399.3736      0.00000
  25386     399.3742      0.00000
  25387     399.3820      0.00000
  25388     399.4049      0.00000
  25389     399.4068      0.00000
  25390     399.4121      0.00000
  25391     399.4353      0.00000
  25392     399.4500      0.00000
  25393     399.4600      0.00000
  25394     399.4666      0.00000
  25395     399.4714      0.00000
  25396     399.4818      0.00000
  25397     399.4944      0.00000
  25398     399.4988      0.00000
  25399     399.5144      0.00000
  25400     399.5158      0.00000
  25401     399.5305      0.00000
  25402     399.5548      0.00000
  25403     399.5568      0.00000
  25404     399.5668      0.00000
  25405     399.5714      0.00000
  25406     399.5819      0.00000
  25407     399.5926      0.00000
  25408     399.5935      0.00000
  25409     399.6069      0.00000
  25410     399.6177      0.00000
  25411     399.6296      0.00000
  25412     399.6337      0.00000
  25413     399.6519      0.00000
  25414     399.6556      0.00000
  25415     399.6648      0.00000
  25416     399.6798      0.00000
  25417     399.6828      0.00000
  25418     399.6959      0.00000
  25419     399.7103      0.00000
  25420     399.7155      0.00000
  25421     399.7271      0.00000
  25422     399.7329      0.00000
  25423     399.7524      0.00000
  25424     399.7602      0.00000
  25425     399.7678      0.00000
  25426     399.7863      0.00000
  25427     399.7930      0.00000
  25428     399.7947      0.00000
  25429     399.8015      0.00000
  25430     399.8050      0.00000
  25431     399.8121      0.00000
  25432     399.8334      0.00000
  25433     399.8384      0.00000
  25434     399.8447      0.00000
  25435     399.8518      0.00000
  25436     399.8726      0.00000
  25437     399.8829      0.00000
  25438     399.8836      0.00000
  25439     399.9044      0.00000
  25440     399.9084      0.00000
  25441     399.9196      0.00000
  25442     399.9307      0.00000
  25443     399.9367      0.00000
  25444     399.9416      0.00000
  25445     399.9534      0.00000
  25446     399.9672      0.00000
  25447     399.9797      0.00000
  25448     399.9988      0.00000
  25449     400.0039      0.00000
  25450     400.0110      0.00000
  25451     400.0216      0.00000
  25452     400.0275      0.00000
  25453     400.0410      0.00000
  25454     400.0458      0.00000
  25455     400.0611      0.00000
  25456     400.0654      0.00000
  25457     400.0734      0.00000
  25458     400.0862      0.00000
  25459     400.0890      0.00000
  25460     400.1133      0.00000
  25461     400.1239      0.00000
  25462     400.1315      0.00000
  25463     400.1414      0.00000
  25464     400.1531      0.00000
  25465     400.1605      0.00000
  25466     400.1638      0.00000
  25467     400.1789      0.00000
  25468     400.1857      0.00000
  25469     400.1900      0.00000
  25470     400.1964      0.00000
  25471     400.2075      0.00000
  25472     400.2215      0.00000
  25473     400.2313      0.00000
  25474     400.2402      0.00000
  25475     400.2437      0.00000
  25476     400.2660      0.00000
  25477     400.2704      0.00000
  25478     400.2812      0.00000
  25479     400.2951      0.00000
  25480     400.3005      0.00000
  25481     400.3111      0.00000
  25482     400.3132      0.00000
  25483     400.3298      0.00000
  25484     400.3334      0.00000
  25485     400.3439      0.00000
  25486     400.3664      0.00000
  25487     400.3686      0.00000
  25488     400.3790      0.00000
  25489     400.4020      0.00000
  25490     400.4128      0.00000
  25491     400.4168      0.00000
  25492     400.4210      0.00000
  25493     400.4337      0.00000
  25494     400.4425      0.00000
  25495     400.4461      0.00000
  25496     400.4632      0.00000
  25497     400.4726      0.00000
  25498     400.4939      0.00000
  25499     400.4978      0.00000
  25500     400.5069      0.00000
  25501     400.5187      0.00000
  25502     400.5243      0.00000
  25503     400.5425      0.00000
  25504     400.5518      0.00000
  25505     400.5618      0.00000
  25506     400.5657      0.00000
  25507     400.5785      0.00000
  25508     400.5826      0.00000
  25509     400.6003      0.00000
  25510     400.6070      0.00000
  25511     400.6187      0.00000
  25512     400.6306      0.00000
  25513     400.6373      0.00000
  25514     400.6558      0.00000
  25515     400.6671      0.00000
  25516     400.6694      0.00000
  25517     400.6939      0.00000
  25518     400.6950      0.00000
  25519     400.7024      0.00000
  25520     400.7135      0.00000
  25521     400.7260      0.00000
  25522     400.7390      0.00000
  25523     400.7450      0.00000
  25524     400.7539      0.00000
  25525     400.7586      0.00000
  25526     400.7761      0.00000
  25527     400.7801      0.00000
  25528     400.7977      0.00000
  25529     400.8046      0.00000
  25530     400.8140      0.00000
  25531     400.8225      0.00000
  25532     400.8289      0.00000
  25533     400.8420      0.00000
  25534     400.8498      0.00000
  25535     400.8569      0.00000
  25536     400.8703      0.00000
  25537     400.8873      0.00000
  25538     400.8937      0.00000
  25539     400.8985      0.00000
  25540     400.9183      0.00000
  25541     400.9210      0.00000
  25542     400.9251      0.00000
  25543     400.9373      0.00000
  25544     400.9499      0.00000
  25545     400.9654      0.00000
  25546     400.9757      0.00000
  25547     400.9839      0.00000
  25548     400.9870      0.00000
  25549     400.9914      0.00000
  25550     401.0094      0.00000
  25551     401.0207      0.00000
  25552     401.0261      0.00000
  25553     401.0377      0.00000
  25554     401.0521      0.00000
  25555     401.0559      0.00000
  25556     401.0648      0.00000
  25557     401.0663      0.00000
  25558     401.0873      0.00000
  25559     401.1098      0.00000
  25560     401.1151      0.00000
  25561     401.1257      0.00000
  25562     401.1409      0.00000
  25563     401.1475      0.00000
  25564     401.1534      0.00000
  25565     401.1736      0.00000
  25566     401.1780      0.00000
  25567     401.1881      0.00000
  25568     401.1959      0.00000
  25569     401.1973      0.00000
  25570     401.2152      0.00000
  25571     401.2223      0.00000
  25572     401.2381      0.00000
  25573     401.2403      0.00000
  25574     401.2502      0.00000
  25575     401.2561      0.00000
  25576     401.2692      0.00000
  25577     401.2820      0.00000
  25578     401.2898      0.00000
  25579     401.2998      0.00000
  25580     401.3081      0.00000
  25581     401.3239      0.00000
  25582     401.3297      0.00000
  25583     401.3345      0.00000
  25584     401.3481      0.00000
  25585     401.3621      0.00000
  25586     401.3688      0.00000
  25587     401.3741      0.00000
  25588     401.3884      0.00000
  25589     401.3999      0.00000
  25590     401.4128      0.00000
  25591     401.4270      0.00000
  25592     401.4315      0.00000
  25593     401.4337      0.00000
  25594     401.4430      0.00000
  25595     401.4560      0.00000
  25596     401.4665      0.00000
  25597     401.4846      0.00000
  25598     401.4939      0.00000
  25599     401.4985      0.00000
  25600     401.5037      0.00000
  25601     401.5237      0.00000
  25602     401.5280      0.00000
  25603     401.5369      0.00000
  25604     401.5480      0.00000
  25605     401.5519      0.00000
  25606     401.5623      0.00000
  25607     401.5675      0.00000
  25608     401.5830      0.00000
  25609     401.6015      0.00000
  25610     401.6128      0.00000
  25611     401.6166      0.00000
  25612     401.6258      0.00000
  25613     401.6364      0.00000
  25614     401.6473      0.00000
  25615     401.6573      0.00000
  25616     401.6677      0.00000
  25617     401.6726      0.00000
  25618     401.6856      0.00000
  25619     401.6884      0.00000
  25620     401.6994      0.00000
  25621     401.7100      0.00000
  25622     401.7109      0.00000
  25623     401.7207      0.00000
  25624     401.7250      0.00000
  25625     401.7318      0.00000
  25626     401.7488      0.00000
  25627     401.7629      0.00000
  25628     401.7648      0.00000
  25629     401.7783      0.00000
  25630     401.7871      0.00000
  25631     401.7981      0.00000
  25632     401.8020      0.00000
  25633     401.8079      0.00000
  25634     401.8207      0.00000
  25635     401.8273      0.00000
  25636     401.8411      0.00000
  25637     401.8458      0.00000
  25638     401.8569      0.00000
  25639     401.8673      0.00000
  25640     401.8716      0.00000
  25641     401.8933      0.00000
  25642     401.9013      0.00000
  25643     401.9063      0.00000
  25644     401.9275      0.00000
  25645     401.9329      0.00000
  25646     401.9485      0.00000
  25647     401.9576      0.00000
  25648     401.9612      0.00000
  25649     401.9680      0.00000
  25650     401.9783      0.00000
  25651     401.9947      0.00000
  25652     402.0095      0.00000
  25653     402.0159      0.00000
  25654     402.0173      0.00000
  25655     402.0350      0.00000
  25656     402.0386      0.00000
  25657     402.0454      0.00000
  25658     402.0650      0.00000
  25659     402.0699      0.00000
  25660     402.0736      0.00000
  25661     402.0878      0.00000
  25662     402.0964      0.00000
  25663     402.1045      0.00000
  25664     402.1071      0.00000
  25665     402.1259      0.00000
  25666     402.1452      0.00000
  25667     402.1501      0.00000
  25668     402.1563      0.00000
  25669     402.1660      0.00000
  25670     402.1791      0.00000
  25671     402.1951      0.00000
  25672     402.2005      0.00000
  25673     402.2069      0.00000
  25674     402.2181      0.00000
  25675     402.2270      0.00000
  25676     402.2281      0.00000
  25677     402.2373      0.00000
  25678     402.2463      0.00000
  25679     402.2561      0.00000
  25680     402.2714      0.00000
  25681     402.2749      0.00000
  25682     402.2877      0.00000
  25683     402.3023      0.00000
  25684     402.3080      0.00000
  25685     402.3194      0.00000
  25686     402.3273      0.00000
  25687     402.3310      0.00000
  25688     402.3494      0.00000
  25689     402.3554      0.00000
  25690     402.3612      0.00000
  25691     402.3678      0.00000
  25692     402.3760      0.00000
  25693     402.3906      0.00000
  25694     402.4114      0.00000
  25695     402.4123      0.00000
  25696     402.4174      0.00000
  25697     402.4306      0.00000
  25698     402.4329      0.00000
  25699     402.4504      0.00000
  25700     402.4578      0.00000
  25701     402.4700      0.00000
  25702     402.4737      0.00000
  25703     402.4813      0.00000
  25704     402.4857      0.00000
  25705     402.4968      0.00000
  25706     402.4986      0.00000
  25707     402.5125      0.00000
  25708     402.5172      0.00000
  25709     402.5213      0.00000
  25710     402.5284      0.00000
  25711     402.5402      0.00000
  25712     402.5554      0.00000
  25713     402.5648      0.00000
  25714     402.5668      0.00000
  25715     402.5817      0.00000
  25716     402.5877      0.00000
  25717     402.5895      0.00000
  25718     402.6038      0.00000
  25719     402.6114      0.00000
  25720     402.6184      0.00000
  25721     402.6327      0.00000
  25722     402.6471      0.00000
  25723     402.6597      0.00000
  25724     402.6722      0.00000
  25725     402.6788      0.00000
  25726     402.6910      0.00000
  25727     402.6961      0.00000
  25728     402.7058      0.00000
  25729     402.7121      0.00000
  25730     402.7231      0.00000
  25731     402.7330      0.00000
  25732     402.7428      0.00000
  25733     402.7543      0.00000
  25734     402.7558      0.00000
  25735     402.7577      0.00000
  25736     402.7666      0.00000
  25737     402.7792      0.00000
  25738     402.7905      0.00000
  25739     402.7972      0.00000
  25740     402.8107      0.00000
  25741     402.8169      0.00000
  25742     402.8336      0.00000
  25743     402.8423      0.00000
  25744     402.8468      0.00000
  25745     402.8535      0.00000
  25746     402.8607      0.00000
  25747     402.8758      0.00000
  25748     402.8829      0.00000
  25749     402.9022      0.00000
  25750     402.9118      0.00000
  25751     402.9199      0.00000
  25752     402.9244      0.00000
  25753     402.9288      0.00000
  25754     402.9330      0.00000
  25755     402.9477      0.00000
  25756     402.9547      0.00000
  25757     402.9648      0.00000
  25758     402.9770      0.00000
  25759     402.9902      0.00000
  25760     403.0018      0.00000
  25761     403.0035      0.00000
  25762     403.0089      0.00000
  25763     403.0219      0.00000
  25764     403.0314      0.00000
  25765     403.0385      0.00000
  25766     403.0439      0.00000
  25767     403.0497      0.00000
  25768     403.0602      0.00000
  25769     403.0708      0.00000
  25770     403.0753      0.00000
  25771     403.0999      0.00000
  25772     403.1008      0.00000
  25773     403.1209      0.00000
  25774     403.1242      0.00000
  25775     403.1366      0.00000
  25776     403.1429      0.00000
  25777     403.1462      0.00000
  25778     403.1518      0.00000
  25779     403.1588      0.00000
  25780     403.1680      0.00000
  25781     403.1780      0.00000
  25782     403.1902      0.00000
  25783     403.1972      0.00000
  25784     403.2097      0.00000
  25785     403.2150      0.00000
  25786     403.2200      0.00000
  25787     403.2264      0.00000
  25788     403.2451      0.00000
  25789     403.2600      0.00000
  25790     403.2685      0.00000
  25791     403.2739      0.00000
  25792     403.2821      0.00000
  25793     403.2857      0.00000
  25794     403.2897      0.00000
  25795     403.3022      0.00000
  25796     403.3098      0.00000
  25797     403.3279      0.00000
  25798     403.3344      0.00000
  25799     403.3374      0.00000
  25800     403.3466      0.00000
  25801     403.3527      0.00000
  25802     403.3680      0.00000
  25803     403.3856      0.00000
  25804     403.3947      0.00000
  25805     403.4037      0.00000
  25806     403.4089      0.00000
  25807     403.4174      0.00000
  25808     403.4193      0.00000
  25809     403.4268      0.00000
  25810     403.4442      0.00000
  25811     403.4505      0.00000
  25812     403.4538      0.00000
  25813     403.4708      0.00000
  25814     403.4773      0.00000
  25815     403.4852      0.00000
  25816     403.4908      0.00000
  25817     403.5031      0.00000
  25818     403.5122      0.00000
  25819     403.5143      0.00000
  25820     403.5313      0.00000
  25821     403.5477      0.00000
  25822     403.5602      0.00000
  25823     403.5644      0.00000
  25824     403.5737      0.00000
  25825     403.5852      0.00000
  25826     403.5976      0.00000
  25827     403.6087      0.00000
  25828     403.6131      0.00000
  25829     403.6199      0.00000
  25830     403.6204      0.00000
  25831     403.6408      0.00000
  25832     403.6528      0.00000
  25833     403.6638      0.00000
  25834     403.6664      0.00000
  25835     403.6844      0.00000
  25836     403.6968      0.00000
  25837     403.7118      0.00000
  25838     403.7175      0.00000
  25839     403.7229      0.00000
  25840     403.7352      0.00000
  25841     403.7507      0.00000
  25842     403.7584      0.00000
  25843     403.7653      0.00000
  25844     403.7786      0.00000
  25845     403.7794      0.00000
  25846     403.7935      0.00000
  25847     403.8059      0.00000
  25848     403.8160      0.00000
  25849     403.8271      0.00000
  25850     403.8446      0.00000
  25851     403.8503      0.00000
  25852     403.8657      0.00000
  25853     403.8724      0.00000
  25854     403.8826      0.00000
  25855     403.8887      0.00000
  25856     403.9053      0.00000
  25857     403.9216      0.00000
  25858     403.9284      0.00000
  25859     403.9317      0.00000
  25860     403.9376      0.00000
  25861     403.9482      0.00000
  25862     403.9604      0.00000
  25863     403.9724      0.00000
  25864     403.9842      0.00000
  25865     403.9852      0.00000
  25866     403.9983      0.00000
  25867     404.0165      0.00000
  25868     404.0320      0.00000
  25869     404.0369      0.00000
  25870     404.0468      0.00000
  25871     404.0614      0.00000
  25872     404.0873      0.00000
  25873     404.0969      0.00000
  25874     404.1095      0.00000
  25875     404.1185      0.00000
  25876     404.1247      0.00000
  25877     404.1394      0.00000
  25878     404.1520      0.00000
  25879     404.1570      0.00000
  25880     404.1629      0.00000
  25881     404.1846      0.00000
  25882     404.2021      0.00000
  25883     404.2103      0.00000
  25884     404.2107      0.00000
  25885     404.2247      0.00000
  25886     404.2310      0.00000
  25887     404.2491      0.00000
  25888     404.2607      0.00000
  25889     404.2718      0.00000
  25890     404.2870      0.00000
  25891     404.3042      0.00000
  25892     404.3136      0.00000
  25893     404.3331      0.00000
  25894     404.3412      0.00000
  25895     404.3453      0.00000
  25896     404.3551      0.00000
  25897     404.3688      0.00000
  25898     404.3799      0.00000
  25899     404.3843      0.00000
  25900     404.3916      0.00000
  25901     404.4021      0.00000
  25902     404.4181      0.00000
  25903     404.4346      0.00000
  25904     404.4519      0.00000
  25905     404.4680      0.00000
  25906     404.4722      0.00000
  25907     404.4795      0.00000
  25908     404.4879      0.00000
  25909     404.4941      0.00000
  25910     404.5176      0.00000
  25911     404.5226      0.00000
  25912     404.5333      0.00000
  25913     404.5603      0.00000
  25914     404.5687      0.00000
  25915     404.5757      0.00000
  25916     404.5899      0.00000
  25917     404.5960      0.00000
  25918     404.5993      0.00000
  25919     404.6207      0.00000
  25920     404.6278      0.00000
  25921     404.6381      0.00000
  25922     404.6492      0.00000
  25923     404.6633      0.00000
  25924     404.6794      0.00000
  25925     404.6849      0.00000
  25926     404.6912      0.00000
  25927     404.6931      0.00000
  25928     404.7154      0.00000
  25929     404.7251      0.00000
  25930     404.7381      0.00000
  25931     404.7426      0.00000
  25932     404.7608      0.00000
  25933     404.7658      0.00000
  25934     404.7863      0.00000
  25935     404.7869      0.00000
  25936     404.7975      0.00000
  25937     404.8141      0.00000
  25938     404.8192      0.00000
  25939     404.8300      0.00000
  25940     404.8370      0.00000
  25941     404.8454      0.00000
  25942     404.8519      0.00000
  25943     404.8814      0.00000
  25944     404.8843      0.00000
  25945     404.8958      0.00000
  25946     404.9006      0.00000
  25947     404.9218      0.00000
  25948     404.9301      0.00000
  25949     404.9343      0.00000
  25950     404.9511      0.00000
  25951     404.9709      0.00000
  25952     404.9852      0.00000
  25953     404.9895      0.00000
  25954     405.0123      0.00000
  25955     405.0209      0.00000
  25956     405.0424      0.00000
  25957     405.0591      0.00000
  25958     405.0611      0.00000
  25959     405.0658      0.00000
  25960     405.0763      0.00000
  25961     405.0881      0.00000
  25962     405.1072      0.00000
  25963     405.1102      0.00000
  25964     405.1329      0.00000
  25965     405.1435      0.00000
  25966     405.1488      0.00000
  25967     405.1615      0.00000
  25968     405.1740      0.00000
  25969     405.1873      0.00000
  25970     405.2000      0.00000
  25971     405.2088      0.00000
  25972     405.2230      0.00000
  25973     405.2416      0.00000
  25974     405.2564      0.00000
  25975     405.2647      0.00000
  25976     405.2683      0.00000
  25977     405.2765      0.00000
  25978     405.2892      0.00000
  25979     405.3040      0.00000
  25980     405.3096      0.00000
  25981     405.3175      0.00000
  25982     405.3311      0.00000
  25983     405.3428      0.00000
  25984     405.3499      0.00000
  25985     405.3650      0.00000
  25986     405.3717      0.00000
  25987     405.3783      0.00000
  25988     405.3862      0.00000
  25989     405.3894      0.00000
  25990     405.4009      0.00000
  25991     405.4232      0.00000
  25992     405.4280      0.00000
  25993     405.4382      0.00000
  25994     405.4605      0.00000
  25995     405.4612      0.00000
  25996     405.4748      0.00000
  25997     405.4907      0.00000
  25998     405.5087      0.00000
  25999     405.5158      0.00000
  26000     405.5173      0.00000
  26001     405.5251      0.00000
  26002     405.5392      0.00000
  26003     405.5597      0.00000
  26004     405.5713      0.00000
  26005     405.5759      0.00000
  26006     405.5852      0.00000
  26007     405.5875      0.00000
  26008     405.5943      0.00000
  26009     405.6132      0.00000
  26010     405.6279      0.00000
  26011     405.6356      0.00000
  26012     405.6390      0.00000
  26013     405.6556      0.00000
  26014     405.6619      0.00000
  26015     405.6701      0.00000
  26016     405.6813      0.00000
  26017     405.6995      0.00000
  26018     405.7095      0.00000
  26019     405.7154      0.00000
  26020     405.7277      0.00000
  26021     405.7298      0.00000
  26022     405.7574      0.00000
  26023     405.7658      0.00000
  26024     405.7813      0.00000
  26025     405.7840      0.00000
  26026     405.7907      0.00000
  26027     405.8049      0.00000
  26028     405.8118      0.00000
  26029     405.8215      0.00000
  26030     405.8306      0.00000
  26031     405.8410      0.00000
  26032     405.8529      0.00000
  26033     405.8594      0.00000
  26034     405.8707      0.00000
  26035     405.8734      0.00000
  26036     405.8817      0.00000
  26037     405.8995      0.00000
  26038     405.9230      0.00000
  26039     405.9284      0.00000
  26040     405.9369      0.00000
  26041     405.9454      0.00000
  26042     405.9508      0.00000
  26043     405.9572      0.00000
  26044     405.9691      0.00000
  26045     405.9774      0.00000
  26046     405.9917      0.00000
  26047     405.9936      0.00000
  26048     406.0024      0.00000
  26049     406.0113      0.00000
  26050     406.0233      0.00000
  26051     406.0287      0.00000
  26052     406.0370      0.00000
  26053     406.0552      0.00000
  26054     406.0678      0.00000
  26055     406.0737      0.00000
  26056     406.0793      0.00000
  26057     406.0936      0.00000
  26058     406.1014      0.00000
  26059     406.1046      0.00000
  26060     406.1231      0.00000
  26061     406.1264      0.00000
  26062     406.1400      0.00000
  26063     406.1461      0.00000
  26064     406.1654      0.00000
  26065     406.1691      0.00000
  26066     406.1771      0.00000
  26067     406.1831      0.00000
  26068     406.1972      0.00000
  26069     406.2069      0.00000
  26070     406.2107      0.00000
  26071     406.2254      0.00000
  26072     406.2368      0.00000
  26073     406.2526      0.00000
  26074     406.2643      0.00000
  26075     406.2692      0.00000
  26076     406.2828      0.00000
  26077     406.2869      0.00000
  26078     406.2954      0.00000
  26079     406.3070      0.00000
  26080     406.3122      0.00000
  26081     406.3179      0.00000
  26082     406.3247      0.00000
  26083     406.3347      0.00000
  26084     406.3450      0.00000
  26085     406.3472      0.00000
  26086     406.3603      0.00000
  26087     406.3652      0.00000
  26088     406.3716      0.00000
  26089     406.3744      0.00000
  26090     406.3800      0.00000
  26091     406.3949      0.00000
  26092     406.4145      0.00000
  26093     406.4174      0.00000
  26094     406.4265      0.00000
  26095     406.4374      0.00000
  26096     406.4461      0.00000
  26097     406.4496      0.00000
  26098     406.4552      0.00000
  26099     406.4770      0.00000
  26100     406.4927      0.00000
  26101     406.4951      0.00000
  26102     406.5145      0.00000
  26103     406.5220      0.00000
  26104     406.5274      0.00000
  26105     406.5329      0.00000
  26106     406.5385      0.00000
  26107     406.5490      0.00000
  26108     406.5641      0.00000
  26109     406.5652      0.00000
  26110     406.5879      0.00000
  26111     406.5907      0.00000
  26112     406.5983      0.00000
  26113     406.6035      0.00000
  26114     406.6259      0.00000
  26115     406.6321      0.00000
  26116     406.6497      0.00000
  26117     406.6550      0.00000
  26118     406.6645      0.00000
  26119     406.6704      0.00000
  26120     406.6756      0.00000
  26121     406.6861      0.00000
  26122     406.6941      0.00000
  26123     406.7093      0.00000
  26124     406.7150      0.00000
  26125     406.7248      0.00000
  26126     406.7308      0.00000
  26127     406.7466      0.00000
  26128     406.7668      0.00000
  26129     406.7707      0.00000
  26130     406.7743      0.00000
  26131     406.7948      0.00000
  26132     406.8053      0.00000
  26133     406.8104      0.00000
  26134     406.8185      0.00000
  26135     406.8287      0.00000
  26136     406.8369      0.00000
  26137     406.8442      0.00000
  26138     406.8478      0.00000
  26139     406.8615      0.00000
  26140     406.8721      0.00000
  26141     406.8813      0.00000
  26142     406.8954      0.00000
  26143     406.8999      0.00000
  26144     406.9081      0.00000
  26145     406.9172      0.00000
  26146     406.9277      0.00000
  26147     406.9366      0.00000
  26148     406.9543      0.00000
  26149     406.9632      0.00000
  26150     406.9758      0.00000
  26151     406.9817      0.00000
  26152     406.9926      0.00000
  26153     406.9995      0.00000
  26154     407.0035      0.00000
  26155     407.0111      0.00000
  26156     407.0260      0.00000
  26157     407.0371      0.00000
  26158     407.0447      0.00000
  26159     407.0549      0.00000
  26160     407.0611      0.00000
  26161     407.0698      0.00000
  26162     407.0818      0.00000
  26163     407.0858      0.00000
  26164     407.1045      0.00000
  26165     407.1100      0.00000
  26166     407.1216      0.00000
  26167     407.1288      0.00000
  26168     407.1411      0.00000
  26169     407.1471      0.00000
  26170     407.1601      0.00000
  26171     407.1625      0.00000
  26172     407.1706      0.00000
  26173     407.1831      0.00000
  26174     407.1880      0.00000
  26175     407.1933      0.00000
  26176     407.2059      0.00000
  26177     407.2107      0.00000
  26178     407.2255      0.00000
  26179     407.2361      0.00000
  26180     407.2440      0.00000
  26181     407.2488      0.00000
  26182     407.2517      0.00000
  26183     407.2700      0.00000
  26184     407.2817      0.00000
  26185     407.2876      0.00000
  26186     407.2940      0.00000
  26187     407.3098      0.00000
  26188     407.3200      0.00000
  26189     407.3251      0.00000
  26190     407.3291      0.00000
  26191     407.3404      0.00000
  26192     407.3535      0.00000
  26193     407.3587      0.00000
  26194     407.3692      0.00000
  26195     407.3712      0.00000
  26196     407.3843      0.00000
  26197     407.3972      0.00000
  26198     407.4098      0.00000
  26199     407.4148      0.00000
  26200     407.4210      0.00000
  26201     407.4293      0.00000
  26202     407.4396      0.00000
  26203     407.4570      0.00000
  26204     407.4603      0.00000
  26205     407.4687      0.00000
  26206     407.4827      0.00000
  26207     407.4934      0.00000
  26208     407.5008      0.00000
  26209     407.5083      0.00000
  26210     407.5185      0.00000
  26211     407.5242      0.00000
  26212     407.5413      0.00000
  26213     407.5482      0.00000
  26214     407.5539      0.00000
  26215     407.5623      0.00000
  26216     407.5780      0.00000
  26217     407.5900      0.00000
  26218     407.5903      0.00000
  26219     407.5998      0.00000
  26220     407.6013      0.00000
  26221     407.6041      0.00000
  26222     407.6224      0.00000
  26223     407.6250      0.00000
  26224     407.6300      0.00000
  26225     407.6424      0.00000
  26226     407.6505      0.00000
  26227     407.6555      0.00000
  26228     407.6646      0.00000
  26229     407.6707      0.00000
  26230     407.6812      0.00000
  26231     407.6971      0.00000
  26232     407.7033      0.00000
  26233     407.7073      0.00000
  26234     407.7178      0.00000
  26235     407.7313      0.00000
  26236     407.7351      0.00000
  26237     407.7475      0.00000
  26238     407.7503      0.00000
  26239     407.7568      0.00000
  26240     407.7690      0.00000
  26241     407.7705      0.00000
  26242     407.7851      0.00000
  26243     407.7895      0.00000
  26244     407.7968      0.00000
  26245     407.8083      0.00000
  26246     407.8195      0.00000
  26247     407.8230      0.00000
  26248     407.8348      0.00000
  26249     407.8376      0.00000
  26250     407.8459      0.00000
  26251     407.8524      0.00000
  26252     407.8576      0.00000
  26253     407.8693      0.00000
  26254     407.8788      0.00000
  26255     407.8895      0.00000
  26256     407.8967      0.00000
  26257     407.9092      0.00000
  26258     407.9188      0.00000
  26259     407.9231      0.00000
  26260     407.9282      0.00000
  26261     407.9392      0.00000
  26262     407.9417      0.00000
  26263     407.9474      0.00000
  26264     407.9567      0.00000
  26265     407.9594      0.00000
  26266     407.9721      0.00000
  26267     407.9789      0.00000
  26268     407.9844      0.00000
  26269     407.9983      0.00000
  26270     408.0006      0.00000
  26271     408.0054      0.00000
  26272     408.0126      0.00000
  26273     408.0265      0.00000
  26274     408.0360      0.00000
  26275     408.0445      0.00000
  26276     408.0453      0.00000
  26277     408.0615      0.00000
  26278     408.0668      0.00000
  26279     408.0735      0.00000
  26280     408.0817      0.00000
  26281     408.0965      0.00000
  26282     408.1013      0.00000
  26283     408.1096      0.00000
  26284     408.1176      0.00000
  26285     408.1262      0.00000
  26286     408.1343      0.00000
  26287     408.1395      0.00000
  26288     408.1490      0.00000
  26289     408.1729      0.00000
  26290     408.1842      0.00000
  26291     408.1920      0.00000
  26292     408.1971      0.00000
  26293     408.2006      0.00000
  26294     408.2114      0.00000
  26295     408.2210      0.00000
  26296     408.2256      0.00000
  26297     408.2442      0.00000
  26298     408.2466      0.00000
  26299     408.2602      0.00000
  26300     408.2714      0.00000
  26301     408.2775      0.00000
  26302     408.2801      0.00000
  26303     408.2921      0.00000
  26304     408.3076      0.00000
  26305     408.3092      0.00000
  26306     408.3245      0.00000
  26307     408.3401      0.00000
  26308     408.3491      0.00000
  26309     408.3509      0.00000
  26310     408.3554      0.00000
  26311     408.3691      0.00000
  26312     408.3736      0.00000
  26313     408.3804      0.00000
  26314     408.3891      0.00000
  26315     408.3956      0.00000
  26316     408.4107      0.00000
  26317     408.4148      0.00000
  26318     408.4311      0.00000
  26319     408.4436      0.00000
  26320     408.4451      0.00000
  26321     408.4570      0.00000
  26322     408.4775      0.00000
  26323     408.4844      0.00000
  26324     408.4964      0.00000
  26325     408.5090      0.00000
  26326     408.5117      0.00000
  26327     408.5170      0.00000
  26328     408.5279      0.00000
  26329     408.5409      0.00000
  26330     408.5535      0.00000
  26331     408.5666      0.00000
  26332     408.5750      0.00000
  26333     408.5792      0.00000
  26334     408.5939      0.00000
  26335     408.6026      0.00000
  26336     408.6217      0.00000
  26337     408.6306      0.00000
  26338     408.6339      0.00000
  26339     408.6386      0.00000
  26340     408.6624      0.00000
  26341     408.6645      0.00000
  26342     408.6855      0.00000
  26343     408.6971      0.00000
  26344     408.7003      0.00000
  26345     408.7112      0.00000
  26346     408.7141      0.00000
  26347     408.7321      0.00000
  26348     408.7342      0.00000
  26349     408.7575      0.00000
  26350     408.7695      0.00000
  26351     408.7870      0.00000
  26352     408.7956      0.00000
  26353     408.8083      0.00000
  26354     408.8368      0.00000
  26355     408.8373      0.00000
  26356     408.8404      0.00000
  26357     408.8485      0.00000
  26358     408.8583      0.00000
  26359     408.8756      0.00000
  26360     408.8957      0.00000
  26361     408.8995      0.00000
  26362     408.9084      0.00000
  26363     408.9182      0.00000
  26364     408.9259      0.00000
  26365     408.9392      0.00000
  26366     408.9550      0.00000
  26367     408.9719      0.00000
  26368     408.9879      0.00000
  26369     409.0052      0.00000
  26370     409.0069      0.00000
  26371     409.0159      0.00000
  26372     409.0218      0.00000
  26373     409.0356      0.00000
  26374     409.0430      0.00000
  26375     409.0486      0.00000
  26376     409.0596      0.00000
  26377     409.0661      0.00000
  26378     409.0827      0.00000
  26379     409.0974      0.00000
  26380     409.1127      0.00000
  26381     409.1153      0.00000
  26382     409.1288      0.00000
  26383     409.1320      0.00000
  26384     409.1404      0.00000
  26385     409.1539      0.00000
  26386     409.1660      0.00000
  26387     409.1722      0.00000
  26388     409.1853      0.00000
  26389     409.1938      0.00000
  26390     409.2105      0.00000
  26391     409.2176      0.00000
  26392     409.2197      0.00000
  26393     409.2427      0.00000
  26394     409.2482      0.00000
  26395     409.2568      0.00000
  26396     409.2680      0.00000
  26397     409.2827      0.00000
  26398     409.2884      0.00000
  26399     409.3025      0.00000
  26400     409.3139      0.00000
  26401     409.3271      0.00000
  26402     409.3430      0.00000
  26403     409.3447      0.00000
  26404     409.3549      0.00000
  26405     409.3657      0.00000
  26406     409.3750      0.00000
  26407     409.3874      0.00000
  26408     409.3911      0.00000
  26409     409.4016      0.00000
  26410     409.4126      0.00000
  26411     409.4211      0.00000
  26412     409.4375      0.00000
  26413     409.4443      0.00000
  26414     409.4478      0.00000
  26415     409.4554      0.00000
  26416     409.4725      0.00000
  26417     409.4827      0.00000
  26418     409.4957      0.00000
  26419     409.4990      0.00000
  26420     409.5029      0.00000
  26421     409.5287      0.00000
  26422     409.5321      0.00000
  26423     409.5530      0.00000
  26424     409.5578      0.00000
  26425     409.5694      0.00000
  26426     409.5765      0.00000
  26427     409.5967      0.00000
  26428     409.6037      0.00000
  26429     409.6206      0.00000
  26430     409.6275      0.00000
  26431     409.6438      0.00000
  26432     409.6567      0.00000
  26433     409.6607      0.00000
  26434     409.6670      0.00000
  26435     409.6730      0.00000
  26436     409.6847      0.00000
  26437     409.6996      0.00000
  26438     409.7031      0.00000
  26439     409.7278      0.00000
  26440     409.7332      0.00000
  26441     409.7391      0.00000
  26442     409.7457      0.00000
  26443     409.7593      0.00000
  26444     409.7833      0.00000
  26445     409.7916      0.00000
  26446     409.8054      0.00000
  26447     409.8215      0.00000
  26448     409.8281      0.00000
  26449     409.8441      0.00000
  26450     409.8697      0.00000
  26451     409.8764      0.00000
  26452     409.8815      0.00000
  26453     409.8891      0.00000
  26454     409.8991      0.00000
  26455     409.9108      0.00000
  26456     409.9143      0.00000
  26457     409.9352      0.00000
  26458     409.9483      0.00000
  26459     409.9589      0.00000
  26460     409.9781      0.00000
  26461     409.9830      0.00000
  26462     409.9945      0.00000
  26463     410.0149      0.00000
  26464     410.0322      0.00000
  26465     410.0453      0.00000
  26466     410.0480      0.00000
  26467     410.0681      0.00000
  26468     410.0763      0.00000
  26469     410.0821      0.00000
  26470     410.0929      0.00000
  26471     410.1043      0.00000
  26472     410.1136      0.00000
  26473     410.1291      0.00000
  26474     410.1520      0.00000
  26475     410.1730      0.00000
  26476     410.1770      0.00000
  26477     410.1972      0.00000
  26478     410.2060      0.00000
  26479     410.2129      0.00000
  26480     410.2186      0.00000
  26481     410.2424      0.00000
  26482     410.2511      0.00000
  26483     410.2593      0.00000
  26484     410.2693      0.00000
  26485     410.2780      0.00000
  26486     410.2842      0.00000
  26487     410.2970      0.00000
  26488     410.3134      0.00000
  26489     410.3278      0.00000
  26490     410.3377      0.00000
  26491     410.3393      0.00000
  26492     410.3484      0.00000
  26493     410.3709      0.00000
  26494     410.3772      0.00000
  26495     410.3801      0.00000
  26496     410.4103      0.00000
  26497     410.4193      0.00000
  26498     410.4206      0.00000
  26499     410.4416      0.00000
  26500     410.4557      0.00000
  26501     410.4671      0.00000
  26502     410.4770      0.00000
  26503     410.4939      0.00000
  26504     410.5067      0.00000
  26505     410.5191      0.00000
  26506     410.5276      0.00000
  26507     410.5364      0.00000
  26508     410.5384      0.00000
  26509     410.5656      0.00000
  26510     410.5718      0.00000
  26511     410.5869      0.00000
  26512     410.5893      0.00000
  26513     410.6066      0.00000
  26514     410.6124      0.00000
  26515     410.6184      0.00000
  26516     410.6300      0.00000
  26517     410.6378      0.00000
  26518     410.6544      0.00000
  26519     410.6606      0.00000
  26520     410.6671      0.00000
  26521     410.6835      0.00000
  26522     410.6904      0.00000
  26523     410.7075      0.00000
  26524     410.7295      0.00000
  26525     410.7364      0.00000
  26526     410.7417      0.00000
  26527     410.7545      0.00000
  26528     410.7759      0.00000
  26529     410.7831      0.00000
  26530     410.7960      0.00000
  26531     410.7996      0.00000
  26532     410.8229      0.00000
  26533     410.8271      0.00000
  26534     410.8547      0.00000
  26535     410.8641      0.00000
  26536     410.8738      0.00000
  26537     410.8834      0.00000
  26538     410.8953      0.00000
  26539     410.8987      0.00000
  26540     410.9107      0.00000
  26541     410.9145      0.00000
  26542     410.9269      0.00000
  26543     410.9356      0.00000
  26544     410.9546      0.00000
  26545     410.9677      0.00000
  26546     410.9791      0.00000
  26547     410.9983      0.00000
  26548     411.0068      0.00000
  26549     411.0136      0.00000
  26550     411.0174      0.00000
  26551     411.0409      0.00000
  26552     411.0538      0.00000
  26553     411.0716      0.00000
  26554     411.0744      0.00000
  26555     411.0805      0.00000
  26556     411.1083      0.00000
  26557     411.1140      0.00000
  26558     411.1251      0.00000
  26559     411.1375      0.00000
  26560     411.1431      0.00000
  26561     411.1567      0.00000
  26562     411.1752      0.00000
  26563     411.1808      0.00000
  26564     411.2007      0.00000
  26565     411.2117      0.00000
  26566     411.2156      0.00000
  26567     411.2305      0.00000
  26568     411.2376      0.00000
  26569     411.2449      0.00000
  26570     411.2628      0.00000
  26571     411.2753      0.00000
  26572     411.2796      0.00000
  26573     411.3047      0.00000
  26574     411.3081      0.00000
  26575     411.3227      0.00000
  26576     411.3439      0.00000
  26577     411.3535      0.00000
  26578     411.3686      0.00000
  26579     411.3850      0.00000
  26580     411.3989      0.00000
  26581     411.4189      0.00000
  26582     411.4257      0.00000
  26583     411.4358      0.00000
  26584     411.4483      0.00000
  26585     411.4675      0.00000
  26586     411.4755      0.00000
  26587     411.4834      0.00000
  26588     411.5002      0.00000
  26589     411.5046      0.00000
  26590     411.5162      0.00000
  26591     411.5372      0.00000
  26592     411.5525      0.00000
  26593     411.5576      0.00000
  26594     411.5736      0.00000
  26595     411.5862      0.00000
  26596     411.5931      0.00000
  26597     411.6042      0.00000
  26598     411.6113      0.00000
  26599     411.6184      0.00000
  26600     411.6314      0.00000
  26601     411.6560      0.00000
  26602     411.6645      0.00000
  26603     411.6728      0.00000
  26604     411.6753      0.00000
  26605     411.6974      0.00000
  26606     411.7007      0.00000
  26607     411.7098      0.00000
  26608     411.7201      0.00000
  26609     411.7389      0.00000
  26610     411.7423      0.00000
  26611     411.7654      0.00000
  26612     411.7770      0.00000
  26613     411.7812      0.00000
  26614     411.7941      0.00000
  26615     411.8017      0.00000
  26616     411.8175      0.00000
  26617     411.8338      0.00000
  26618     411.8401      0.00000
  26619     411.8593      0.00000
  26620     411.8694      0.00000
  26621     411.8786      0.00000
  26622     411.8881      0.00000
  26623     411.8979      0.00000
  26624     411.9203      0.00000
  26625     411.9251      0.00000
  26626     411.9365      0.00000
  26627     411.9511      0.00000
  26628     411.9666      0.00000
  26629     411.9742      0.00000
  26630     411.9806      0.00000
  26631     411.9883      0.00000
  26632     411.9939      0.00000
  26633     411.9993      0.00000
  26634     412.0243      0.00000
  26635     412.0299      0.00000
  26636     412.0363      0.00000
  26637     412.0510      0.00000
  26638     412.0718      0.00000
  26639     412.0845      0.00000
  26640     412.1011      0.00000
  26641     412.1134      0.00000
  26642     412.1190      0.00000
  26643     412.1241      0.00000
  26644     412.1359      0.00000
  26645     412.1530      0.00000
  26646     412.1742      0.00000
  26647     412.1899      0.00000
  26648     412.2002      0.00000
  26649     412.2188      0.00000
  26650     412.2321      0.00000
  26651     412.2436      0.00000
  26652     412.2643      0.00000
  26653     412.2775      0.00000
  26654     412.2944      0.00000
  26655     412.3157      0.00000
  26656     412.3179      0.00000
  26657     412.3367      0.00000
  26658     412.3388      0.00000
  26659     412.3670      0.00000
  26660     412.3855      0.00000
  26661     412.4050      0.00000
  26662     412.4165      0.00000
  26663     412.4332      0.00000
  26664     412.4360      0.00000
  26665     412.4432      0.00000
  26666     412.4695      0.00000
  26667     412.4787      0.00000
  26668     412.4919      0.00000
  26669     412.5000      0.00000
  26670     412.5272      0.00000
  26671     412.5427      0.00000
  26672     412.5544      0.00000
  26673     412.5677      0.00000
  26674     412.5797      0.00000
  26675     412.5867      0.00000
  26676     412.5988      0.00000
  26677     412.6195      0.00000
  26678     412.6390      0.00000
  26679     412.6431      0.00000
  26680     412.6704      0.00000
  26681     412.6851      0.00000
  26682     412.6990      0.00000
  26683     412.7088      0.00000
  26684     412.7204      0.00000
  26685     412.7305      0.00000
  26686     412.7441      0.00000
  26687     412.7604      0.00000
  26688     412.7772      0.00000
  26689     412.7937      0.00000
  26690     412.7972      0.00000
  26691     412.8109      0.00000
  26692     412.8157      0.00000
  26693     412.8374      0.00000
  26694     412.8540      0.00000
  26695     412.8648      0.00000
  26696     412.8685      0.00000
  26697     412.8815      0.00000
  26698     412.9099      0.00000
  26699     412.9141      0.00000
  26700     412.9399      0.00000
  26701     412.9449      0.00000
  26702     412.9555      0.00000
  26703     412.9596      0.00000
  26704     412.9766      0.00000
  26705     413.0117      0.00000
  26706     413.0279      0.00000
  26707     413.0429      0.00000
  26708     413.0459      0.00000
  26709     413.0504      0.00000
  26710     413.0671      0.00000
  26711     413.0827      0.00000
  26712     413.0903      0.00000
  26713     413.0958      0.00000
  26714     413.1002      0.00000
  26715     413.1203      0.00000
  26716     413.1577      0.00000
  26717     413.1658      0.00000
  26718     413.1817      0.00000
  26719     413.1906      0.00000
  26720     413.1996      0.00000
  26721     413.2157      0.00000
  26722     413.2287      0.00000
  26723     413.2345      0.00000
  26724     413.2453      0.00000
  26725     413.2571      0.00000
  26726     413.2602      0.00000
  26727     413.2713      0.00000
  26728     413.2885      0.00000
  26729     413.2970      0.00000
  26730     413.3151      0.00000
  26731     413.3335      0.00000
  26732     413.3403      0.00000
  26733     413.3496      0.00000
  26734     413.3601      0.00000
  26735     413.3640      0.00000
  26736     413.3870      0.00000
  26737     413.3979      0.00000
  26738     413.4193      0.00000
  26739     413.4218      0.00000
  26740     413.4337      0.00000
  26741     413.4439      0.00000
  26742     413.4527      0.00000
  26743     413.4608      0.00000
  26744     413.4750      0.00000
  26745     413.4786      0.00000
  26746     413.5039      0.00000
  26747     413.5115      0.00000
  26748     413.5240      0.00000
  26749     413.5272      0.00000
  26750     413.5345      0.00000
  26751     413.5508      0.00000
  26752     413.5568      0.00000
  26753     413.5663      0.00000
  26754     413.5723      0.00000
  26755     413.5858      0.00000
  26756     413.5942      0.00000
  26757     413.6019      0.00000
  26758     413.6232      0.00000
  26759     413.6252      0.00000
  26760     413.6335      0.00000
  26761     413.6494      0.00000
  26762     413.6579      0.00000
  26763     413.6608      0.00000
  26764     413.6710      0.00000
  26765     413.6800      0.00000
  26766     413.6914      0.00000
  26767     413.6964      0.00000
  26768     413.7041      0.00000
  26769     413.7170      0.00000
  26770     413.7279      0.00000
  26771     413.7389      0.00000
  26772     413.7439      0.00000
  26773     413.7525      0.00000
  26774     413.7706      0.00000
  26775     413.7712      0.00000
  26776     413.7914      0.00000
  26777     413.7936      0.00000
  26778     413.8001      0.00000
  26779     413.8117      0.00000
  26780     413.8229      0.00000
  26781     413.8277      0.00000
  26782     413.8357      0.00000
  26783     413.8503      0.00000
  26784     413.8589      0.00000
  26785     413.8637      0.00000
  26786     413.8798      0.00000
  26787     413.8802      0.00000
  26788     413.8945      0.00000
  26789     413.9048      0.00000
  26790     413.9106      0.00000
  26791     413.9180      0.00000
  26792     413.9286      0.00000
  26793     413.9350      0.00000
  26794     413.9437      0.00000
  26795     413.9564      0.00000
  26796     413.9692      0.00000
  26797     413.9748      0.00000
  26798     413.9841      0.00000
  26799     413.9936      0.00000
  26800     414.0009      0.00000
  26801     414.0044      0.00000
  26802     414.0163      0.00000
  26803     414.0280      0.00000
  26804     414.0311      0.00000
  26805     414.0455      0.00000
  26806     414.0483      0.00000
  26807     414.0531      0.00000
  26808     414.0672      0.00000
  26809     414.0706      0.00000
  26810     414.0773      0.00000
  26811     414.0876      0.00000
  26812     414.0975      0.00000
  26813     414.1064      0.00000
  26814     414.1131      0.00000
  26815     414.1241      0.00000
  26816     414.1341      0.00000
  26817     414.1464      0.00000
  26818     414.1509      0.00000
  26819     414.1539      0.00000
  26820     414.1718      0.00000
  26821     414.1759      0.00000
  26822     414.1815      0.00000
  26823     414.1860      0.00000
  26824     414.1923      0.00000
  26825     414.2039      0.00000
  26826     414.2074      0.00000
  26827     414.2229      0.00000
  26828     414.2287      0.00000
  26829     414.2434      0.00000
  26830     414.2493      0.00000
  26831     414.2569      0.00000
  26832     414.2672      0.00000
  26833     414.2739      0.00000
  26834     414.2869      0.00000
  26835     414.2914      0.00000
  26836     414.3035      0.00000
  26837     414.3089      0.00000
  26838     414.3104      0.00000
  26839     414.3262      0.00000
  26840     414.3330      0.00000
  26841     414.3367      0.00000
  26842     414.3446      0.00000
  26843     414.3589      0.00000
  26844     414.3742      0.00000
  26845     414.3813      0.00000
  26846     414.3915      0.00000
  26847     414.3974      0.00000
  26848     414.4063      0.00000
  26849     414.4168      0.00000
  26850     414.4253      0.00000
  26851     414.4319      0.00000
  26852     414.4407      0.00000
  26853     414.4462      0.00000
  26854     414.4529      0.00000
  26855     414.4653      0.00000
  26856     414.4676      0.00000
  26857     414.4838      0.00000
  26858     414.4886      0.00000
  26859     414.4983      0.00000
  26860     414.5031      0.00000
  26861     414.5148      0.00000
  26862     414.5212      0.00000
  26863     414.5310      0.00000
  26864     414.5348      0.00000
  26865     414.5478      0.00000
  26866     414.5541      0.00000
  26867     414.5714      0.00000
  26868     414.5778      0.00000
  26869     414.5856      0.00000
  26870     414.5962      0.00000
  26871     414.6038      0.00000
  26872     414.6093      0.00000
  26873     414.6188      0.00000
  26874     414.6243      0.00000
  26875     414.6315      0.00000
  26876     414.6348      0.00000
  26877     414.6387      0.00000
  26878     414.6452      0.00000
  26879     414.6581      0.00000
  26880     414.6654      0.00000
  26881     414.6812      0.00000
  26882     414.6828      0.00000
  26883     414.6897      0.00000
  26884     414.6950      0.00000
  26885     414.7113      0.00000
  26886     414.7135      0.00000
  26887     414.7206      0.00000
  26888     414.7310      0.00000
  26889     414.7595      0.00000
  26890     414.7653      0.00000
  26891     414.7779      0.00000
  26892     414.7810      0.00000
  26893     414.7882      0.00000
  26894     414.7933      0.00000
  26895     414.7990      0.00000
  26896     414.8134      0.00000
  26897     414.8192      0.00000
  26898     414.8287      0.00000
  26899     414.8431      0.00000
  26900     414.8664      0.00000
  26901     414.8674      0.00000
  26902     414.8719      0.00000
  26903     414.8786      0.00000
  26904     414.8838      0.00000
  26905     414.9001      0.00000
  26906     414.9036      0.00000
  26907     414.9188      0.00000
  26908     414.9228      0.00000
  26909     414.9362      0.00000
  26910     414.9498      0.00000
  26911     414.9544      0.00000
  26912     414.9576      0.00000
  26913     414.9609      0.00000
  26914     414.9734      0.00000
  26915     414.9793      0.00000
  26916     414.9895      0.00000
  26917     414.9984      0.00000
  26918     415.0041      0.00000
  26919     415.0209      0.00000
  26920     415.0285      0.00000
  26921     415.0385      0.00000
  26922     415.0502      0.00000
  26923     415.0507      0.00000
  26924     415.0615      0.00000
  26925     415.0642      0.00000
  26926     415.0765      0.00000
  26927     415.0799      0.00000
  26928     415.0964      0.00000
  26929     415.1049      0.00000
  26930     415.1116      0.00000
  26931     415.1208      0.00000
  26932     415.1280      0.00000
  26933     415.1337      0.00000
  26934     415.1395      0.00000
  26935     415.1688      0.00000
  26936     415.1741      0.00000
  26937     415.1775      0.00000
  26938     415.1847      0.00000
  26939     415.1950      0.00000
  26940     415.2049      0.00000
  26941     415.2222      0.00000
  26942     415.2295      0.00000
  26943     415.2378      0.00000
  26944     415.2546      0.00000
  26945     415.2631      0.00000
  26946     415.2783      0.00000
  26947     415.2870      0.00000
  26948     415.2926      0.00000
  26949     415.3016      0.00000
  26950     415.3124      0.00000
  26951     415.3165      0.00000
  26952     415.3262      0.00000
  26953     415.3454      0.00000
  26954     415.3587      0.00000
  26955     415.3706      0.00000
  26956     415.3744      0.00000
  26957     415.3821      0.00000
  26958     415.3947      0.00000
  26959     415.3965      0.00000
  26960     415.4026      0.00000
  26961     415.4216      0.00000
  26962     415.4306      0.00000
  26963     415.4361      0.00000
  26964     415.4475      0.00000
  26965     415.4520      0.00000
  26966     415.4631      0.00000
  26967     415.4757      0.00000
  26968     415.4811      0.00000
  26969     415.4939      0.00000
  26970     415.5022      0.00000
  26971     415.5192      0.00000
  26972     415.5305      0.00000
  26973     415.5343      0.00000
  26974     415.5457      0.00000
  26975     415.5553      0.00000
  26976     415.5673      0.00000
  26977     415.5692      0.00000
  26978     415.5794      0.00000
  26979     415.5869      0.00000
  26980     415.5957      0.00000
  26981     415.6093      0.00000
  26982     415.6103      0.00000
  26983     415.6189      0.00000
  26984     415.6360      0.00000
  26985     415.6408      0.00000
  26986     415.6560      0.00000
  26987     415.6633      0.00000
  26988     415.6710      0.00000
  26989     415.6822      0.00000
  26990     415.6917      0.00000
  26991     415.7030      0.00000
  26992     415.7131      0.00000
  26993     415.7151      0.00000
  26994     415.7208      0.00000
  26995     415.7323      0.00000
  26996     415.7554      0.00000
  26997     415.7586      0.00000
  26998     415.7784      0.00000
  26999     415.7813      0.00000
  27000     415.7949      0.00000
  27001     415.8016      0.00000
  27002     415.8174      0.00000
  27003     415.8283      0.00000
  27004     415.8411      0.00000
  27005     415.8503      0.00000
  27006     415.8652      0.00000
  27007     415.8733      0.00000
  27008     415.8837      0.00000
  27009     415.8897      0.00000
  27010     415.9003      0.00000
  27011     415.9058      0.00000
  27012     415.9274      0.00000
  27013     415.9311      0.00000
  27014     415.9370      0.00000
  27015     415.9462      0.00000
  27016     415.9545      0.00000
  27017     415.9746      0.00000
  27018     415.9842      0.00000
  27019     415.9895      0.00000
  27020     415.9919      0.00000
  27021     416.0092      0.00000
  27022     416.0139      0.00000
  27023     416.0205      0.00000
  27024     416.0307      0.00000
  27025     416.0419      0.00000
  27026     416.0548      0.00000
  27027     416.0689      0.00000
  27028     416.0722      0.00000
  27029     416.0813      0.00000
  27030     416.1030      0.00000
  27031     416.1070      0.00000
  27032     416.1194      0.00000
  27033     416.1343      0.00000
  27034     416.1382      0.00000
  27035     416.1485      0.00000
  27036     416.1670      0.00000
  27037     416.1730      0.00000
  27038     416.1940      0.00000
  27039     416.1988      0.00000
  27040     416.2106      0.00000
  27041     416.2245      0.00000
  27042     416.2368      0.00000
  27043     416.2503      0.00000
  27044     416.2567      0.00000
  27045     416.2668      0.00000
  27046     416.2896      0.00000
  27047     416.2939      0.00000
  27048     416.2992      0.00000
  27049     416.3173      0.00000
  27050     416.3514      0.00000
  27051     416.3712      0.00000
  27052     416.3846      0.00000
  27053     416.3923      0.00000
  27054     416.4097      0.00000
  27055     416.4155      0.00000
  27056     416.4206      0.00000
  27057     416.4476      0.00000
  27058     416.4632      0.00000
  27059     416.4880      0.00000
  27060     416.5009      0.00000
  27061     416.5084      0.00000
  27062     416.5214      0.00000
  27063     416.5449      0.00000
  27064     416.5593      0.00000
  27065     416.5753      0.00000
  27066     416.5943      0.00000
  27067     416.6049      0.00000
  27068     416.6232      0.00000
  27069     416.6450      0.00000
  27070     416.6466      0.00000
  27071     416.6676      0.00000
  27072     416.6848      0.00000
  27073     416.6900      0.00000
  27074     416.7218      0.00000
  27075     416.7455      0.00000
  27076     416.7531      0.00000
  27077     416.7834      0.00000
  27078     416.8068      0.00000
  27079     416.8183      0.00000
  27080     416.8227      0.00000
  27081     416.8345      0.00000
  27082     416.8541      0.00000
  27083     416.8641      0.00000
  27084     416.8842      0.00000
  27085     416.9027      0.00000
  27086     416.9192      0.00000
  27087     416.9297      0.00000
  27088     416.9438      0.00000
  27089     416.9677      0.00000
  27090     416.9756      0.00000
  27091     417.0200      0.00000
  27092     417.0309      0.00000
  27093     417.0428      0.00000
  27094     417.0689      0.00000
  27095     417.0881      0.00000
  27096     417.1004      0.00000
  27097     417.1182      0.00000
  27098     417.1606      0.00000
  27099     417.1807      0.00000
  27100     417.2100      0.00000
  27101     417.2177      0.00000
  27102     417.2654      0.00000
  27103     417.2793      0.00000
  27104     417.2903      0.00000
  27105     417.3096      0.00000
  27106     417.3302      0.00000
  27107     417.3480      0.00000
  27108     417.3660      0.00000
  27109     417.3959      0.00000
  27110     417.4066      0.00000
  27111     417.4227      0.00000
  27112     417.4380      0.00000
  27113     417.4548      0.00000
  27114     417.4773      0.00000
  27115     417.5014      0.00000
  27116     417.5079      0.00000
  27117     417.5148      0.00000
  27118     417.5283      0.00000
  27119     417.5537      0.00000
  27120     417.5547      0.00000
  27121     417.5735      0.00000
  27122     417.5829      0.00000
  27123     417.5966      0.00000
  27124     417.6219      0.00000
  27125     417.6330      0.00000
  27126     417.6576      0.00000
  27127     417.6699      0.00000
  27128     417.6874      0.00000
  27129     417.6895      0.00000
  27130     417.7086      0.00000
  27131     417.7144      0.00000
  27132     417.7329      0.00000
  27133     417.7365      0.00000
  27134     417.7575      0.00000
  27135     417.7638      0.00000
  27136     417.7810      0.00000
  27137     417.7970      0.00000
  27138     417.8048      0.00000
  27139     417.8245      0.00000
  27140     417.8335      0.00000
  27141     417.8429      0.00000
  27142     417.8519      0.00000
  27143     417.8605      0.00000
  27144     417.8748      0.00000
  27145     417.8834      0.00000
  27146     417.8882      0.00000
  27147     417.8967      0.00000
  27148     417.9109      0.00000
  27149     417.9194      0.00000
  27150     417.9206      0.00000
  27151     417.9481      0.00000
  27152     417.9592      0.00000
  27153     417.9701      0.00000
  27154     417.9770      0.00000
  27155     417.9973      0.00000
  27156     418.0023      0.00000
  27157     418.0099      0.00000
  27158     418.0308      0.00000
  27159     418.0359      0.00000
  27160     418.0514      0.00000
  27161     418.0610      0.00000
  27162     418.0642      0.00000
  27163     418.0733      0.00000
  27164     418.0957      0.00000
  27165     418.1076      0.00000
  27166     418.1132      0.00000
  27167     418.1257      0.00000
  27168     418.1426      0.00000
  27169     418.1453      0.00000
  27170     418.1523      0.00000
  27171     418.1594      0.00000
  27172     418.1782      0.00000
  27173     418.1846      0.00000
  27174     418.1924      0.00000
  27175     418.1987      0.00000
  27176     418.2163      0.00000
  27177     418.2258      0.00000
  27178     418.2301      0.00000
  27179     418.2553      0.00000
  27180     418.2643      0.00000
  27181     418.2753      0.00000
  27182     418.2793      0.00000
  27183     418.2860      0.00000
  27184     418.2965      0.00000
  27185     418.3118      0.00000
  27186     418.3209      0.00000
  27187     418.3339      0.00000
  27188     418.3535      0.00000
  27189     418.3613      0.00000
  27190     418.3722      0.00000
  27191     418.3738      0.00000
  27192     418.3868      0.00000
  27193     418.4032      0.00000
  27194     418.4076      0.00000
  27195     418.4240      0.00000
  27196     418.4275      0.00000
  27197     418.4358      0.00000
  27198     418.4476      0.00000
  27199     418.4656      0.00000
  27200     418.4749      0.00000
  27201     418.4824      0.00000
  27202     418.4906      0.00000
  27203     418.5046      0.00000
  27204     418.5172      0.00000
  27205     418.5349      0.00000
  27206     418.5490      0.00000
  27207     418.5527      0.00000
  27208     418.5718      0.00000
  27209     418.5792      0.00000
  27210     418.5850      0.00000
  27211     418.5924      0.00000
  27212     418.6035      0.00000
  27213     418.6189      0.00000
  27214     418.6324      0.00000
  27215     418.6500      0.00000
  27216     418.6626      0.00000
  27217     418.6762      0.00000
  27218     418.6880      0.00000
  27219     418.7054      0.00000
  27220     418.7181      0.00000
  27221     418.7290      0.00000
  27222     418.7331      0.00000
  27223     418.7563      0.00000
  27224     418.7614      0.00000
  27225     418.7637      0.00000
  27226     418.7702      0.00000
  27227     418.7797      0.00000
  27228     418.7967      0.00000
  27229     418.8040      0.00000
  27230     418.8192      0.00000
  27231     418.8338      0.00000
  27232     418.8395      0.00000
  27233     418.8612      0.00000
  27234     418.8688      0.00000
  27235     418.8830      0.00000
  27236     418.8911      0.00000
  27237     418.9070      0.00000
  27238     418.9162      0.00000
  27239     418.9290      0.00000
  27240     418.9353      0.00000
  27241     418.9523      0.00000
  27242     418.9729      0.00000
  27243     418.9738      0.00000
  27244     418.9855      0.00000
  27245     418.9950      0.00000
  27246     419.0051      0.00000
  27247     419.0197      0.00000
  27248     419.0337      0.00000
  27249     419.0459      0.00000
  27250     419.0628      0.00000
  27251     419.0704      0.00000
  27252     419.0803      0.00000
  27253     419.0984      0.00000
  27254     419.1147      0.00000
  27255     419.1267      0.00000
  27256     419.1392      0.00000
  27257     419.1516      0.00000
  27258     419.1663      0.00000
  27259     419.1748      0.00000
  27260     419.1969      0.00000
  27261     419.2094      0.00000
  27262     419.2170      0.00000
  27263     419.2200      0.00000
  27264     419.2250      0.00000
  27265     419.2284      0.00000
  27266     419.2456      0.00000
  27267     419.2573      0.00000
  27268     419.2692      0.00000
  27269     419.2807      0.00000
  27270     419.2997      0.00000
  27271     419.3254      0.00000
  27272     419.3312      0.00000
  27273     419.3500      0.00000
  27274     419.3534      0.00000
  27275     419.3665      0.00000
  27276     419.3762      0.00000
  27277     419.3781      0.00000
  27278     419.4015      0.00000
  27279     419.4073      0.00000
  27280     419.4342      0.00000
  27281     419.4564      0.00000
  27282     419.4745      0.00000
  27283     419.4785      0.00000
  27284     419.4936      0.00000
  27285     419.4959      0.00000
  27286     419.5094      0.00000
  27287     419.5193      0.00000
  27288     419.5232      0.00000
  27289     419.5350      0.00000
  27290     419.5475      0.00000
  27291     419.5599      0.00000
  27292     419.5741      0.00000
  27293     419.5983      0.00000
  27294     419.6093      0.00000
  27295     419.6292      0.00000
  27296     419.6415      0.00000
  27297     419.6563      0.00000
  27298     419.6609      0.00000
  27299     419.6739      0.00000
  27300     419.6849      0.00000
  27301     419.6989      0.00000
  27302     419.7067      0.00000
  27303     419.7423      0.00000
  27304     419.7568      0.00000
  27305     419.7623      0.00000
  27306     419.7783      0.00000
  27307     419.7964      0.00000
  27308     419.8020      0.00000
  27309     419.8145      0.00000
  27310     419.8232      0.00000
  27311     419.8464      0.00000
  27312     419.8530      0.00000
  27313     419.8602      0.00000
  27314     419.8685      0.00000
  27315     419.8693      0.00000
  27316     419.8802      0.00000
  27317     419.9080      0.00000
  27318     419.9199      0.00000
  27319     419.9273      0.00000
  27320     419.9416      0.00000
  27321     419.9595      0.00000
  27322     419.9766      0.00000
  27323     419.9798      0.00000
  27324     419.9944      0.00000
  27325     420.0080      0.00000
  27326     420.0279      0.00000
  27327     420.0348      0.00000
  27328     420.0605      0.00000
  27329     420.0690      0.00000
  27330     420.0807      0.00000
  27331     420.1013      0.00000
  27332     420.1100      0.00000
  27333     420.1301      0.00000
  27334     420.1442      0.00000
  27335     420.1677      0.00000
  27336     420.1751      0.00000
  27337     420.1865      0.00000
  27338     420.1997      0.00000
  27339     420.2213      0.00000
  27340     420.2425      0.00000
  27341     420.2564      0.00000
  27342     420.2629      0.00000
  27343     420.2789      0.00000
  27344     420.2921      0.00000
  27345     420.2971      0.00000
  27346     420.3225      0.00000
  27347     420.3255      0.00000
  27348     420.3444      0.00000
  27349     420.3605      0.00000
  27350     420.3902      0.00000
  27351     420.4046      0.00000
  27352     420.4134      0.00000
  27353     420.4465      0.00000
  27354     420.4507      0.00000
  27355     420.4684      0.00000
  27356     420.4800      0.00000
  27357     420.4932      0.00000
  27358     420.4979      0.00000
  27359     420.5182      0.00000
  27360     420.5418      0.00000
  27361     420.5695      0.00000
  27362     420.5917      0.00000
  27363     420.6092      0.00000
  27364     420.6193      0.00000
  27365     420.6401      0.00000
  27366     420.6602      0.00000
  27367     420.6689      0.00000
  27368     420.6975      0.00000
  27369     420.7064      0.00000
  27370     420.7409      0.00000
  27371     420.7520      0.00000
  27372     420.7565      0.00000
  27373     420.8079      0.00000
  27374     420.8118      0.00000
  27375     420.8254      0.00000
  27376     420.8568      0.00000
  27377     420.8710      0.00000
  27378     420.8819      0.00000
  27379     420.9055      0.00000
  27380     420.9398      0.00000
  27381     420.9529      0.00000
  27382     420.9851      0.00000
  27383     421.0033      0.00000
  27384     421.0213      0.00000
  27385     421.0582      0.00000
  27386     421.0743      0.00000
  27387     421.0846      0.00000
  27388     421.1017      0.00000
  27389     421.1421      0.00000
  27390     421.1903      0.00000
  27391     421.2405      0.00000
  27392     421.2612      0.00000
  27393     421.2876      0.00000
  27394     421.2981      0.00000
  27395     421.3391      0.00000
  27396     421.4216      0.00000
  27397     421.4268      0.00000
  27398     421.5577      0.00000
  27399     421.6601      0.00000
  27400     421.8466      0.00000


--------------------------------------------------------------------------------------------------------


 soft charge-density along one line, spin component           1
         0         1         2         3         4         5         6         7         8         9
 total charge-density along one line
 
 pseudopotential strength for first ion, spin component:           1
  9.401 -14.475   0.000  -0.001   0.001   0.002  -0.004   0.005
-14.475  25.174  -0.000   0.001  -0.001  -0.003   0.007  -0.009
  0.000  -0.000  -3.729  -0.003   0.005  -0.072   0.011  -0.019
 -0.001   0.001  -0.003  -3.722  -0.011   0.011  -0.096   0.043
  0.001  -0.001   0.005  -0.011  -3.714  -0.019   0.043  -0.129
  0.002  -0.003  -0.072   0.011  -0.019  50.291  -0.036   0.056
 -0.004   0.007   0.011  -0.096   0.043  -0.036  50.366  -0.133
  0.005  -0.009  -0.019   0.043  -0.129   0.056  -0.133  50.465
 total augmentation occupancy for first ion, spin component:           1
  1.762   0.062  -0.001   0.007  -0.015   0.000   0.000  -0.002
  0.062   0.003   0.000  -0.000  -0.001   0.000  -0.000  -0.000
 -0.001   0.000   0.880  -0.131   0.195   0.048  -0.012   0.018
  0.007  -0.000  -0.131   1.147  -0.467  -0.012   0.072  -0.042
 -0.015  -0.001   0.195  -0.467   1.488   0.017  -0.042   0.102
  0.000   0.000   0.048  -0.012   0.017   0.003  -0.001   0.002
  0.000  -0.000  -0.012   0.072  -0.042  -0.001   0.005  -0.004
 -0.002  -0.000   0.018  -0.042   0.102   0.002  -0.004   0.009


------------------------ aborting loop because EDIFF is reached ----------------------------------------





 total charge

# of ion       s       p       d       f       tot
--------------------------------------------------
    1        0.905   1.610   0.000   0.000   2.515
    2        0.824   1.624   0.000   0.000   2.448
    3        0.834   1.724   0.000   0.000   2.558
    4        0.824   1.623   0.000   0.000   2.447
    5        0.833   1.725   0.000   0.000   2.558
    6        0.839   1.546   0.000   0.000   2.385
    7        0.846   1.715   0.000   0.000   2.561
    8        0.846   1.719   0.000   0.000   2.565
    9        0.839   1.545   0.000   0.000   2.384
   10        0.846   1.715   0.000   0.000   2.561
   11        0.839   1.545   0.000   0.000   2.384
   12        0.833   1.725   0.000   0.000   2.558
   13        0.824   1.624   0.000   0.000   2.448
   14        0.824   1.623   0.000   0.000   2.447
   15        0.833   1.725   0.000   0.000   2.559
   16        0.839   1.546   0.000   0.000   2.385
   17        0.846   1.715   0.000   0.000   2.561
   18        0.839   1.545   0.000   0.000   2.385
   19        0.847   1.714   0.000   0.000   2.561
   20        0.846   1.715   0.000   0.000   2.561
   21        0.839   1.546   0.000   0.000   2.385
   22        0.833   1.725   0.000   0.000   2.558
   23        0.824   1.624   0.000   0.000   2.448
   24        0.833   1.726   0.000   0.000   2.559
   25        0.824   1.624   0.000   0.000   2.448
   26        0.664   0.048   0.000   0.000   0.712
   27        0.664   0.048   0.000   0.000   0.712
   28        0.664   0.048   0.000   0.000   0.712
   29        0.664   0.048   0.000   0.000   0.712
   30        0.664   0.048   0.000   0.000   0.712
   31        0.664   0.048   0.000   0.000   0.712
   32        1.591   3.559   0.000   0.000   5.150
   33        1.582   3.584   0.000   0.000   5.166
   34        1.542   3.669   0.000   0.000   5.211
   35        1.525   3.647   0.000   0.000   5.172
   36        1.554   3.621   0.000   0.000   5.175
   37        1.525   3.646   0.000   0.000   5.172
   38        1.541   3.670   0.000   0.000   5.211
   39        1.541   3.670   0.000   0.000   5.211
   40        1.525   3.647   0.000   0.000   5.172
   41        1.554   3.620   0.000   0.000   5.174
   42        1.554   3.620   0.000   0.000   5.174
   43        1.554   3.620   0.000   0.000   5.174
   44        1.554   3.626   0.000   0.000   5.180
   45        1.525   3.647   0.000   0.000   5.172
   46        1.542   3.669   0.000   0.000   5.211
   47        1.541   3.670   0.000   0.000   5.212
   48        1.525   3.646   0.000   0.000   5.171
   49        1.554   3.620   0.000   0.000   5.174
   50        1.525   3.648   0.000   0.000   5.173
   51        1.542   3.668   0.000   0.000   5.210
   52        2.071   6.276   5.722   0.014  14.082
   53        2.071   6.275   5.722   0.014  14.082
   54        2.071   6.276   5.722   0.014  14.083
   55        2.071   6.276   5.722   0.014  14.083
   56        2.070   6.276   5.721   0.014  14.081
   57        2.071   6.276   5.722   0.014  14.082
--------------------------------------------------
tot         68.269 151.973  34.332   0.085 254.660
 
    CHARGE:  cpu time      0.0900: real time      0.0910
    FORLOC:  cpu time      0.0122: real time      0.0122
    FORHF :  cpu time     12.3153: real time     12.3714
    FORNL :  cpu time      8.9033: real time      8.9276
    FORCOR:  cpu time      0.4649: real time      0.4660
    FORHAR:  cpu time      0.0287: real time      0.0288
    MIXING:  cpu time      0.0009: real time      0.0009
    OFIELD:  cpu time      0.0003: real time      0.0003

 VOLUME and BASIS-vectors are now :
 -----------------------------------------------------------------------------
  energy-cutoff  :      420.00
  volume of cell :     1403.01
      direct lattice vectors                 reciprocal lattice vectors
    15.439217752  0.004465832 -0.038376892     0.065085042  0.034326685  0.130688713
    -7.186282924 13.630928377 -0.001416099     0.000303919  0.073536393  0.130825479
    -7.182834812-11.890639092  6.700359279     0.000372844  0.000212151  0.150021909

  length of vectors
    15.439266094 15.409246337 15.423204220     0.149979744  0.150076646  0.150022522


 FORCES acting on ions
    electron-ion (+dipol)            ewald-force                    non-local-force                 convergence-correction
 -----------------------------------------------------------------------------------------------
   0.274E+03 -.251E+03 0.274E+02   -.274E+03 0.251E+03 -.270E+02   -.208E+00 0.157E+00 -.121E+00   0.127E-03 -.782E-04 -.497E-04
   -.193E+03 0.756E+02 0.239E+02   0.196E+03 -.789E+02 -.251E+02   -.366E+01 0.355E+01 0.127E+01   0.925E-05 0.338E-05 -.157E-04
   -.119E+03 0.121E+02 -.426E+01   0.120E+03 -.116E+02 0.199E+01   -.969E+00 -.232E+00 0.916E+00   0.280E-04 0.212E-04 -.971E-05
   0.118E+03 0.193E+03 -.365E+02   -.122E+03 -.194E+03 0.362E+02   0.406E+01 0.163E+01 0.222E+00   0.298E-04 0.330E-04 0.540E-04
   0.103E+03 -.851E+02 -.274E+02   -.105E+03 0.857E+02 0.257E+02   0.110E+01 -.556E+00 0.713E+00   0.837E-05 -.381E-05 -.180E-05
   -.249E+03 -.339E+02 0.988E+02   0.252E+03 0.354E+02 -.101E+03   -.390E+01 -.217E+01 0.511E+01   0.131E-04 0.501E-05 -.129E-04
   -.694E+02 -.762E+02 -.699E+02   0.697E+02 0.780E+02 0.716E+02   -.354E+00 -.173E+01 -.188E+01   0.131E-04 -.148E-05 -.615E-05
   -.549E+02 0.130E+03 -.113E+03   0.565E+02 -.130E+03 0.115E+03   -.140E+01 0.129E+00 -.215E+01   0.297E-04 0.349E-04 -.553E-04
   -.878E+02 -.293E+03 0.494E+02   0.880E+02 0.297E+03 -.487E+02   0.186E+00 -.579E+01 -.273E+01   -.101E-04 0.165E-04 0.188E-04
   -.837E+02 0.368E+02 0.106E+03   0.844E+02 -.367E+02 -.108E+03   -.669E+00 0.819E-01 0.247E+01   -.249E-05 -.656E-05 0.128E-04
   0.241E+03 -.164E+03 0.502E+02   -.245E+03 0.166E+03 -.518E+02   0.576E+01 -.143E+01 0.341E+01   0.766E-05 -.418E-05 0.804E-07
   -.470E+02 -.130E+03 0.759E+02   0.472E+02 0.133E+03 -.747E+02   -.175E+00 -.131E+01 -.371E+00   -.243E-05 0.178E-04 0.103E-04
   -.539E+02 0.184E+03 -.524E+02   0.534E+02 -.188E+03 0.551E+02   0.539E+00 0.441E+01 -.285E+01   -.378E-05 -.947E-05 0.277E-05
   0.755E+01 -.212E+03 0.627E+02   -.713E+01 0.216E+03 -.653E+02   -.433E+00 -.376E+01 0.237E+01   0.842E-05 0.382E-04 -.324E-04
   0.491E+01 0.103E+03 -.613E+02   -.516E+01 -.105E+03 0.601E+02   0.234E+00 0.141E+01 0.346E+00   -.320E-05 -.128E-04 0.369E-05
   -.241E+03 0.181E+03 -.564E+02   0.245E+03 -.183E+03 0.580E+02   -.573E+01 0.142E+01 -.341E+01   0.200E-04 0.207E-04 0.223E-04
   0.453E+02 -.675E+02 -.934E+02   -.461E+02 0.673E+02 0.958E+02   0.677E+00 0.224E-02 -.248E+01   0.100E-05 -.680E-05 -.435E-05
   0.481E+02 0.281E+03 -.349E+02   -.483E+02 -.285E+03 0.343E+02   -.662E-01 0.650E+01 0.228E+01   0.223E-05 -.442E-05 0.103E-05
   0.301E+02 -.110E+02 0.955E+02   -.315E+02 0.110E+02 -.975E+02   0.137E+01 0.208E-01 0.217E+01   0.209E-04 0.864E-05 0.307E-04
   0.789E+02 0.846E+02 0.661E+02   -.791E+02 -.864E+02 -.678E+02   0.362E+00 0.172E+01 0.189E+01   0.975E-05 -.159E-05 0.964E-06
   0.219E+03 0.106E+03 -.117E+03   -.222E+03 -.108E+03 0.120E+03   0.427E+01 0.220E+01 -.435E+01   -.665E-05 0.324E-04 0.479E-04
   -.956E+02 0.958E+02 0.228E+02   0.977E+02 -.965E+02 -.211E+02   -.108E+01 0.543E+00 -.710E+00   0.709E-05 0.533E-05 -.963E-07
   -.143E+03 -.850E+02 0.387E+02   0.147E+03 0.867E+02 -.383E+02   -.482E+01 -.187E+01 -.319E+00   0.234E-04 0.127E-04 0.848E-05
   0.988E+02 0.928E+02 0.183E+01   -.100E+03 -.934E+02 0.420E+00   0.899E+00 0.280E+00 -.975E+00   0.634E-05 0.791E-05 0.568E-04
   0.199E+03 -.657E+02 -.273E+02   -.203E+03 0.690E+02 0.285E+02   0.367E+01 -.355E+01 -.128E+01   0.795E-05 -.372E-05 -.972E-06
   -.396E+02 0.155E+02 0.583E+02   0.401E+02 -.163E+02 -.638E+02   -.468E+00 0.843E+00 0.567E+01   -.558E-06 -.265E-06 0.111E-05
   -.313E+02 -.475E+02 -.382E+02   0.323E+02 0.503E+02 0.431E+02   -.962E+00 -.281E+01 -.493E+01   0.429E-05 0.193E-06 -.102E-05
   -.340E+02 0.432E+02 -.619E+02   0.361E+02 -.428E+02 0.672E+02   -.206E+01 -.500E+00 -.535E+01   -.408E-05 0.230E-05 -.131E-04
   0.253E+02 -.131E+02 0.482E+02   -.274E+02 0.126E+02 -.534E+02   0.207E+01 0.523E+00 0.535E+01   0.185E-05 -.986E-06 0.424E-05
   0.335E+02 0.494E+02 0.374E+02   -.344E+02 -.522E+02 -.422E+02   0.963E+00 0.281E+01 0.493E+01   0.324E-05 -.930E-06 0.603E-06
   0.308E+02 -.226E+02 -.553E+02   -.313E+02 0.234E+02 0.609E+02   0.467E+00 -.838E+00 -.568E+01   0.741E-06 -.168E-05 -.219E-05
   0.476E+03 -.358E+03 -.776E+02   -.530E+03 0.342E+03 0.116E+03   0.291E+02 0.838E+01 -.203E+02   0.283E-03 -.971E-04 -.134E-03
   0.374E+03 -.442E+03 0.201E+03   -.325E+03 0.459E+03 -.239E+03   -.265E+02 -.918E+01 0.205E+02   0.261E-04 -.233E-03 0.181E-03
   -.257E+03 -.638E+02 0.527E+02   0.223E+03 0.503E+02 -.575E+02   0.242E+02 0.950E+01 0.232E+01   0.151E-04 0.159E-05 -.598E-05
   -.506E+03 0.402E+02 0.274E+02   0.492E+03 -.152E+02 -.144E+02   0.101E+02 -.155E+02 -.967E+01   0.124E-04 0.398E-04 -.884E-04
   -.280E+03 -.457E+03 0.223E+03   0.289E+03 0.464E+03 -.268E+03   -.509E+01 -.458E+01 0.294E+02   -.146E-04 -.470E-06 -.598E-04
   0.179E+03 0.450E+03 -.179E+03   -.150E+03 -.443E+03 0.191E+03   -.144E+02 -.384E+01 -.575E+01   -.568E-03 0.735E-04 -.163E-03
   -.993E+02 -.280E+03 0.113E+03   0.944E+02 0.250E+03 -.911E+02   0.277E+01 0.156E+02 -.119E+02   0.338E-04 0.306E-03 -.233E-03
   0.258E+03 -.166E+03 -.124E+02   -.234E+03 0.140E+03 0.202E+01   -.175E+02 0.181E+02 0.621E+01   0.102E-04 -.631E-05 -.143E-06
   -.222E+03 0.443E+03 -.348E+02   0.229E+03 -.423E+03 0.109E+02   -.318E+01 -.126E+02 0.163E+02   0.114E-05 -.350E-05 0.635E-06
   -.539E+03 0.391E+02 0.167E+02   0.568E+03 -.328E+02 0.191E+02   -.186E+02 -.436E+01 -.234E+02   0.834E-05 -.703E-06 -.155E-04
   -.301E+03 0.482E+03 -.214E+02   0.304E+03 -.514E+03 -.128E+02   -.176E+01 0.203E+02 0.224E+02   0.896E-04 -.387E-05 0.462E-04
   0.306E+03 -.456E+03 0.128E+02   -.309E+03 0.488E+03 0.214E+02   0.178E+01 -.203E+02 -.224E+02   0.127E-04 -.466E-05 0.961E-06
   0.448E+03 0.805E+02 -.947E+02   -.476E+03 -.867E+02 0.588E+02   0.147E+02 0.309E+01 0.199E+02   -.114E-03 0.458E-05 0.837E-04
   0.139E+03 -.462E+03 0.347E+02   -.147E+03 0.442E+03 -.109E+02   0.398E+01 0.101E+02 -.116E+02   -.718E-04 -.212E-03 -.382E-04
   -.281E+03 0.198E+03 0.215E+01   0.257E+03 -.172E+03 0.809E+01   0.176E+02 -.180E+02 -.605E+01   0.244E-05 0.857E-04 0.532E-04
   0.304E+02 0.295E+03 -.953E+02   -.259E+02 -.265E+03 0.737E+02   -.318E+01 -.215E+02 0.142E+02   0.826E-05 -.237E-05 0.223E-06
   -.229E+03 -.334E+03 0.172E+03   0.200E+03 0.327E+03 -.183E+03   0.183E+02 0.593E+01 0.808E+01   0.205E-04 0.588E-05 0.739E-05
   0.235E+03 0.437E+03 -.207E+03   -.243E+03 -.444E+03 0.252E+03   0.517E+01 0.466E+01 -.294E+02   0.444E-05 -.695E-05 -.121E-05
   0.501E+03 -.226E+02 -.300E+02   -.487E+03 -.243E+01 0.169E+02   -.103E+02 0.155E+02 0.940E+01   0.113E-04 -.588E-05 -.662E-06
   0.218E+03 0.130E+03 -.581E+02   -.184E+03 -.116E+03 0.630E+02   -.242E+02 -.955E+01 -.238E+01   -.107E-03 0.467E-04 -.103E-03
   0.679E+03 0.744E+03 -.334E+03   -.675E+03 -.740E+03 0.330E+03   0.226E+01 -.336E+02 0.883E+01   0.216E-04 -.125E-04 -.242E-05
   -.985E+03 0.294E+03 0.412E+02   0.978E+03 -.293E+03 -.421E+02   0.382E+02 0.236E+02 0.413E+01   0.171E-04 0.198E-05 0.401E-05
   0.397E+03 -.904E+03 0.148E+03   -.395E+03 0.897E+03 -.148E+03   -.306E+02 0.222E+02 0.611E+01   0.374E-04 -.969E-05 -.886E-06
   -.444E+03 0.103E+04 -.154E+03   0.443E+03 -.102E+04 0.154E+03   0.324E+02 -.109E+02 -.381E+01   0.305E-03 -.854E-05 -.467E-03
   0.663E+03 -.116E+03 -.990E+02   -.658E+03 0.116E+03 0.987E+02   -.188E+01 0.709E+01 -.135E+02   0.620E-03 0.307E-02 -.163E-02
   -.781E+03 -.723E+03 0.338E+03   0.777E+03 0.719E+03 -.335E+03   0.146E+02 0.276E+02 -.819E+01   -.379E-03 0.132E-03 -.271E-03
 -----------------------------------------------------------------------------------------------
   -.670E+01 0.272E+01 -.118E+01   0.000E+00 -.341E-12 0.114E-12   0.576E+02 0.294E+02 -.114E+01   0.636E-03 0.329E-02 -.277E-02
 
 
 POSITION                                       TOTAL-FORCE (eV/Angst)
 -----------------------------------------------------------------------------------
     -3.78791     10.21574      1.46059        -1.467332     -0.560343      0.279584
     -4.52388     -4.95096      3.79931        -1.850993      0.257595      0.145070
     -4.37821      6.43769      1.10882        -0.759625     -0.338604     -1.080623
     -2.27140      7.33612      0.20906        -0.399516     -0.364594     -0.133312
     -2.44692     -6.22910      4.12534        -1.689451     -0.582440     -0.802762
     -5.11592      6.03086      2.33290        -2.232196     -1.367378      2.655765
     -3.37431     -5.26237      4.53352        -1.101725     -0.636556     -0.293015
     -3.08474      6.94685      1.27881        -1.012300     -0.552131     -0.368902
     -6.67312     -0.89799      5.49428        -0.703822     -2.482513     -1.904772
     -6.53791      1.55649      5.31338        -1.006357     -0.373015      0.336605
     -1.25474     -6.43703      4.98854         1.373655     -0.634471      1.802925
     -6.68409      0.43821      6.14372        -1.017231      0.302065      0.747049
     -6.50125      2.86783      5.80002        -0.849260      0.486906     -0.449196
      7.57135     -1.12308      0.86055        -1.060928     -0.996255      0.035621
      7.75419      1.30655      0.51685        -0.926274     -1.260420     -0.750645
      2.32484      8.18178      1.67203        -3.360163     -0.320881     -1.793842
      7.60801      0.18827      1.34718        -0.960124     -0.617032     -0.324288
      7.74322      2.64274      1.16629        -1.196649      2.012457      1.542381
      4.15484     -5.20209      5.38176        -0.856638     -0.475622      0.314890
      4.44441      7.00712      2.12704        -0.853525     -0.364749      0.306581
      6.18602     -4.28611      4.32766         0.729861      0.423762     -1.652351
      3.51702      7.97385      2.53523        -0.262486     -0.413343      0.800199
      3.34150     -5.59137      6.45151        -2.128997     -0.949085      0.139971
      5.44831     -4.69294      5.55174        -1.276332     -0.708602      0.993801
      5.59398      6.69571      2.86125        -0.124642     -1.233065     -0.144175
     -6.44726      1.39877      4.23973        -1.002678     -0.355298      0.639960
     -3.19258     -4.72839      5.46491        -1.123708     -0.767428     -0.574241
     -2.69330      7.04306      2.29033        -1.145452     -0.586278     -0.615810
      3.76340     -5.29830      4.37024        -0.822281     -0.449866      0.655430
      4.26268      6.47315      1.19565        -0.839697     -0.230564      0.578361
      7.51736      0.34598      2.42084        -0.959231     -0.646538     -0.634142
      2.45918     -3.68122      2.11145         2.822344      0.669673     -2.639673
     -2.85639     10.49971      0.79068        -4.158752     -1.578304      2.435671
     -6.31841      5.58472      2.19568         6.841493      2.454166      0.282360
     -5.36548     -4.00543      4.28416         2.445040     -4.125674     -3.422967
     -6.48288     -1.00634      4.24024        -2.174965     -2.416991      8.278036
     -1.03477      7.82012      0.48250        -1.824505     -1.052869     -0.260844
     -6.85236     -1.93768      6.23784        -0.377719      0.873590     -1.747660
     -0.41602     -7.36024      4.65396        -6.813040      5.243747      1.453252
     -6.36144      3.88288      4.91321        -0.738312     -3.905629      4.851186
     -4.56624      6.11546      3.47828        -6.654281     -2.199640     -6.372714
      2.14039      7.46364      0.63844        -2.256236      5.328898      6.187221
     -1.07029     -5.71889      6.02213         0.305815     -6.317485     -6.211588
      5.63634     -4.37071      3.18228         1.135658     -0.085380      2.933681
      7.43154     -2.13813      1.74735        -0.489422      0.413230     -0.240016
      1.48612      9.10500      2.00661         4.943661     -6.226829     -1.319604
      7.92246      3.68243      0.42272        -2.069854     -7.664865      3.978231
      2.10487     -6.07537      6.17806         3.695024      2.181872      2.553982
      7.55298      2.75109      2.42033         0.281050      1.491970     -8.330387
      6.43558      5.75019      2.37641        -4.556190      3.160040      3.161987
      7.38851     -3.83997      4.46489        -8.817535     -3.482051     -0.325047
     -7.67594      4.55003      3.44770         6.131053    -40.537809      0.137775
      1.56621     -7.84999      5.22512        36.198497     28.092653     -6.855163
      7.62424      5.76929      0.68183       -39.665786     16.428378     -1.251969
     -6.55414     -4.02454      5.97873        39.550329     -6.239381      3.479009
     -0.49611      9.59474      1.43544        -1.655067      0.753404     -1.793733
      8.74604     -2.80527      3.21286         8.787797     33.525575      0.586857
 -----------------------------------------------------------------------------------
    total drift:                               55.949731     28.478467     -0.145867


--------------------------------------------------------------------------------------------------------



  FREE ENERGIE OF THE ION-ELECTRON SYSTEM (eV)
  ---------------------------------------------------
  free  energy   TOTEN  =      -907.73515487 eV

  energy  without entropy=     -907.73515487  energy(sigma->0) =     -907.73515487
 


--------------------------------------------------------------------------------------------------------


    POTLOK:  cpu time      0.4861: real time      0.4875


--------------------------------------------------------------------------------------------------------


 writing wavefunctions
     LOOP+:  cpu time   3551.2148: real time   3595.0611
    4ORBIT:  cpu time      0.0000: real time      0.0000



 total charge

# of ion       s       p       d       f       tot
--------------------------------------------------
    1        0.905   1.610   0.000   0.000   2.515
    2        0.824   1.624   0.000   0.000   2.448
    3        0.834   1.724   0.000   0.000   2.558
    4        0.824   1.623   0.000   0.000   2.447
    5        0.833   1.725   0.000   0.000   2.558
    6        0.839   1.546   0.000   0.000   2.385
    7        0.846   1.715   0.000   0.000   2.561
    8        0.846   1.719   0.000   0.000   2.565
    9        0.839   1.545   0.000   0.000   2.384
   10        0.846   1.715   0.000   0.000   2.561
   11        0.839   1.545   0.000   0.000   2.384
   12        0.833   1.725   0.000   0.000   2.558
   13        0.824   1.624   0.000   0.000   2.448
   14        0.824   1.623   0.000   0.000   2.447
   15        0.833   1.725   0.000   0.000   2.559
   16        0.839   1.546   0.000   0.000   2.385
   17        0.846   1.715   0.000   0.000   2.561
   18        0.839   1.545   0.000   0.000   2.385
   19        0.847   1.714   0.000   0.000   2.561
   20        0.846   1.715   0.000   0.000   2.561
   21        0.839   1.546   0.000   0.000   2.385
   22        0.833   1.725   0.000   0.000   2.558
   23        0.824   1.624   0.000   0.000   2.448
   24        0.833   1.726   0.000   0.000   2.559
   25        0.824   1.624   0.000   0.000   2.448
   26        0.664   0.048   0.000   0.000   0.712
   27        0.664   0.048   0.000   0.000   0.712
   28        0.664   0.048   0.000   0.000   0.712
   29        0.664   0.048   0.000   0.000   0.712
   30        0.664   0.048   0.000   0.000   0.712
   31        0.664   0.048   0.000   0.000   0.712
   32        1.591   3.559   0.000   0.000   5.150
   33        1.582   3.584   0.000   0.000   5.166
   34        1.542   3.669   0.000   0.000   5.211
   35        1.525   3.647   0.000   0.000   5.172
   36        1.554   3.621   0.000   0.000   5.175
   37        1.525   3.646   0.000   0.000   5.172
   38        1.541   3.670   0.000   0.000   5.211
   39        1.541   3.670   0.000   0.000   5.211
   40        1.525   3.647   0.000   0.000   5.172
   41        1.554   3.620   0.000   0.000   5.174
   42        1.554   3.620   0.000   0.000   5.174
   43        1.554   3.620   0.000   0.000   5.174
   44        1.554   3.626   0.000   0.000   5.180
   45        1.525   3.647   0.000   0.000   5.172
   46        1.542   3.669   0.000   0.000   5.211
   47        1.541   3.670   0.000   0.000   5.212
   48        1.525   3.646   0.000   0.000   5.171
   49        1.554   3.620   0.000   0.000   5.174
   50        1.525   3.648   0.000   0.000   5.173
   51        1.542   3.668   0.000   0.000   5.210
   52        2.071   6.276   5.722   0.014  14.082
   53        2.071   6.275   5.722   0.014  14.082
   54        2.071   6.276   5.722   0.014  14.083
   55        2.071   6.276   5.722   0.014  14.083
   56        2.070   6.276   5.721   0.014  14.081
   57        2.071   6.276   5.722   0.014  14.082
--------------------------------------------------
tot         68.269 151.973  34.332   0.085 254.660
 

 total amount of memory used by VASP MPI-rank0  1245831. kBytes
=======================================================================

   base      :      30000. kBytes
   nonl-proj :      30691. kBytes
   fftplans  :       7972. kBytes
   grid      :      57341. kBytes
   one-center:       2299. kBytes
   HF        :       1344. kBytes
   nonlr-proj:       7401. kBytes
   wavefun   :      31126. kBytes
   fock_wrk  :    1077657. kBytes
 
  
  
 General timing and accounting informations for this job:
 ========================================================
  
                  Total CPU time used (sec):     3661.782
                            User time (sec):     3061.492
                          System time (sec):      600.290
                         Elapsed time (sec):     3712.563
  
                   Maximum memory used (kb):     4853952.
                   Average memory used (kb):          N/A
  
                          Minor page faults:     40788568
                          Major page faults:            2
                 Voluntary context switches:        62663
