 vasp.6.3.2 27Jun22 (build Jul 28 2023 19:28:36) gamma-only                     
  
 executed on             LinuxIFC date 2024.06.14  08:45:59
 running on   40 total cores
 distrk:  each k-point on   40 cores,    1 groups
 distr:  one band on NCORE=   1 cores,   40 groups


--------------------------------------------------------------------------------------------------------


 INCAR:
   SYSTEM = MOF
   ISTART = 0
   ICHARG = 2
   ISMEAR = 0
   SIGMA = 0.1
   ENCUT = 1000.0
   PREC = Accurate
   METAGGA = SCAN
   LUSE_VDW = .TRUE.
   BPARAM = 15.7
   CPARAM = 0.0093
   LASPH = .TRUE.
   EDIFF = 1E-7
   NELM = 500
   IBRION = -1
   NSW = 0
   ALGO = All
   TIME = 0.05
   LREAL = Auto
   LWAVE = .TRUE.
   LCHARG = .TRUE.
   NWRITE = 1

 POTCAR:    PAW_PBE C 08Apr2002                   
 POTCAR:    PAW_PBE H 15Jun2001                   
 POTCAR:    PAW_PBE O 08Apr2002                   
 POTCAR:    PAW_PBE Mg 13Apr2007                  
 -----------------------------------------------------------------------------
|                                                                             |
|           W    W    AA    RRRRR   N    N  II  N    N   GGGG   !!!           |
|           W    W   A  A   R    R  NN   N  II  NN   N  G    G  !!!           |
|           W    W  A    A  R    R  N N  N  II  N N  N  G       !!!           |
|           W WW W  AAAAAA  RRRRR   N  N N  II  N  N N  G  GGG   !            |
|           WW  WW  A    A  R   R   N   NN  II  N   NN  G    G                |
|           W    W  A    A  R    R  N    N  II  N    N   GGGG   !!!           |
|                                                                             |
|     For optimal performance we recommend to set                             |
|       NCORE = 2 up to number-of-cores-per-socket                            |
|     NCORE specifies how many cores store one orbital (NPAR=cpu/NCORE).      |
|     This setting can greatly improve the performance of VASP for DFT.       |
|     The default, NCORE=1 might be grossly inefficient on modern             |
|     multi-core architectures or massively parallel machines. Do your        |
|     own testing! More info at https://www.vasp.at/wiki/index.php/NCORE      |
|     Unfortunately you need to use the default for GW and RPA                |
|     calculations (for HF NCORE is supported but not extensively tested      |
|     yet).                                                                   |
|                                                                             |
 -----------------------------------------------------------------------------

 -----------------------------------------------------------------------------
|                                                                             |
|               ----> ADVICE to this user running VASP <----                  |
|                                                                             |
|     You have switched on vdW-DFT.                                           |
|     This routine was written and supplied by Jiri Klimes. We recommend      |
|     that you carefully read and cite the following publications:            |
|       J. Klimes, D.R. Bowler, A. Michelides                                 |
|          J. Phys.: Cond Matt. 22 022201 (2010)                              |
|       J. Klimes, D.R. Bowler, A. Michelides                                 |
|          Phys. Rev. B. 83, 195131 (2011)                                    |
|     and references therein.                                                 |
|                                                                             |
 -----------------------------------------------------------------------------

 POTCAR:    PAW_PBE C 08Apr2002                   
  local pseudopotential read in
  partial core-charges read in
  partial kinetic energy density read in
  atomic valenz-charges read in
  non local Contribution for L=           0  read in
    real space projection operators read in
  non local Contribution for L=           0  read in
    real space projection operators read in
  non local Contribution for L=           1  read in
    real space projection operators read in
  non local Contribution for L=           1  read in
    real space projection operators read in
    PAW grid and wavefunctions read in
 
   number of l-projection  operators is LMAX  =           4
   number of lm-projection operators is LMMAX =           8
 
 POTCAR:    PAW_PBE H 15Jun2001                   
  local pseudopotential read in
  atomic valenz-charges read in
  non local Contribution for L=           0  read in
    real space projection operators read in
  non local Contribution for L=           0  read in
    real space projection operators read in
  non local Contribution for L=           1  read in
    real space projection operators read in
    PAW grid and wavefunctions read in
 
   number of l-projection  operators is LMAX  =           3
   number of lm-projection operators is LMMAX =           5
 
 POTCAR:    PAW_PBE O 08Apr2002                   
  local pseudopotential read in
  partial core-charges read in
  partial kinetic energy density read in
  kinetic energy density of atom read in
  atomic valenz-charges read in
  non local Contribution for L=           0  read in
    real space projection operators read in
  non local Contribution for L=           0  read in
    real space projection operators read in
  non local Contribution for L=           1  read in
    real space projection operators read in
  non local Contribution for L=           1  read in
    real space projection operators read in
    PAW grid and wavefunctions read in
 
   number of l-projection  operators is LMAX  =           4
   number of lm-projection operators is LMMAX =           8
 
 POTCAR:    PAW_PBE Mg 13Apr2007                  
  local pseudopotential read in
  partial core-charges read in
  partial kinetic energy density read in
  atomic valenz-charges read in
  non local Contribution for L=           0  read in
    real space projection operators read in
  non local Contribution for L=           0  read in
    real space projection operators read in
  non local Contribution for L=           1  read in
    real space projection operators read in
  non local Contribution for L=           1  read in
    real space projection operators read in
  non local Contribution for L=           2  read in
    real space projection operators read in
    PAW grid and wavefunctions read in
 
   number of l-projection  operators is LMAX  =           5
   number of lm-projection operators is LMMAX =          13
 
 Optimization of the real space projectors (new method)

 maximal supplied QI-value         = 25.13
 optimisation between [QCUT,QGAM] = [ 16.09, 32.17] = [ 72.45,289.82] Ry 
 Optimized for a Real-space Cutoff    0.98 Angstroem

   l    n(q)    QCUT    max X(q) W(low)/X(q) W(high)/X(q)  e(spline) 
   0      9    16.085   115.676    0.97E-04    0.82E-04    0.14E-06
   0      9    16.085    87.132    0.96E-04    0.82E-04    0.14E-06
   1      9    16.085     4.429    0.14E-03    0.12E-03    0.10E-06
   1      9    16.085     2.733    0.11E-03    0.89E-04    0.96E-07
 Optimization of the real space projectors (new method)

 maximal supplied QI-value         = 34.20
 optimisation between [QCUT,QGAM] = [ 16.08, 32.15] = [ 72.37,289.48] Ry 
 Optimized for a Real-space Cutoff    0.90 Angstroem

   l    n(q)    QCUT    max X(q) W(low)/X(q) W(high)/X(q)  e(spline) 
   0      9    16.076    19.460    0.59E-04    0.17E-03    0.11E-06
   0      9    16.076    12.209    0.53E-04    0.16E-03    0.11E-06
   1      8    16.076     4.655    0.15E-03    0.16E-03    0.15E-06
 Optimization of the real space projectors (new method)

 maximal supplied QI-value         = 24.76
 optimisation between [QCUT,QGAM] = [ 16.09, 32.18] = [ 72.51,290.02] Ry 
 Optimized for a Real-space Cutoff    0.95 Angstroem

   l    n(q)    QCUT    max X(q) W(low)/X(q) W(high)/X(q)  e(spline) 
   0      9    16.091    20.381    0.21E-03    0.16E-03    0.13E-06
   0      9    16.091    15.268    0.23E-03    0.17E-03    0.14E-06
   1      9    16.091     5.964    0.15E-03    0.23E-03    0.12E-06
   1      9    16.091     5.382    0.12E-03    0.19E-03    0.11E-06
 Optimization of the real space projectors (new method)

 maximal supplied QI-value         = 18.90
 optimisation between [QCUT,QGAM] = [ 16.06, 32.31] = [ 72.25,292.41] Ry 
 Optimized for a Real-space Cutoff    1.14 Angstroem

   l    n(q)    QCUT    max X(q) W(low)/X(q) W(high)/X(q)  e(spline) 
   0     11    16.063    28.265    0.53E-04    0.32E-04    0.26E-06
   0     11    16.063    10.429    0.41E-04    0.26E-04    0.19E-06
   1     11    16.063    13.073    0.29E-04    0.84E-04    0.50E-06
   1     11    16.063     9.625    0.26E-04    0.67E-04    0.41E-06
   2     10    16.063     4.652    0.36E-04    0.11E-03    0.12E-06
  PAW_PBE C 08Apr2002                   :
 energy of atom  1       EATOM= -147.1560
 kinetic energy error for atom=    0.0010 (will be added to EATOM!!)
  PAW_PBE H 15Jun2001                   :
 energy of atom  2       EATOM=  -12.4884
 kinetic energy error for atom=    0.0001 (will be added to EATOM!!)
  PAW_PBE O 08Apr2002                   :
 energy of atom  3       EATOM= -432.3788
 kinetic energy error for atom=    0.0022 (will be added to EATOM!!)
  PAW_PBE Mg 13Apr2007                  :
 energy of atom  4       EATOM=  -23.0369
 kinetic energy error for atom=    0.0000 (will be added to EATOM!!)
 
 
 POSCAR:  C  H  O Mg
  positions in direct lattice
  No initial velocities read in

 METAGGA = SCAN     LMAXTAU =  6    LMIXTAU =  F

 exchange correlation table for  LEXCH =        8
   RHO(1)=    0.500       N(1)  =     2000
   RHO(2)=  100.500       N(2)  =     4000
 


--------------------------------------------------------------------------------------------------------


 ion  position               nearest neighbor table
   1  0.742  0.349  0.176-  32 1.27  31 1.29   2 1.49
   2  0.615  0.166  0.079-  16 1.40   3 1.43   1 1.49
   3  0.432  0.967  0.866-  33 1.35   4 1.40   2 1.43
   4  0.323  0.808  0.795-  25 1.09   3 1.40  14 1.40
   5  0.176  0.742  0.349-  35 1.27  34 1.29   6 1.49
   6  0.079  0.615  0.166-  20 1.40   7 1.43   5 1.49
   7  0.866  0.432  0.967-  36 1.35   8 1.40   6 1.43
   8  0.795  0.323  0.808-  26 1.09   7 1.40  18 1.40
   9  0.349  0.176  0.742-  38 1.27  37 1.29  10 1.49
  10  0.166  0.079  0.615-  24 1.40  11 1.43   9 1.49
  11  0.967  0.866  0.432-  39 1.35  12 1.40  10 1.43
  12  0.808  0.795  0.323-  27 1.09  11 1.40  22 1.40
  13  0.258  0.651  0.824-  41 1.27  40 1.29  14 1.49
  14  0.385  0.834  0.921-   4 1.40  15 1.43  13 1.49
  15  0.568  0.033  0.134-  42 1.35  16 1.40  14 1.43
  16  0.677  0.193  0.205-  28 1.09  15 1.40   2 1.40
  17  0.824  0.258  0.651-  44 1.27  43 1.29  18 1.49
  18  0.921  0.385  0.834-   8 1.40  19 1.43  17 1.49
  19  0.134  0.568  0.033-  45 1.35  20 1.40  18 1.43
  20  0.205  0.677  0.192-  29 1.09  19 1.40   6 1.40
  21  0.651  0.824  0.258-  47 1.27  46 1.29  22 1.49
  22  0.834  0.921  0.385-  12 1.40  23 1.43  21 1.49
  23  0.033  0.134  0.568-  48 1.35  24 1.40  22 1.43
  24  0.192  0.205  0.677-  30 1.09  23 1.40  10 1.40
  25  0.184  0.655  0.634-   4 1.09
  26  0.634  0.184  0.655-   8 1.09
  27  0.655  0.634  0.184-  12 1.09
  28  0.816  0.345  0.366-  16 1.09
  29  0.366  0.816  0.345-  20 1.09
  30  0.345  0.366  0.816-  24 1.09
  31  0.690  0.327  0.062-   1 1.29  50 2.02  49 2.08
  32  0.897  0.522  0.364-   1 1.27  51 2.04
  33  0.360  0.927  0.734-   3 1.35  51 2.02  49 2.04
  34  0.062  0.690  0.327-   5 1.29  51 2.02  50 2.08
  35  0.364  0.897  0.522-   5 1.27  49 2.04
  36  0.734  0.360  0.927-   7 1.35  49 2.02  50 2.04
  37  0.327  0.062  0.690-   9 1.29  49 2.02  51 2.08
  38  0.522  0.364  0.897-   9 1.27  50 2.04
  39  0.927  0.734  0.360-  11 1.35  50 2.02  51 2.04
  40  0.310  0.673  0.938-  13 1.29  53 2.02  52 2.08
  41  0.103  0.478  0.636-  13 1.27  54 2.04
  42  0.640  0.073  0.266-  15 1.35  54 2.02  52 2.04
  43  0.938  0.310  0.673-  17 1.29  54 2.02  53 2.08
  44  0.637  0.103  0.478-  17 1.27  52 2.04
  45  0.266  0.640  0.073-  19 1.35  52 2.02  53 2.04
  46  0.673  0.938  0.310-  21 1.29  52 2.02  54 2.08
  47  0.478  0.636  0.103-  21 1.27  53 2.04
  48  0.073  0.266  0.640-  23 1.35  53 2.02  54 2.04
  49  0.514  0.109  0.782-  37 2.02  36 2.02  33 2.04  35 2.04  31 2.08  50 2.94  51 2.94
  50  0.782  0.514  0.108-  31 2.02  39 2.02  36 2.04  38 2.04  34 2.08  49 2.94  51 2.94
  51  0.108  0.782  0.514-  34 2.02  33 2.02  39 2.04  32 2.04  37 2.08  49 2.94  50 2.94
  52  0.486  0.892  0.218-  46 2.02  45 2.02  42 2.04  44 2.04  40 2.08  54 2.94  53 2.94
  53  0.218  0.486  0.892-  40 2.02  48 2.02  45 2.04  47 2.04  43 2.08  54 2.94  52 2.94
  54  0.892  0.218  0.486-  43 2.02  42 2.02  48 2.04  41 2.04  46 2.08  52 2.94  53 2.94
 
  LATTYP: Found a trigonal (rhomboedric) cell.
 ALAT       =    15.2580629150
 COS(alpha) =    -0.4652854440
  
  Lattice vectors:
  
 A1 = (  15.2580133847,   0.0063748139,   0.0245793813)
 A2 = (  -7.1051429847,  13.5027912564,   0.0244990776)
 A3 = (  -7.1050972695, -11.7730711972,   6.6121759879)


Analysis of symmetry for initial positions (statically):
=====================================================================
 Subroutine PRICEL returns:
 Original cell was already a primitive cell.
 

 Routine SETGRP: Setting up the symmetry group for a 
 trigonal (rhombohedral) supercell.


 Subroutine GETGRP returns: Found  1 space group operations
 (whereof  1 operations were pure point group operations)
 out of a pool of 12 trial point group operations.


The static configuration has the point symmetry C_1 .


Analysis of symmetry for dynamics (positions and initial velocities):
=====================================================================
 Subroutine PRICEL returns:
 Original cell was already a primitive cell.
 

 Routine SETGRP: Setting up the symmetry group for a 
 trigonal (rhombohedral) supercell.


 Subroutine GETGRP returns: Found  1 space group operations
 (whereof  1 operations were pure point group operations)
 out of a pool of 12 trial point group operations.


The dynamic configuration has the point symmetry C_1 .


 Subroutine INISYM returns: Found  1 space group operations
 (whereof  1 operations are pure point group operations),
 and found     1 'primitive' translations


----------------------------------------------------------------------------------------

                                     Primitive cell                                     

  volume of cell :    1371.3921

  direct lattice vectors                    reciprocal lattice vectors
    15.258013385  0.006374814  0.024579381     0.065314117  0.034130566  0.130953070
    -7.105142985 13.502791256  0.024499078    -0.000241744  0.073693958  0.130953351
    -7.105097270-11.773071197  6.612175988    -0.000241896 -0.000399920  0.150264152

  length of vectors
    15.258034514 15.258080769 15.258062915     0.150264886  0.150265226  0.150264879

  position of ions in fractional coordinates (direct lattice)
     0.742014629  0.348856862  0.175631722
     0.614737524  0.165760157  0.079266010
     0.431866833  0.967146544  0.866357394
     0.323426239  0.807528718  0.795039545
     0.175643119  0.742030584  0.348836056
     0.079288672  0.614759186  0.165750997
     0.866378386  0.431887658  0.967136793
     0.795050085  0.323434695  0.807507662
     0.348844082  0.175654491  0.742009552
     0.165757245  0.079294396  0.614737504
     0.967146759  0.866386509  0.431869766
     0.807527866  0.795064117  0.323426635
     0.257997242  0.651177639  0.824359558
     0.385278725  0.834271091  0.920721278
     0.568151099  0.032884201  0.133630597
     0.676588120  0.192500595  0.204950051
     0.824378159  0.258021185  0.651163243
     0.920727875  0.385284889  0.834247949
     0.133651182  0.568172843  0.032877126
     0.204967516  0.676607365  0.192491024
     0.651166334  0.824380287  0.257996396
     0.834264817  0.920745497  0.385273715
     0.032884585  0.133658688  0.568147370
     0.192498695  0.204973580  0.676584145
     0.184346186  0.655111609  0.633967985
     0.633990768  0.184365023  0.655100302
     0.655100725  0.633992740  0.184340173
     0.815660221  0.344921385  0.366012712
     0.366025548  0.815668040  0.344893598
     0.344905088  0.366036147  0.815648698
     0.690035352  0.327096246  0.062389255
     0.897468252  0.521719207  0.363522843
     0.359899457  0.926825036  0.733650689
     0.062416671  0.690061449  0.327089376
     0.363540124  0.897494510  0.521700504
     0.733667396  0.359921155  0.926810583
     0.327098709  0.062430124  0.690049476
     0.521703281  0.363537920  0.897455141
     0.926814389  0.733676598  0.359892517
     0.309969235  0.672930044  0.937593791
     0.102540517  0.478317794  0.636472783
     0.640118158  0.073204996  0.266331859
     0.937620652  0.309979890  0.672925434
     0.636500080  0.102595403  0.478308979
     0.266360937  0.640148723  0.073196549
     0.672927425  0.937623414  0.309972911
     0.478307570  0.636484145  0.102544947
     0.073202609  0.266366054  0.640108405
     0.514132669  0.108518374  0.782412062
     0.782415681  0.514143460  0.108492112
     0.108499851  0.782421723  0.514119197
     0.485895590  0.891540695  0.217600628
     0.217613719  0.485909109  0.891517919
     0.891519652  0.217610760  0.485881812

  ion indices of the primitive-cell ions
   primitive index   ion index
                 1           1
                 2           2
                 3           3
                 4           4
                 5           5
                 6           6
                 7           7
                 8           8
                 9           9
                10          10
                11          11
                12          12
                13          13
                14          14
                15          15
                16          16
                17          17
                18          18
                19          19
                20          20
                21          21
                22          22
                23          23
                24          24
                25          25
                26          26
                27          27
                28          28
                29          29
                30          30
                31          31
                32          32
                33          33
                34          34
                35          35
                36          36
                37          37
                38          38
                39          39
                40          40
                41          41
                42          42
                43          43
                44          44
                45          45
                46          46
                47          47
                48          48
                49          49
                50          50
                51          51
                52          52
                53          53
                54          54

----------------------------------------------------------------------------------------

 
 
 KPOINTS: KPOINTS                                 

Automatic generation of k-mesh.
 Grid dimensions read from file:
 generate k-points for:    1    1    1

 Generating k-lattice:

  Cartesian coordinates                     Fractional coordinates (reciprocal lattice)
     0.065314117  0.034130566  0.130953070     1.000000000  0.000000000  0.000000000
    -0.000241744  0.073693958  0.130953351     0.000000000  1.000000000  0.000000000
    -0.000241896 -0.000399920  0.150264152     0.000000000 -0.000000000  1.000000000

  Length of vectors
     0.150264886  0.150265226  0.150264879

  Shift w.r.t. Gamma in fractional coordinates (k-lattice)
     0.000000000  0.000000000  0.000000000

 
 Subroutine IBZKPT returns following result:
 ===========================================
 
 Found      1 irreducible k-points:
 
 Following reciprocal coordinates:
            Coordinates               Weight
  0.000000  0.000000  0.000000      1.000000
 
 Following cartesian coordinates:
            Coordinates               Weight
  0.000000  0.000000  0.000000      1.000000
 


--------------------------------------------------------------------------------------------------------




 Dimension of arrays:
   k-points           NKPTS =      1   k-points in BZ     NKDIM =      1   number of bands    NBANDS=    160
   number of dos      NEDOS =    301   number of ions     NIONS =     54
   non local maximal  LDIM  =      5   non local SUM 2l+1 LMDIM =     13
   total plane-waves  NPLWV = ******
   max r-space proj   IRMAX =  18547   max aug-charges    IRDMAX= 127061
   dimension x,y,z NGX =   160 NGY =  160 NGZ =  160
   dimension x,y,z NGXF=   320 NGYF=  320 NGZF=  320
   support grid    NGXF=   320 NGYF=  320 NGZF=  320
   ions per type =              24   6  18   6
   NGX,Y,Z   is equivalent  to a cutoff of  17.43, 17.43, 17.43 a.u.
   NGXF,Y,Z  is equivalent  to a cutoff of  34.87, 34.87, 34.87 a.u.

 SYSTEM =  MOF                                     
 POSCAR =   C  H  O Mg                             

 Startparameter for this run:
   NWRITE =      1    write-flag & timer
   PREC   = accura    normal or accurate (medium, high low for compatibility)
   ISTART =      0    job   : 0-new  1-cont  2-samecut
   ICHARG =      2    charge: 1-file 2-atom 10-const
   ISPIN  =      1    spin polarized calculation?
   LNONCOLLINEAR =      F non collinear calculations
   LSORBIT =      F    spin-orbit coupling
   INIWAV =      1    electr: 0-lowe 1-rand  2-diag
   LASPH  =      T    aspherical Exc in radial PAW
 Electronic Relaxation 1
   ENCUT  = 1000.0 eV  73.50 Ry    8.57 a.u.  39.34 39.34 39.34*2*pi/ulx,y,z
   ENINI  = 1000.0     initial cutoff
   ENAUG  =  644.9 eV  augmentation charge cutoff
   NELM   =    500;   NELMIN=  2; NELMDL= -5     # of ELM steps 
   EDIFF  = 0.1E-06   stopping-criterion for ELM
   LREAL  =      T    real-space projection
   NLSPLINE    = F    spline interpolate recip. space projectors
   LCOMPAT=      F    compatible to vasp.4.4
   GGA_COMPAT  = T    GGA compatible to vasp.4.4-vasp.4.6
   LMAXPAW     = -100 max onsite density
   LMAXMIX     =    2 max onsite mixed and CHGCAR
   VOSKOWN=      0    Vosko Wilk Nusair interpolation
   ROPT   =   -0.00025  -0.00025  -0.00025  -0.00025
 Ionic relaxation
   EDIFFG = 0.1E-05   stopping-criterion for IOM
   NSW    =      0    number of steps for IOM
   NBLOCK =      1;   KBLOCK =      1    inner block; outer block 
   IBRION =     -1    ionic relax: 0-MD 1-quasi-New 2-CG
   NFREE  =      0    steps in history (QN), initial steepest desc. (CG)
   ISIF   =      2    stress and relaxation
   IWAVPR =     10    prediction:  0-non 1-charg 2-wave 3-comb
   ISYM   =      2    0-nonsym 1-usesym 2-fastsym
   LCORR  =      T    Harris-Foulkes like correction to forces

   POTIM  = 0.5000    time-step for ionic-motion
   TEIN   =    0.0    initial temperature
   TEBEG  =    0.0;   TEEND  =   0.0 temperature during run
   SMASS  =  -3.00    Nose mass-parameter (am)
   estimated Nose-frequenzy (Omega)   =  0.10E-29 period in steps = 0.13E+47 mass=  -0.532E-26a.u.
   SCALEE = 1.0000    scale energy and forces
   NPACO  =    256;   APACO  = 10.0  distance and # of slots for P.C.
   PSTRESS=    0.0 pullay stress

  Mass of Ions in am
   POMASS =  12.01  1.00 16.00 24.30
  Ionic Valenz
   ZVAL   =   4.00  1.00  6.00  2.00
  Atomic Wigner-Seitz radii
   RWIGS  =  -1.00 -1.00 -1.00 -1.00
  virtual crystal weights 
   VCA    =   1.00  1.00  1.00  1.00
   NELECT =     222.0000    total number of electrons
   NUPDOWN=      -1.0000    fix difference up-down

 DOS related values:
   EMIN   =  10.00;   EMAX   =-10.00  energy-range for DOS
   EFERMI =   0.00
   ISMEAR =     0;   SIGMA  =   0.10  broadening in eV -4-tet -1-fermi 0-gaus

 Electronic relaxation 2 (details)
   IALGO  =     58    algorithm
   LDIAG  =      T    sub-space diagonalisation (order eigenvalues)
   LSUBROT=      F    optimize rotation matrix (better conditioning)
   TURBO    =      0    0=normal 1=particle mesh
   IRESTART =      0    0=no restart 2=restart with 2 vectors
   NREBOOT  =      0    no. of reboots
   NMIN     =      0    reboot dimension
   EREF     =   0.00    reference energy to select bands
   IMIX   =      4    mixing-type and parameters
     AMIX     =   0.40;   BMIX     =  1.00
     AMIX_MAG =   1.60;   BMIX_MAG =  1.00
     AMIN     =   0.10
     WC   =   100.;   INIMIX=   1;  MIXPRE=   1;  MAXMIX= -45

 Intra band minimization:
   WEIMIN = 0.0000     energy-eigenvalue tresh-hold
   EBREAK =  0.16E-09  absolut break condition
   DEPER  =   0.30     relativ break condition  

   TIME   =   0.05     timestep for ELM

  volume/ion in A,a.u.               =      25.40       171.38
  Fermi-wavevector in a.u.,A,eV,Ry     =   0.892220  1.686051 10.831006  0.796057
  Thomas-Fermi vector in A             =   2.014141
 
 Write flags
   LWAVE        =      T    write WAVECAR
   LDOWNSAMPLE  =      F    k-point downsampling of WAVECAR
   LCHARG       =      T    write CHGCAR
   LVTOT        =      F    write LOCPOT, total local potential
   LVHAR        =      F    write LOCPOT, Hartree potential only
   LELF         =      F    write electronic localiz. function (ELF)
   LORBIT       =      0    0 simple, 1 ext, 2 COOP (PROOUT), +10 PAW based schemes


 Dipole corrections
   LMONO  =      F    monopole corrections only (constant potential shift)
   LDIPOL =      F    correct potential (dipole corrections)
   IDIPOL =      0    1-x, 2-y, 3-z, 4-all directions 
   EPSILON=  1.0000000 bulk dielectric constant

 Exchange correlation treatment:
   GGA     =    --    GGA type
   LEXCH   =     8    internal setting for exchange type
   LIBXC   =     F    Libxc                    
   VOSKOWN =     0    Vosko Wilk Nusair interpolation
   LHFCALC =     F    Hartree Fock is set to
   LHFONE  =     F    Hartree Fock one center treatment
   AEXX    =    0.0000 exact exchange contribution

 vdW DFT:
   LUSE_VDW   =     T    switch on vdW DFT
   Zab_VDW    =-.8491    correlation parameter
   PARAM1     =0.1234
   PARAM2     =1.0000
   PARAM3     =0.0000
   -- rVV10 --
   BPARAM     =15.7000
   CPARAM     = 0.0093

 Linear response parameters
   LEPSILON=     F    determine dielectric tensor
   LRPA    =     F    only Hartree local field effects (RPA)
   LNABLA  =     F    use nabla operator in PAW spheres
   LVEL    =     F    velocity operator in full k-point grid
   CSHIFT  =0.1000    complex shift for real part using Kramers Kronig
   OMEGAMAX=  -1.0    maximum frequency
   DEG_THRESHOLD= 0.2000000E-02 threshold for treating states as degnerate
   RTIME   =   -0.100 relaxation time in fs
  (WPLASMAI=    0.000 imaginary part of plasma frequency in eV, 0.658/RTIME)
   DFIELD  = 0.0000000 0.0000000 0.0000000 field for delta impulse in time
 
  Optional k-point grid parameters
   LKPOINTS_OPT  =     F    use optional k-point grid
   KPOINTS_OPT_MODE=     1    mode for optional k-point grid
 
 Orbital magnetization related:
   ORBITALMAG=     F  switch on orbital magnetization
   LCHIMAG   =     F  perturbation theory with respect to B field
   DQ        =  0.001000  dq finite difference perturbation B field
   LLRAUG    =     F  two centre corrections for induced B field



--------------------------------------------------------------------------------------------------------


 Static calculation
 charge density and potential will be updated during run
 non-spin polarized calculation
 Conjugate gradient for all bands (Freysoldt, et al. PRB 79, 241103 (2009))
 preconditioned conjugated gradient                                        
 perform sub-space diagonalisation
    before iterative eigenvector-optimisation
 modified Broyden-mixing scheme, WC =      100.0
 initial mixing is a Kerker type mixing with AMIX =  0.4000 and BMIX =      1.0000
 Hartree-type preconditioning will be used
 using additional bands           49
 real space projection scheme for non local part
 use partial core corrections
 no Harris-corrections to forces 
 use gradient corrections 
 use of overlap-Matrix (Vanderbilt PP)
 Gauss-broadening in eV      SIGMA  =   0.10


--------------------------------------------------------------------------------------------------------


  energy-cutoff  :     1000.00
  volume of cell :     1371.39
      direct lattice vectors                 reciprocal lattice vectors
    15.258013385  0.006374814  0.024579381     0.065314117  0.034130566  0.130953070
    -7.105142985 13.502791256  0.024499078    -0.000241744  0.073693958  0.130953351
    -7.105097270-11.773071197  6.612175988    -0.000241896 -0.000399920  0.150264152

  length of vectors
    15.258034514 15.258080769 15.258062915     0.150264886  0.150265226  0.150264879


 
 k-points in units of 2pi/SCALE and weight: KPOINTS                                 
   0.00000000  0.00000000  0.00000000       1.000
 
 k-points in reciprocal lattice and weights: KPOINTS                                 
   0.00000000  0.00000000  0.00000000       1.000
 
 position of ions in fractional coordinates (direct lattice) 
   0.74201463  0.34885686  0.17563172
   0.61473752  0.16576016  0.07926601
   0.43186683  0.96714654  0.86635739
   0.32342624  0.80752872  0.79503954
   0.17564312  0.74203058  0.34883606
   0.07928867  0.61475919  0.16575100
   0.86637839  0.43188766  0.96713679
   0.79505009  0.32343470  0.80750766
   0.34884408  0.17565449  0.74200955
   0.16575725  0.07929440  0.61473750
   0.96714676  0.86638651  0.43186977
   0.80752787  0.79506412  0.32342664
   0.25799724  0.65117764  0.82435956
   0.38527872  0.83427109  0.92072128
   0.56815110  0.03288420  0.13363060
   0.67658812  0.19250060  0.20495005
   0.82437816  0.25802118  0.65116324
   0.92072788  0.38528489  0.83424795
   0.13365118  0.56817284  0.03287713
   0.20496752  0.67660737  0.19249102
   0.65116633  0.82438029  0.25799640
   0.83426482  0.92074550  0.38527371
   0.03288459  0.13365869  0.56814737
   0.19249870  0.20497358  0.67658414
   0.18434619  0.65511161  0.63396798
   0.63399077  0.18436502  0.65510030
   0.65510072  0.63399274  0.18434017
   0.81566022  0.34492138  0.36601271
   0.36602555  0.81566804  0.34489360
   0.34490509  0.36603615  0.81564870
   0.69003535  0.32709625  0.06238926
   0.89746825  0.52171921  0.36352284
   0.35989946  0.92682504  0.73365069
   0.06241667  0.69006145  0.32708938
   0.36354012  0.89749451  0.52170050
   0.73366740  0.35992116  0.92681058
   0.32709871  0.06243012  0.69004948
   0.52170328  0.36353792  0.89745514
   0.92681439  0.73367660  0.35989252
   0.30996923  0.67293004  0.93759379
   0.10254052  0.47831779  0.63647278
   0.64011816  0.07320500  0.26633186
   0.93762065  0.30997989  0.67292543
   0.63650008  0.10259540  0.47830898
   0.26636094  0.64014872  0.07319655
   0.67292743  0.93762341  0.30997291
   0.47830757  0.63648415  0.10254495
   0.07320261  0.26636605  0.64010841
   0.51413267  0.10851837  0.78241206
   0.78241568  0.51414346  0.10849211
   0.10849985  0.78242172  0.51411920
   0.48589559  0.89154069  0.21760063
   0.21761372  0.48590911  0.89151792
   0.89151965  0.21761076  0.48588181
 
 position of ions in cartesian coordinates  (Angst):
   7.59511078  2.64754683  1.18809279
   7.63873105  1.30893925  0.54329165
  -6.43783813  2.86224369  5.76281678
  -6.45159843  1.54589633  5.28467471
  -5.07078245  5.91373205  2.32906165
  -4.33584125  6.35007213  1.11298466
   3.27898846 -5.54895842  6.42675457
   4.09541460 -5.13450572  5.36684846
  -1.19743264 -6.36168155  4.91917549
  -2.40204151 -6.16559605  4.07076941
   5.53246148  6.62036805  2.90059644
   4.37424905  6.93300785  2.17788070
  -6.54733970 -0.91088336  5.47310514
  -6.59084169  0.42772732  6.11787991
   7.48575173 -1.12559217  0.89835946
   7.49945629  0.19071693  1.37651201
   6.11851738 -4.17692977  4.33218995
   5.38356119 -4.61336960  5.54826430
  -2.23129294  7.28570654  0.23459412
  -3.04766241  6.87118412  1.29439876
   2.24507534  8.09817606  1.74211940
   3.44978811  7.90209766  2.59056074
  -4.48465298 -4.88386445  3.76077320
  -3.32641508 -5.19653070  4.48344660
  -6.34630927  1.38326026  4.21248863
   3.70894842 -5.21905851  4.35173836
   4.18117170  6.39459778  1.25052387
   7.39408289  0.35350742  2.44863915
  -2.66111790  6.95567174  2.30947696
  -3.13343604 -4.65798180  5.41065783
   7.76122131  3.68659803  0.43750293
   7.40382788  2.77060643  2.43851787
  -6.30653318  3.87969749  4.88257993
  -6.27463269  5.46730709  2.18121255
  -4.53665957  5.97898135  3.48049893
   2.05193633 -6.04678976  6.15508551
  -0.35556713 -7.27893549  4.57229794
  -0.99933933 -5.65370086  5.95586082
   6.37139789  5.67555000  2.42042758
  -6.71344453 -1.94994854  6.22364017
  -6.35615277 -1.03396038  4.22270878
   7.35448569 -2.14299152  1.77856029
   7.32257635 -3.73082814  4.48014175
   5.58433991 -4.24178379  3.18082142
  -1.00427807  7.78374439  0.50621851
   1.40319956  9.01548987  2.08910649
   2.04712062  7.39009271  0.70539501
  -5.32367499 -3.93888995  4.24083442
   1.51449077 -7.74281446  5.18874191
   7.51419913  5.67007421  0.74919627
  -7.55659294  4.51280695  3.42128208
  -0.46679633  9.47955771  1.47259858
  -6.46642219 -3.93338742  5.91212651
   8.60442569 -2.77628522  3.23998031
 


--------------------------------------------------------------------------------------------------------


 use serial FFT for orbitals x direction half grid
 k-point   1 :   0.0000 0.0000 0.0000  plane waves:   49218

 maximum and minimum number of plane-waves per node :     49218    49218

 maximum number of plane-waves:     49218
 maximum index in each direction: 
   IXMAX=   39   IYMAX=   34   IZMAX=   34
   IXMIN=    0   IYMIN=  -39   IZMIN=  -39


 serial   3D FFT for wavefunctions
 parallel 3D FFT for charge:
    minimum data exchange during FFTs selected (reduces bandwidth)


 total amount of memory used by VASP MPI-rank0   492604. kBytes
=======================================================================

   base      :      30000. kBytes
   nonlr-proj:      47485. kBytes
   fftplans  :      44218. kBytes
   grid      :     361184. kBytes
   one-center:        219. kBytes
   wavefun   :       9498. kBytes
 
     INWAV:  cpu time      0.0003: real time      0.0005
 Broyden mixing: mesh for mixing (old mesh)
   NGX = 79   NGY = 79   NGZ = 79
  (NGX  =320   NGY  =320   NGZ  =320)
  gives a total of 493039 points

 initial charge density was supplied:
 charge density of overlapping atoms calculated
 number of electron     222.0000000 magnetization 
 keeping initial charge density in first step


--------------------------------------------------------------------------------------------------------


 Maximum index for non-local projection operator        17929
 Maximum index for augmentation-charges         3172 (set IRDMAX)


--------------------------------------------------------------------------------------------------------


 First call to EWALD:  gamma=   0.160
 Maximum number of real-space cells 4x 4x 4
 Maximum number of reciprocal cells 4x 4x 4

    FEWALD:  cpu time      0.0031: real time      0.0031


--------------------------------------- Iteration      1(   1)  ---------------------------------------


    POTLOK:  cpu time     16.6259: real time     16.8720
    SETDIJ:  cpu time      0.7920: real time      0.7945
    TRIAL :  cpu time     14.4107: real time     14.6003
    CORREC:  cpu time      0.0002: real time      0.0002
    --------------------------------------------
      LOOP:  cpu time     31.8361: real time     32.2763

 eigenvalue-minimisations  :   320
 total energy-change (2. order) : 0.2937440E+04  (-0.1571929E+05)
 number of electron     222.0000000 magnetization 
 augmentation part      222.0000000 magnetization 

 Free energy of the ion-electron system (eV)
  ---------------------------------------------------
  alpha Z        PSCENC =       171.49134797
  Ewald energy   TEWEN  =      9959.13138061
  -Hartree energ DENC   =    -19698.37978568
  -exchange      EXHF   =         0.00000000
  -V(xc)+E(xc)   XCENC  =       709.30267882
  PAW double counting   =      9055.18708736    -8897.97718805
  entropy T*S    EENTRO =        -0.11059139
  eigenvalues    EBANDS =       111.14287287
  atomic energy  EATOM  =     11527.65184868
  ---------------------------------------------------
  free energy    TOTEN  =      2937.43965120 eV

  energy without entropy =     2937.55024259  energy(sigma->0) =     2937.49494690


--------------------------------------------------------------------------------------------------------




--------------------------------------- Iteration      1(   2)  ---------------------------------------


    TRIAL :  cpu time     21.2412: real time     21.3203
    CORREC:  cpu time      0.0001: real time      0.0001
    --------------------------------------------
      LOOP:  cpu time     21.2444: real time     21.3292

 eigenvalue-minimisations  :   600
 total energy-change (2. order) :-0.3045526E+04  (-0.2923115E+04)
 number of electron     222.0000000 magnetization 
 augmentation part      222.0000000 magnetization 

 Free energy of the ion-electron system (eV)
  ---------------------------------------------------
  alpha Z        PSCENC =       171.49134797
  Ewald energy   TEWEN  =      9959.13138061
  -Hartree energ DENC   =    -19698.37978568
  -exchange      EXHF   =         0.00000000
  -V(xc)+E(xc)   XCENC  =       709.30267882
  PAW double counting   =      9055.18708736    -8897.97718805
  entropy T*S    EENTRO =        -0.00000000
  eigenvalues    EBANDS =     -2934.49416610
  atomic energy  EATOM  =     11527.65184868
  ---------------------------------------------------
  free energy    TOTEN  =      -108.08679638 eV

  energy without entropy =     -108.08679638  energy(sigma->0) =     -108.08679638


--------------------------------------------------------------------------------------------------------




--------------------------------------- Iteration      1(   3)  ---------------------------------------


    TRIAL :  cpu time     16.3943: real time     16.4533
    CORREC:  cpu time      0.0001: real time      0.0001
    --------------------------------------------
      LOOP:  cpu time     16.3953: real time     16.4624

 eigenvalue-minimisations  :   400
 total energy-change (2. order) :-0.4360659E+03  (-0.4335861E+03)
 number of electron     222.0000000 magnetization 
 augmentation part      222.0000000 magnetization 

 Free energy of the ion-electron system (eV)
  ---------------------------------------------------
  alpha Z        PSCENC =       171.49134797
  Ewald energy   TEWEN  =      9959.13138061
  -Hartree energ DENC   =    -19698.37978568
  -exchange      EXHF   =         0.00000000
  -V(xc)+E(xc)   XCENC  =       709.30267882
  PAW double counting   =      9055.18708736    -8897.97718805
  entropy T*S    EENTRO =        -0.00000000
  eigenvalues    EBANDS =     -3370.56010501
  atomic energy  EATOM  =     11527.65184868
  ---------------------------------------------------
  free energy    TOTEN  =      -544.15273529 eV

  energy without entropy =     -544.15273529  energy(sigma->0) =     -544.15273529


--------------------------------------------------------------------------------------------------------




--------------------------------------- Iteration      1(   4)  ---------------------------------------


    TRIAL :  cpu time     16.4509: real time     16.8207
    CORREC:  cpu time      0.0001: real time      0.0001
    --------------------------------------------
      LOOP:  cpu time     16.4531: real time     16.8297

 eigenvalue-minimisations  :   400
 total energy-change (2. order) :-0.1204563E+02  (-0.1201946E+02)
 number of electron     222.0000000 magnetization 
 augmentation part      222.0000000 magnetization 

 Free energy of the ion-electron system (eV)
  ---------------------------------------------------
  alpha Z        PSCENC =       171.49134797
  Ewald energy   TEWEN  =      9959.13138061
  -Hartree energ DENC   =    -19698.37978568
  -exchange      EXHF   =         0.00000000
  -V(xc)+E(xc)   XCENC  =       709.30267882
  PAW double counting   =      9055.18708736    -8897.97718805
  entropy T*S    EENTRO =        -0.00000000
  eigenvalues    EBANDS =     -3382.60573537
  atomic energy  EATOM  =     11527.65184868
  ---------------------------------------------------
  free energy    TOTEN  =      -556.19836566 eV

  energy without entropy =     -556.19836566  energy(sigma->0) =     -556.19836566


--------------------------------------------------------------------------------------------------------




--------------------------------------- Iteration      1(   5)  ---------------------------------------


    TRIAL :  cpu time     18.3166: real time     18.3816
    CORREC:  cpu time      0.0001: real time      0.0001
    CHARGE:  cpu time      2.1534: real time      2.1602
    --------------------------------------------
      LOOP:  cpu time     20.4737: real time     20.5508

 eigenvalue-minimisations  :   480
 total energy-change (2. order) :-0.2875837E+00  (-0.2875506E+00)
 number of electron     222.0000002 magnetization 
 augmentation part       15.6480685 magnetization 

 Free energy of the ion-electron system (eV)
  ---------------------------------------------------
  alpha Z        PSCENC =       171.49134797
  Ewald energy   TEWEN  =      9959.13138061
  -Hartree energ DENC   =    -19698.37978568
  -exchange      EXHF   =         0.00000000
  -V(xc)+E(xc)   XCENC  =       709.30267882
  PAW double counting   =      9055.18708736    -8897.97718805
  entropy T*S    EENTRO =        -0.00000000
  eigenvalues    EBANDS =     -3382.89331905
  atomic energy  EATOM  =     11527.65184868
  ---------------------------------------------------
  free energy    TOTEN  =      -556.48594933 eV

  energy without entropy =     -556.48594933  energy(sigma->0) =     -556.48594933


--------------------------------------------------------------------------------------------------------




--------------------------------------- Iteration      1(   6)  ---------------------------------------


    POTLOK:  cpu time     16.1845: real time     16.2492
    SETDIJ:  cpu time      0.7951: real time      0.7971
    TRIAL :  cpu time     13.5839: real time     14.0210
    CORREC:  cpu time     90.7298: real time     91.2241
    CHARGE:  cpu time      2.1507: real time      2.1576
    --------------------------------------------
      LOOP:  cpu time    123.4482: real time    124.4604

 eigenvalue-minimisations  :     0
 total energy-change (2. order) : 0.1323263E+03  (-0.1923696E+01)
 number of electron     222.0000002 magnetization 
 augmentation part       14.3922200 magnetization 

 Free energy of the ion-electron system (eV)
  ---------------------------------------------------
  alpha Z        PSCENC =       171.49134797
  Ewald energy   TEWEN  =      9959.13138061
  -Hartree energ DENC   =    -21159.82815990
  -exchange      EXHF   =         0.00000000
  -V(xc)+E(xc)   XCENC  =       824.78356879
  PAW double counting   =     18977.80164840   -18832.12134031
  entropy T*S    EENTRO =        -0.00000000
  eigenvalues    EBANDS =     -1893.06998202
  atomic energy  EATOM  =     11527.65184868
  ---------------------------------------------------
  free energy    TOTEN  =      -424.15968777 eV

  energy without entropy =     -424.15968777  energy(sigma->0) =     -424.15968777


--------------------------------------------------------------------------------------------------------




--------------------------------------- Iteration      1(   7)  ---------------------------------------


    POTLOK:  cpu time     16.2152: real time     16.2767
    SETDIJ:  cpu time      0.7952: real time      0.7974
    TRIAL :  cpu time     13.7932: real time     14.1418
    CORREC:  cpu time     90.8381: real time     91.4616
    CHARGE:  cpu time      2.1402: real time      2.1590
    --------------------------------------------
      LOOP:  cpu time    123.7848: real time    124.8453

 eigenvalue-minimisations  :     0
 total energy-change (2. order) :-0.2700070E+02  (-0.1455721E-01)
 number of electron     222.0000002 magnetization 
 augmentation part       13.9978507 magnetization 

 Free energy of the ion-electron system (eV)
  ---------------------------------------------------
  alpha Z        PSCENC =       171.49134797
  Ewald energy   TEWEN  =      9959.13138061
  -Hartree energ DENC   =    -20584.66313991
  -exchange      EXHF   =         0.00000000
  -V(xc)+E(xc)   XCENC  =       787.72395761
  PAW double counting   =     18829.77775253   -18680.76854221
  entropy T*S    EENTRO =        -0.00000000
  eigenvalues    EBANDS =     -2461.50499602
  atomic energy  EATOM  =     11527.65184868
  ---------------------------------------------------
  free energy    TOTEN  =      -451.16039075 eV

  energy without entropy =     -451.16039075  energy(sigma->0) =     -451.16039075


--------------------------------------------------------------------------------------------------------




--------------------------------------- Iteration      1(   8)  ---------------------------------------


    POTLOK:  cpu time     16.2565: real time     16.3313
    SETDIJ:  cpu time      0.7382: real time      0.7987
    TRIAL :  cpu time     13.6478: real time     14.0197
    CORREC:  cpu time     22.5978: real time     22.6695
    CHARGE:  cpu time      2.1392: real time      2.1477
    --------------------------------------------
      LOOP:  cpu time     55.3826: real time     55.9765

 eigenvalue-minimisations  :     0
 total energy-change (2. order) :-0.2994100E+01  (-0.1115243E+01)
 number of electron     222.0000002 magnetization 
 augmentation part       13.9887688 magnetization 

 Free energy of the ion-electron system (eV)
  ---------------------------------------------------
  alpha Z        PSCENC =       171.49134797
  Ewald energy   TEWEN  =      9959.13138061
  -Hartree energ DENC   =    -20528.87600837
  -exchange      EXHF   =         0.00000000
  -V(xc)+E(xc)   XCENC  =       782.84878915
  PAW double counting   =     19326.38840068   -19175.21551371
  entropy T*S    EENTRO =        -0.00000000
  eigenvalues    EBANDS =     -2517.57473604
  atomic energy  EATOM  =     11527.65184868
  ---------------------------------------------------
  free energy    TOTEN  =      -454.15449103 eV

  energy without entropy =     -454.15449103  energy(sigma->0) =     -454.15449103


--------------------------------------------------------------------------------------------------------




--------------------------------------- Iteration      1(   9)  ---------------------------------------


    POTLOK:  cpu time     16.2356: real time     16.3011
    SETDIJ:  cpu time      0.7936: real time      0.7960
    TRIAL :  cpu time     13.1768: real time     14.1470
    CORREC:  cpu time     22.5503: real time     22.6218
    CHARGE:  cpu time      2.1387: real time      2.1471
    --------------------------------------------
      LOOP:  cpu time     54.8978: real time     56.0218

 eigenvalue-minimisations  :     0
 total energy-change (2. order) :-0.1089134E+01  (-0.5663551E+00)
 number of electron     222.0000002 magnetization 
 augmentation part       14.1009817 magnetization 

 Free energy of the ion-electron system (eV)
  ---------------------------------------------------
  alpha Z        PSCENC =       171.49134797
  Ewald energy   TEWEN  =      9959.13138061
  -Hartree energ DENC   =    -20523.21904234
  -exchange      EXHF   =         0.00000000
  -V(xc)+E(xc)   XCENC  =       782.19173010
  PAW double counting   =     19726.46758434   -19575.24460037
  entropy T*S    EENTRO =        -0.00000000
  eigenvalues    EBANDS =     -2523.71387381
  atomic energy  EATOM  =     11527.65184868
  ---------------------------------------------------
  free energy    TOTEN  =      -455.24362481 eV

  energy without entropy =     -455.24362481  energy(sigma->0) =     -455.24362481


--------------------------------------------------------------------------------------------------------




--------------------------------------- Iteration      1(  10)  ---------------------------------------


    POTLOK:  cpu time     16.1956: real time     16.2590
    SETDIJ:  cpu time      0.7952: real time      0.7976
    TRIAL :  cpu time     13.8072: real time     14.0958
    CORREC:  cpu time     22.5657: real time     22.6353
    CHARGE:  cpu time      2.1360: real time      2.1455
    --------------------------------------------
      LOOP:  cpu time     55.5029: real time     55.9438

 eigenvalue-minimisations  :     0
 total energy-change (2. order) :-0.5588845E+00  (-0.2038600E+00)
 number of electron     222.0000002 magnetization 
 augmentation part       14.1470842 magnetization 

 Free energy of the ion-electron system (eV)
  ---------------------------------------------------
  alpha Z        PSCENC =       171.49134797
  Ewald energy   TEWEN  =      9959.13138061
  -Hartree energ DENC   =    -20535.47513380
  -exchange      EXHF   =         0.00000000
  -V(xc)+E(xc)   XCENC  =       783.38579102
  PAW double counting   =     19943.73505880   -19793.01960855
  entropy T*S    EENTRO =        -0.00000000
  eigenvalues    EBANDS =     -2512.70319402
  atomic energy  EATOM  =     11527.65184868
  ---------------------------------------------------
  free energy    TOTEN  =      -455.80250928 eV

  energy without entropy =     -455.80250928  energy(sigma->0) =     -455.80250928


--------------------------------------------------------------------------------------------------------




--------------------------------------- Iteration      1(  11)  ---------------------------------------


    POTLOK:  cpu time     16.2235: real time     16.3022
    SETDIJ:  cpu time      0.7952: real time      0.7975
    TRIAL :  cpu time     13.7410: real time     14.0681
    CORREC:  cpu time     22.6136: real time     22.6884
    CHARGE:  cpu time      2.1598: real time      2.1678
    --------------------------------------------
      LOOP:  cpu time     55.5362: real time     56.0349

 eigenvalue-minimisations  :     0
 total energy-change (2. order) :-0.2017956E+00  (-0.7493056E-01)
 number of electron     222.0000002 magnetization 
 augmentation part       14.1441885 magnetization 

 Free energy of the ion-electron system (eV)
  ---------------------------------------------------
  alpha Z        PSCENC =       171.49134797
  Ewald energy   TEWEN  =      9959.13138061
  -Hartree energ DENC   =    -20538.12958887
  -exchange      EXHF   =         0.00000000
  -V(xc)+E(xc)   XCENC  =       783.85114203
  PAW double counting   =     19982.65592235   -19832.09964204
  entropy T*S    EENTRO =        -0.00000000
  eigenvalues    EBANDS =     -2510.55671564
  atomic energy  EATOM  =     11527.65184868
  ---------------------------------------------------
  free energy    TOTEN  =      -456.00430491 eV

  energy without entropy =     -456.00430491  energy(sigma->0) =     -456.00430491


--------------------------------------------------------------------------------------------------------




--------------------------------------- Iteration      1(  12)  ---------------------------------------


    POTLOK:  cpu time     16.3424: real time     16.4113
    SETDIJ:  cpu time      0.7965: real time      0.7989
    TRIAL :  cpu time     13.7524: real time     13.8009
    CORREC:  cpu time     22.8217: real time     23.1636
    CHARGE:  cpu time      2.1469: real time      2.1565
    --------------------------------------------
      LOOP:  cpu time     55.8629: real time     56.3409

 eigenvalue-minimisations  :     0
 total energy-change (2. order) :-0.7477646E-01  (-0.2300085E-01)
 number of electron     222.0000002 magnetization 
 augmentation part       14.1397632 magnetization 

 Free energy of the ion-electron system (eV)
  ---------------------------------------------------
  alpha Z        PSCENC =       171.49134797
  Ewald energy   TEWEN  =      9959.13138061
  -Hartree energ DENC   =    -20526.55875744
  -exchange      EXHF   =         0.00000000
  -V(xc)+E(xc)   XCENC  =       783.17840668
  PAW double counting   =     19941.05839658   -19790.52514975
  entropy T*S    EENTRO =        -0.00000000
  eigenvalues    EBANDS =     -2521.50655471
  atomic energy  EATOM  =     11527.65184868
  ---------------------------------------------------
  free energy    TOTEN  =      -456.07908136 eV

  energy without entropy =     -456.07908136  energy(sigma->0) =     -456.07908136


--------------------------------------------------------------------------------------------------------




--------------------------------------- Iteration      1(  13)  ---------------------------------------


    POTLOK:  cpu time     16.2132: real time     16.2634
    SETDIJ:  cpu time      0.7954: real time      0.7978
    TRIAL :  cpu time     13.7441: real time     13.8031
    CORREC:  cpu time     23.0823: real time     23.3210
    CHARGE:  cpu time      2.1479: real time      2.1556
    --------------------------------------------
      LOOP:  cpu time     55.9858: real time     56.3496

 eigenvalue-minimisations  :     0
 total energy-change (2. order) :-0.2312994E-01  (-0.7274710E-02)
 number of electron     222.0000002 magnetization 
 augmentation part       14.1415744 magnetization 

 Free energy of the ion-electron system (eV)
  ---------------------------------------------------
  alpha Z        PSCENC =       171.49134797
  Ewald energy   TEWEN  =      9959.13138061
  -Hartree energ DENC   =    -20522.11621658
  -exchange      EXHF   =         0.00000000
  -V(xc)+E(xc)   XCENC  =       782.86328962
  PAW double counting   =     19900.47785289   -19749.95521636
  entropy T*S    EENTRO =        -0.00000000
  eigenvalues    EBANDS =     -2525.64649814
  atomic energy  EATOM  =     11527.65184868
  ---------------------------------------------------
  free energy    TOTEN  =      -456.10221131 eV

  energy without entropy =     -456.10221131  energy(sigma->0) =     -456.10221131


--------------------------------------------------------------------------------------------------------




--------------------------------------- Iteration      1(  14)  ---------------------------------------


    POTLOK:  cpu time     16.2038: real time     16.3029
    SETDIJ:  cpu time      0.7965: real time      0.7988
    TRIAL :  cpu time     13.7346: real time     13.7986
    CORREC:  cpu time     23.0236: real time     23.3995
    CHARGE:  cpu time      2.1460: real time      2.1535
    --------------------------------------------
      LOOP:  cpu time     55.9064: real time     56.4629

 eigenvalue-minimisations  :     0
 total energy-change (2. order) :-0.7236465E-02  (-0.2043601E-02)
 number of electron     222.0000002 magnetization 
 augmentation part       14.1408691 magnetization 

 Free energy of the ion-electron system (eV)
  ---------------------------------------------------
  alpha Z        PSCENC =       171.49134797
  Ewald energy   TEWEN  =      9959.13138061
  -Hartree energ DENC   =    -20523.57034350
  -exchange      EXHF   =         0.00000000
  -V(xc)+E(xc)   XCENC  =       782.94388951
  PAW double counting   =     19873.66261790   -19723.14952228
  entropy T*S    EENTRO =        -0.00000000
  eigenvalues    EBANDS =     -2524.27066667
  atomic energy  EATOM  =     11527.65184868
  ---------------------------------------------------
  free energy    TOTEN  =      -456.10944777 eV

  energy without entropy =     -456.10944777  energy(sigma->0) =     -456.10944777


--------------------------------------------------------------------------------------------------------




--------------------------------------- Iteration      1(  15)  ---------------------------------------


    POTLOK:  cpu time     16.2081: real time     16.2584
    SETDIJ:  cpu time      0.7938: real time      0.7962
    TRIAL :  cpu time     13.7328: real time     13.7947
    CORREC:  cpu time     23.0405: real time     23.3380
    CHARGE:  cpu time      2.1481: real time      2.1556
    --------------------------------------------
      LOOP:  cpu time     55.9258: real time     56.3520

 eigenvalue-minimisations  :     0
 total energy-change (2. order) :-0.2047705E-02  (-0.5910688E-03)
 number of electron     222.0000002 magnetization 
 augmentation part       14.1391960 magnetization 

 Free energy of the ion-electron system (eV)
  ---------------------------------------------------
  alpha Z        PSCENC =       171.49134797
  Ewald energy   TEWEN  =      9959.13138061
  -Hartree energ DENC   =    -20523.54187135
  -exchange      EXHF   =         0.00000000
  -V(xc)+E(xc)   XCENC  =       782.95177229
  PAW double counting   =     19856.17579394   -19705.66023372
  entropy T*S    EENTRO =        -0.00000000
  eigenvalues    EBANDS =     -2524.31153390
  atomic energy  EATOM  =     11527.65184868
  ---------------------------------------------------
  free energy    TOTEN  =      -456.11149548 eV

  energy without entropy =     -456.11149548  energy(sigma->0) =     -456.11149548


--------------------------------------------------------------------------------------------------------




--------------------------------------- Iteration      1(  16)  ---------------------------------------


    POTLOK:  cpu time     20.4391: real time     20.5470
    SETDIJ:  cpu time      0.7913: real time      0.8021
    TRIAL :  cpu time     15.1287: real time     15.1911
    CORREC:  cpu time     24.3969: real time     24.7808
    CHARGE:  cpu time      2.1516: real time      2.1613
    --------------------------------------------
      LOOP:  cpu time     62.9108: real time     63.4921

 eigenvalue-minimisations  :     0
 total energy-change (2. order) :-0.6114408E-03  (-0.2055891E-03)
 number of electron     222.0000002 magnetization 
 augmentation part       14.1388733 magnetization 

 Free energy of the ion-electron system (eV)
  ---------------------------------------------------
  alpha Z        PSCENC =       171.49134797
  Ewald energy   TEWEN  =      9959.13138061
  -Hartree energ DENC   =    -20522.91822390
  -exchange      EXHF   =         0.00000000
  -V(xc)+E(xc)   XCENC  =       782.91845900
  PAW double counting   =     19845.82202761   -19695.30074683
  entropy T*S    EENTRO =        -0.00000000
  eigenvalues    EBANDS =     -2524.90820007
  atomic energy  EATOM  =     11527.65184868
  ---------------------------------------------------
  free energy    TOTEN  =      -456.11210692 eV

  energy without entropy =     -456.11210692  energy(sigma->0) =     -456.11210692


--------------------------------------------------------------------------------------------------------




--------------------------------------- Iteration      1(  17)  ---------------------------------------


    POTLOK:  cpu time     16.2095: real time     16.2720
    SETDIJ:  cpu time      0.7938: real time      0.7965
    TRIAL :  cpu time     13.7002: real time     13.8029
    CORREC:  cpu time     22.7937: real time     23.1372
    CHARGE:  cpu time      2.1400: real time      2.1474
    --------------------------------------------
      LOOP:  cpu time     55.6403: real time     56.1653

 eigenvalue-minimisations  :     0
 total energy-change (2. order) :-0.2021246E-03  (-0.9062568E-04)
 number of electron     222.0000002 magnetization 
 augmentation part       14.1391504 magnetization 

 Free energy of the ion-electron system (eV)
  ---------------------------------------------------
  alpha Z        PSCENC =       171.49134797
  Ewald energy   TEWEN  =      9959.13138061
  -Hartree energ DENC   =    -20522.97487353
  -exchange      EXHF   =         0.00000000
  -V(xc)+E(xc)   XCENC  =       782.92269291
  PAW double counting   =     19840.51158108   -19689.98876788
  entropy T*S    EENTRO =        -0.00000000
  eigenvalues    EBANDS =     -2524.85751889
  atomic energy  EATOM  =     11527.65184868
  ---------------------------------------------------
  free energy    TOTEN  =      -456.11230904 eV

  energy without entropy =     -456.11230904  energy(sigma->0) =     -456.11230904


--------------------------------------------------------------------------------------------------------




--------------------------------------- Iteration      1(  18)  ---------------------------------------


    POTLOK:  cpu time     16.2217: real time     16.2717
    SETDIJ:  cpu time      0.7953: real time      0.7979
    TRIAL :  cpu time     13.6876: real time     13.8050
    CORREC:  cpu time     22.8453: real time     23.2033
    CHARGE:  cpu time      2.1886: real time      2.2014
    --------------------------------------------
      LOOP:  cpu time     55.7419: real time     56.2928

 eigenvalue-minimisations  :     0
 total energy-change (2. order) :-0.6955382E-04  (-0.2281101E-04)
 number of electron     222.0000002 magnetization 
 augmentation part       14.1389253 magnetization 

 Free energy of the ion-electron system (eV)
  ---------------------------------------------------
  alpha Z        PSCENC =       171.49134797
  Ewald energy   TEWEN  =      9959.13138061
  -Hartree energ DENC   =    -20523.29626270
  -exchange      EXHF   =         0.00000000
  -V(xc)+E(xc)   XCENC  =       782.94260241
  PAW double counting   =     19837.38123810   -19686.85913957
  entropy T*S    EENTRO =        -0.00000000
  eigenvalues    EBANDS =     -2524.55539409
  atomic energy  EATOM  =     11527.65184868
  ---------------------------------------------------
  free energy    TOTEN  =      -456.11237860 eV

  energy without entropy =     -456.11237860  energy(sigma->0) =     -456.11237860


--------------------------------------------------------------------------------------------------------




--------------------------------------- Iteration      1(  19)  ---------------------------------------


    POTLOK:  cpu time     16.2433: real time     16.2947
    SETDIJ:  cpu time      0.7959: real time      0.7982
    TRIAL :  cpu time     13.7481: real time     13.7969
    CORREC:  cpu time     22.4706: real time     22.8478
    CHARGE:  cpu time      2.1428: real time      2.1510
    --------------------------------------------
      LOOP:  cpu time     55.4039: real time     55.8995

 eigenvalue-minimisations  :     0
 total energy-change (2. order) :-0.2339397E-04  (-0.1159396E-04)
 number of electron     222.0000002 magnetization 
 augmentation part       14.1387804 magnetization 

 Free energy of the ion-electron system (eV)
  ---------------------------------------------------
  alpha Z        PSCENC =       171.49134797
  Ewald energy   TEWEN  =      9959.13138061
  -Hartree energ DENC   =    -20523.26120652
  -exchange      EXHF   =         0.00000000
  -V(xc)+E(xc)   XCENC  =       782.94043243
  PAW double counting   =     19836.31044693   -19685.78755008
  entropy T*S    EENTRO =        -0.00000000
  eigenvalues    EBANDS =     -2524.58910201
  atomic energy  EATOM  =     11527.65184868
  ---------------------------------------------------
  free energy    TOTEN  =      -456.11240199 eV

  energy without entropy =     -456.11240199  energy(sigma->0) =     -456.11240199


--------------------------------------------------------------------------------------------------------




--------------------------------------- Iteration      1(  20)  ---------------------------------------


    POTLOK:  cpu time     16.2890: real time     16.3426
    SETDIJ:  cpu time      0.7948: real time      0.7973
    TRIAL :  cpu time     13.7246: real time     13.8243
    CORREC:  cpu time     22.5807: real time     22.7270
    CHARGE:  cpu time      2.1820: real time      2.3274
    --------------------------------------------
      LOOP:  cpu time     55.5743: real time     56.0291

 eigenvalue-minimisations  :     0
 total energy-change (2. order) :-0.1200589E-04  (-0.7614244E-05)
 number of electron     222.0000002 magnetization 
 augmentation part       14.1388372 magnetization 

 Free energy of the ion-electron system (eV)
  ---------------------------------------------------
  alpha Z        PSCENC =       171.49134797
  Ewald energy   TEWEN  =      9959.13138061
  -Hartree energ DENC   =    -20523.20604585
  -exchange      EXHF   =         0.00000000
  -V(xc)+E(xc)   XCENC  =       782.93680439
  PAW double counting   =     19836.31456362   -19685.79115453
  entropy T*S    EENTRO =        -0.00000000
  eigenvalues    EBANDS =     -2524.64115889
  atomic energy  EATOM  =     11527.65184868
  ---------------------------------------------------
  free energy    TOTEN  =      -456.11241400 eV

  energy without entropy =     -456.11241400  energy(sigma->0) =     -456.11241400


--------------------------------------------------------------------------------------------------------




--------------------------------------- Iteration      1(  21)  ---------------------------------------


    POTLOK:  cpu time     16.2665: real time     16.4577
    SETDIJ:  cpu time      0.7955: real time      0.7981
    TRIAL :  cpu time     13.7437: real time     13.7931
    CORREC:  cpu time     22.6154: real time     22.6971
    CHARGE:  cpu time      2.1470: real time      2.1549
    --------------------------------------------
      LOOP:  cpu time     55.5736: real time     55.9156

 eigenvalue-minimisations  :     0
 total energy-change (2. order) :-0.5287093E-05  (-0.3009046E-05)
 number of electron     222.0000002 magnetization 
 augmentation part       14.1388703 magnetization 

 Free energy of the ion-electron system (eV)
  ---------------------------------------------------
  alpha Z        PSCENC =       171.49134797
  Ewald energy   TEWEN  =      9959.13138061
  -Hartree energ DENC   =    -20523.22404927
  -exchange      EXHF   =         0.00000000
  -V(xc)+E(xc)   XCENC  =       782.93727222
  PAW double counting   =     19837.10343295   -19686.58022999
  entropy T*S    EENTRO =        -0.00000000
  eigenvalues    EBANDS =     -2524.62342246
  atomic energy  EATOM  =     11527.65184868
  ---------------------------------------------------
  free energy    TOTEN  =      -456.11241928 eV

  energy without entropy =     -456.11241928  energy(sigma->0) =     -456.11241928


--------------------------------------------------------------------------------------------------------




--------------------------------------- Iteration      1(  22)  ---------------------------------------


    POTLOK:  cpu time     16.7129: real time     16.9339
    SETDIJ:  cpu time      0.7930: real time      0.7953
    TRIAL :  cpu time     13.7517: real time     13.8022
    CORREC:  cpu time     90.5628: real time     91.8254
    CHARGE:  cpu time      1.7943: real time      2.4171
    --------------------------------------------
      LOOP:  cpu time    123.6177: real time    125.7843

 eigenvalue-minimisations  :     0
 total energy-change (2. order) :-0.3122572E-05  (-0.4798703E-06)
 number of electron     222.0000002 magnetization 
 augmentation part       14.1389575 magnetization 

 Free energy of the ion-electron system (eV)
  ---------------------------------------------------
  alpha Z        PSCENC =       171.49134797
  Ewald energy   TEWEN  =      9959.13138061
  -Hartree energ DENC   =    -20523.23545436
  -exchange      EXHF   =         0.00000000
  -V(xc)+E(xc)   XCENC  =       782.93792109
  PAW double counting   =     19837.36301921   -19686.83998836
  entropy T*S    EENTRO =        -0.00000000
  eigenvalues    EBANDS =     -2524.61249725
  atomic energy  EATOM  =     11527.65184868
  ---------------------------------------------------
  free energy    TOTEN  =      -456.11242240 eV

  energy without entropy =     -456.11242240  energy(sigma->0) =     -456.11242240


--------------------------------------------------------------------------------------------------------




--------------------------------------- Iteration      1(  23)  ---------------------------------------


    POTLOK:  cpu time     16.2485: real time     16.2997
    SETDIJ:  cpu time      0.7959: real time      0.7982
    TRIAL :  cpu time     13.7653: real time     13.8161
    CORREC:  cpu time     22.5985: real time     22.6770
    CHARGE:  cpu time      2.1232: real time      2.1510
    --------------------------------------------
      LOOP:  cpu time     55.5344: real time     55.7520

 eigenvalue-minimisations  :     0
 total energy-change (2. order) : 0.6467017E-06  (-0.1035008E-05)
 number of electron     222.0000002 magnetization 
 augmentation part       14.1389316 magnetization 

 Free energy of the ion-electron system (eV)
  ---------------------------------------------------
  alpha Z        PSCENC =       171.49134797
  Ewald energy   TEWEN  =      9959.13138061
  -Hartree energ DENC   =    -20523.23965368
  -exchange      EXHF   =         0.00000000
  -V(xc)+E(xc)   XCENC  =       782.93828330
  PAW double counting   =     19838.27538463   -19687.75259795
  entropy T*S    EENTRO =        -0.00000000
  eigenvalues    EBANDS =     -2524.60841533
  atomic energy  EATOM  =     11527.65184868
  ---------------------------------------------------
  free energy    TOTEN  =      -456.11242176 eV

  energy without entropy =     -456.11242176  energy(sigma->0) =     -456.11242176


--------------------------------------------------------------------------------------------------------




--------------------------------------- Iteration      1(  24)  ---------------------------------------


    POTLOK:  cpu time     16.2788: real time     16.7268
    SETDIJ:  cpu time      0.7940: real time      0.7963
    TRIAL :  cpu time     13.7687: real time     13.8193
    CORREC:  cpu time     22.6221: real time     22.7006
    CHARGE:  cpu time      2.1496: real time      2.1568
    --------------------------------------------
      LOOP:  cpu time     55.6160: real time     56.2087

 eigenvalue-minimisations  :     0
 total energy-change (2. order) :-0.7894523E-06  (-0.2527235E-06)
 number of electron     222.0000002 magnetization 
 augmentation part       14.1389261 magnetization 

 Free energy of the ion-electron system (eV)
  ---------------------------------------------------
  alpha Z        PSCENC =       171.49134797
  Ewald energy   TEWEN  =      9959.13138061
  -Hartree energ DENC   =    -20523.23067229
  -exchange      EXHF   =         0.00000000
  -V(xc)+E(xc)   XCENC  =       782.93763986
  PAW double counting   =     19838.24768251   -19687.72485334
  entropy T*S    EENTRO =        -0.00000000
  eigenvalues    EBANDS =     -2524.61679656
  atomic energy  EATOM  =     11527.65184868
  ---------------------------------------------------
  free energy    TOTEN  =      -456.11242255 eV

  energy without entropy =     -456.11242255  energy(sigma->0) =     -456.11242255


--------------------------------------------------------------------------------------------------------




--------------------------------------- Iteration      1(  25)  ---------------------------------------


    POTLOK:  cpu time     16.4951: real time     16.7526
    SETDIJ:  cpu time      0.7902: real time      0.7926
    TRIAL :  cpu time     13.7604: real time     13.8076
    CORREC:  cpu time     22.5442: real time     22.6768
    CHARGE:  cpu time      2.1406: real time      2.1480
    --------------------------------------------
      LOOP:  cpu time     55.7316: real time     56.1959

 eigenvalue-minimisations  :     0
 total energy-change (2. order) :-0.2169691E-06  ( 0.4245634E-07)
 number of electron     222.0000002 magnetization 
 augmentation part       14.1389284 magnetization 

 Free energy of the ion-electron system (eV)
  ---------------------------------------------------
  alpha Z        PSCENC =       171.49134797
  Ewald energy   TEWEN  =      9959.13138061
  -Hartree energ DENC   =    -20523.22959603
  -exchange      EXHF   =         0.00000000
  -V(xc)+E(xc)   XCENC  =       782.93756658
  PAW double counting   =     19838.22998517   -19687.70714380
  entropy T*S    EENTRO =        -0.00000000
  eigenvalues    EBANDS =     -2524.61781195
  atomic energy  EATOM  =     11527.65184868
  ---------------------------------------------------
  free energy    TOTEN  =      -456.11242276 eV

  energy without entropy =     -456.11242276  energy(sigma->0) =     -456.11242276


--------------------------------------------------------------------------------------------------------




--------------------------------------- Iteration      1(  26)  ---------------------------------------


    POTLOK:  cpu time     16.3533: real time     16.6990
    SETDIJ:  cpu time      0.7889: real time      0.7926
    TRIAL :  cpu time     13.7513: real time     13.8051
    CORREC:  cpu time     22.5905: real time     22.6713
    CHARGE:  cpu time      2.1465: real time      2.1541
    --------------------------------------------
      LOOP:  cpu time     55.6329: real time     56.1315

 eigenvalue-minimisations  :     0
 total energy-change (2. order) :-0.1855733E-06  (-0.1593493E-08)
 number of electron     222.0000002 magnetization 
 augmentation part       14.1389274 magnetization 

 Free energy of the ion-electron system (eV)
  ---------------------------------------------------
  alpha Z        PSCENC =       171.49134797
  Ewald energy   TEWEN  =      9959.13138061
  -Hartree energ DENC   =    -20523.23207893
  -exchange      EXHF   =         0.00000000
  -V(xc)+E(xc)   XCENC  =       782.93772649
  PAW double counting   =     19838.21442154   -19687.69157271
  entropy T*S    EENTRO =        -0.00000000
  eigenvalues    EBANDS =     -2524.61549661
  atomic energy  EATOM  =     11527.65184868
  ---------------------------------------------------
  free energy    TOTEN  =      -456.11242295 eV

  energy without entropy =     -456.11242295  energy(sigma->0) =     -456.11242295


--------------------------------------------------------------------------------------------------------




--------------------------------------- Iteration      1(  27)  ---------------------------------------


    POTLOK:  cpu time     16.4401: real time     16.8505
    SETDIJ:  cpu time      0.7959: real time      0.7985
    TRIAL :  cpu time     13.7608: real time     13.8157
    CORREC:  cpu time     22.6109: real time     22.6895
    EDDIAG:  cpu time      3.4342: real time      3.4621
    CHARGE:  cpu time      2.1459: real time      2.1528
    --------------------------------------------
      LOOP:  cpu time     59.1906: real time     59.7775

 eigenvalue-minimisations  :     0
 total energy-change (2. order) : 0.6777555E-08  (-0.1009424E-08)
 number of electron     222.0000002 magnetization 
 augmentation part       14.1389268 magnetization 

 Free energy of the ion-electron system (eV)
  ---------------------------------------------------
  alpha Z        PSCENC =       171.49134797
  Ewald energy   TEWEN  =      9959.13138061
  -Hartree energ DENC   =    -20523.23196405
  -exchange      EXHF   =         0.00000000
  -V(xc)+E(xc)   XCENC  =       782.93771379
  PAW double counting   =     19838.21178912   -19687.68893645
  entropy T*S    EENTRO =        -0.00000000
  eigenvalues    EBANDS =     -2524.61560262
  atomic energy  EATOM  =     11527.65184868
  ---------------------------------------------------
  free energy    TOTEN  =      -456.11242294 eV

  energy without entropy =     -456.11242294  energy(sigma->0) =     -456.11242294


--------------------------------------------------------------------------------------------------------


  average scaling for gradient   0.6614


 average (electrostatic) potential at core
  the test charge radii are     0.6991  0.5201  0.7215  1.0714
  (the norm of the test charge is              1.0000)
       1 -61.5393       2 -58.7166       3 -59.6980       4 -58.2196       5 -61.5387
       6 -58.7162       7 -59.6981       8 -58.2197       9 -61.5387      10 -58.7164
      11 -59.6981      12 -58.2193      13 -61.5389      14 -58.7163      15 -59.6981
      16 -58.2194      17 -61.5390      18 -58.7167      19 -59.6977      20 -58.2193
      21 -61.5391      22 -58.7163      23 -59.6978      24 -58.2195      25 -41.4235
      26 -41.4256      27 -41.4234      28 -41.4237      29 -41.4259      30 -41.4244
      31 -82.0362      32 -81.7115      33 -81.2010      34 -82.0359      35 -81.7104
      36 -81.1998      37 -82.0355      38 -81.7108      39 -81.2010      40 -82.0354
      41 -81.7112      42 -81.2010      43 -82.0351      44 -81.7112      45 -81.1999
      46 -82.0356      47 -81.7113      48 -81.2002      49 -45.8387      50 -45.8389
      51 -45.8388      52 -45.8386      53 -45.8384      54 -45.8386
 
 
 
 E-fermi :  -1.9519     XC(G=0):  -4.5250     alpha+bet : -3.6057

 Fermi energy:        -1.9519024936

 k-point     1 :       0.0000    0.0000    0.0000
  band No.  band energies     occupation 
      1     -26.1533      2.00000
      2     -26.1480      2.00000
      3     -26.0179      2.00000
      4     -26.0178      2.00000
      5     -26.0135      2.00000
      6     -26.0133      2.00000
      7     -23.8975      2.00000
      8     -23.8808      2.00000
      9     -23.8481      2.00000
     10     -23.8475      2.00000
     11     -23.8112      2.00000
     12     -23.8106      2.00000
     13     -23.5852      2.00000
     14     -23.5850      2.00000
     15     -23.5677      2.00000
     16     -23.5622      2.00000
     17     -23.5620      2.00000
     18     -23.5281      2.00000
     19     -19.5237      2.00000
     20     -19.4783      2.00000
     21     -19.4783      2.00000
     22     -17.6246      2.00000
     23     -17.5805      2.00000
     24     -17.5803      2.00000
     25     -16.1641      2.00000
     26     -16.0733      2.00000
     27     -16.0732      2.00000
     28     -14.8353      2.00000
     29     -14.8235      2.00000
     30     -14.8234      2.00000
     31     -12.9160      2.00000
     32     -12.9028      2.00000
     33     -12.9026      2.00000
     34     -12.6023      2.00000
     35     -12.4854      2.00000
     36     -12.4854      2.00000
     37     -12.2295      2.00000
     38     -11.5535      2.00000
     39     -11.5534      2.00000
     40     -10.7400      2.00000
     41     -10.7400      2.00000
     42     -10.7041      2.00000
     43     -10.7040      2.00000
     44     -10.6502      2.00000
     45     -10.4080      2.00000
     46     -10.1800      2.00000
     47     -10.1020      2.00000
     48     -10.1019      2.00000
     49      -9.9475      2.00000
     50      -9.9474      2.00000
     51      -9.7438      2.00000
     52      -9.4691      2.00000
     53      -9.4690      2.00000
     54      -9.3531      2.00000
     55      -9.2554      2.00000
     56      -9.2552      2.00000
     57      -9.2082      2.00000
     58      -8.9897      2.00000
     59      -8.9896      2.00000
     60      -8.8744      2.00000
     61      -8.8742      2.00000
     62      -8.8261      2.00000
     63      -8.6378      2.00000
     64      -8.1124      2.00000
     65      -8.1123      2.00000
     66      -8.0491      2.00000
     67      -7.9901      2.00000
     68      -7.9898      2.00000
     69      -7.9507      2.00000
     70      -7.7501      2.00000
     71      -7.6860      2.00000
     72      -7.6859      2.00000
     73      -7.3417      2.00000
     74      -7.3416      2.00000
     75      -7.2063      2.00000
     76      -6.9506      2.00000
     77      -6.9161      2.00000
     78      -6.9160      2.00000
     79      -6.3832      2.00000
     80      -6.1199      2.00000
     81      -6.1198      2.00000
     82      -6.0178      2.00000
     83      -5.9603      2.00000
     84      -5.9602      2.00000
     85      -5.6855      2.00000
     86      -5.6854      2.00000
     87      -5.4766      2.00000
     88      -5.4765      2.00000
     89      -5.2236      2.00000
     90      -5.1486      2.00000
     91      -5.0585      2.00000
     92      -5.0584      2.00000
     93      -5.0099      2.00000
     94      -4.9290      2.00000
     95      -4.9289      2.00000
     96      -4.8608      2.00000
     97      -4.7602      2.00000
     98      -4.7601      2.00000
     99      -4.6635      2.00000
    100      -4.3619      2.00000
    101      -4.3618      2.00000
    102      -4.2388      2.00000
    103      -4.2386      2.00000
    104      -4.1794      2.00000
    105      -4.1642      2.00000
    106      -4.0582      2.00000
    107      -4.0580      2.00000
    108      -3.9518      2.00000
    109      -2.6132      2.00000
    110      -2.6131      2.00000
    111      -2.4738      2.00000
    112      -0.1855      0.00000
    113      -0.1854      0.00000
    114      -0.1548      0.00000
    115       1.7132      0.00000
    116       1.7324      0.00000
    117       1.7325      0.00000
    118       1.8113      0.00000
    119       1.9795      0.00000
    120       1.9797      0.00000
    121       1.9827      0.00000
    122       2.1719      0.00000
    123       2.6383      0.00000
    124       2.6384      0.00000
    125       2.6513      0.00000
    126       2.6514      0.00000
    127       3.4762      0.00000
    128       3.6627      0.00000
    129       3.6629      0.00000
    130       3.9708      0.00000
    131       4.0888      0.00000
    132       4.0890      0.00000
    133       4.3465      0.00000
    134       4.3466      0.00000
    135       4.3795      0.00000
    136       4.4531      0.00000
    137       4.6131      0.00000
    138       4.6132      0.00000
    139       4.8955      0.00000
    140       4.8955      0.00000
    141       5.0400      0.00000
    142       5.0594      0.00000
    143       5.2754      0.00000
    144       5.2762      0.00000
    145       5.4900      0.00000
    146       5.7476      0.00000
    147       5.7852      0.00000
    148       5.7996      0.00000
    149       5.8377      0.00000
    150       5.8523      0.00000
    151       5.8901      0.00000
    152       6.0016      0.00000
    153       6.0040      0.00000
    154       6.4108      0.00000
    155       6.4343      0.00000
    156       6.4561      0.00000
    157       6.7363      0.00000
    158       6.8322      0.00000
    159       6.9017      0.00000
    160       6.9343      0.00000


--------------------------------------------------------------------------------------------------------


 soft charge-density along one line, spin component           1
         0         1         2         3         4         5         6         7         8         9
 total charge-density along one line
 
 pseudopotential strength for first ion, spin component:           1
 10.425  13.864   0.008   0.001  -0.000  -0.021  -0.004   0.000
 13.864  18.437   0.010   0.001  -0.000  -0.027  -0.005   0.000
  0.008   0.010  -4.433   0.000  -0.002   8.609  -0.002   0.003
  0.001   0.001   0.000  -4.440   0.005  -0.002   8.621  -0.007
 -0.000  -0.000  -0.002   0.005  -4.407   0.003  -0.007   8.576
 -0.021  -0.027   8.609  -0.002   0.003 -18.992   0.004  -0.003
 -0.004  -0.005  -0.002   8.621  -0.007   0.004 -19.009   0.012
  0.000   0.000   0.003  -0.007   8.576  -0.003   0.012 -18.940
 total augmentation occupancy for first ion, spin component:           1
  9.135  -4.400   0.457   0.272  -0.018   0.109   0.062  -0.004
 -4.400   2.280  -0.372  -0.196   0.014  -0.072  -0.040   0.003
  0.457  -0.372   1.774   0.005   0.029   0.178  -0.015   0.007
  0.272  -0.196   0.005   1.857  -0.129  -0.015   0.214  -0.023
 -0.018   0.014   0.029  -0.129   1.038   0.007  -0.023   0.078
  0.109  -0.072   0.178  -0.015   0.007   0.021  -0.004   0.001
  0.062  -0.040  -0.015   0.214  -0.023  -0.004   0.029  -0.004
 -0.004   0.003   0.007  -0.023   0.078   0.001  -0.004   0.006


------------------------ aborting loop because EDIFF is reached ----------------------------------------


    FORLOC:  cpu time      0.2257: real time      0.2265
    FORNL :  cpu time      2.0154: real time      2.0786
    STRESS:  cpu time     37.0101: real time     37.4626
    FORCOR:  cpu time     16.0629: real time     16.1373
    OFIELD:  cpu time      0.0031: real time      0.0034

  FORCE on cell =-STRESS in cart. coord.  units (eV):
  Direction    XX          YY          ZZ          XY          YZ          ZX
  --------------------------------------------------------------------------------------
  Alpha Z   171.49135   171.49135   171.49135
  Ewald   -2415.38025 -1685.80552 14060.28395   692.37927  4402.91845  2657.36715
  Hartree  1808.44457  2448.62574 16266.16153   607.59860  3863.66218  2331.86509
  E(xc)    -986.99906  -986.90685  -984.92194     0.08726     0.55493     0.33515
  Local   -2247.45210 -3613.00525-33085.85425 -1295.99158 -8241.19729 -4973.91160
  n-local  -480.57277  -481.33661  -497.66986    -0.70348    -4.56605    -2.75844
  augment   121.05240   121.08439   121.74287     0.01595     0.18274     0.10830
  Kinetic  4014.82695  4010.92855  3926.71021    -3.69918   -23.55202   -14.21283
  Fock        0.00000     0.00000     0.00000     0.00000     0.00000     0.00000
  -------------------------------------------------------------------------------------
  Total     -14.58892   -14.92421   -22.05614    -0.31315    -1.99706    -1.20716
  in kB     -17.04402   -17.43574   -25.76787    -0.36585    -2.33314    -1.41031
  external pressure =      -20.08 kB  Pullay stress =        0.00 kB


 VOLUME and BASIS-vectors are now :
 -----------------------------------------------------------------------------
  energy-cutoff  :     1000.00
  volume of cell :     1371.39
      direct lattice vectors                 reciprocal lattice vectors
    15.258013385  0.006374814  0.024579381     0.065314117  0.034130566  0.130953070
    -7.105142985 13.502791256  0.024499078    -0.000241744  0.073693958  0.130953351
    -7.105097270-11.773071197  6.612175988    -0.000241896 -0.000399920  0.150264152

  length of vectors
    15.258034514 15.258080769 15.258062915     0.150264886  0.150265226  0.150264879


 FORCES acting on ions:
    Electron-Ion                     Ewald-Force                    Non-Local-Force
 -----------------------------------------------------------------------------------------------
   0.367E+02 0.139E+03 -.166E+02   -.366E+02 -.144E+03 0.147E+02   -.149E+00 0.612E+01 0.204E+01
   0.880E+01 0.437E+02 -.369E+02   -.890E+01 -.450E+02 0.364E+02   0.918E-01 0.131E+01 0.439E+00
   -.320E+02 0.807E+02 -.521E+01   0.315E+02 -.854E+02 0.832E+01   0.507E+00 0.455E+01 -.307E+01
   -.519E+02 0.227E+02 0.110E+03   0.525E+02 -.226E+02 -.112E+03   -.618E+00 -.460E-01 0.221E+01
   -.131E+03 -.276E+02 0.531E+02   0.135E+03 0.297E+02 -.577E+02   -.378E+01 -.216E+01 0.477E+01
   -.538E+02 -.184E+02 -.108E+02   0.546E+02 0.187E+02 0.976E+01   -.862E+00 -.349E+00 0.102E+01
   -.497E+02 -.623E+02 0.349E+02   0.549E+02 0.645E+02 -.344E+02   -.507E+01 -.210E+01 -.459E+00
   0.540E+02 -.301E+02 0.107E+03   -.553E+02 0.301E+02 -.109E+03   0.128E+01 -.310E-01 0.191E+01
   0.105E+03 -.928E+02 0.329E+02   -.111E+03 0.942E+02 -.358E+02   0.548E+01 -.138E+01 0.311E+01
   0.346E+02 -.426E+02 -.184E+02   -.357E+02 0.429E+02 0.176E+02   0.111E+01 -.388E+00 0.720E+00
   0.864E+02 -.107E+02 -.226E-01   -.902E+02 0.145E+02 0.146E+01   0.379E+01 -.374E+01 -.142E+01
   0.443E+02 0.843E+02 0.785E+02   -.445E+02 -.860E+02 -.802E+02   0.247E+00 0.158E+01 0.165E+01
   -.367E+02 -.139E+03 0.166E+02   0.366E+02 0.144E+03 -.147E+02   0.151E+00 -.612E+01 -.204E+01
   -.883E+01 -.437E+02 0.369E+02   0.893E+01 0.450E+02 -.364E+02   -.928E-01 -.130E+01 -.440E+00
   0.320E+02 -.807E+02 0.522E+01   -.315E+02 0.854E+02 -.834E+01   -.508E+00 -.455E+01 0.307E+01
   0.518E+02 -.228E+02 -.110E+03   -.525E+02 0.226E+02 0.112E+03   0.626E+00 0.494E-01 -.221E+01
   0.131E+03 0.276E+02 -.531E+02   -.135E+03 -.297E+02 0.577E+02   0.377E+01 0.216E+01 -.477E+01
   0.538E+02 0.184E+02 0.108E+02   -.546E+02 -.187E+02 -.975E+01   0.861E+00 0.350E+00 -.102E+01
   0.497E+02 0.623E+02 -.348E+02   -.548E+02 -.645E+02 0.344E+02   0.507E+01 0.210E+01 0.457E+00
   -.540E+02 0.302E+02 -.107E+03   0.553E+02 -.302E+02 0.109E+03   -.128E+01 0.260E-01 -.191E+01
   -.105E+03 0.928E+02 -.329E+02   0.111E+03 -.942E+02 0.358E+02   -.548E+01 0.138E+01 -.311E+01
   -.346E+02 0.426E+02 0.185E+02   0.357E+02 -.429E+02 -.177E+02   -.111E+01 0.388E+00 -.720E+00
   -.863E+02 0.107E+02 0.309E-02   0.902E+02 -.145E+02 -.144E+01   -.379E+01 0.374E+01 0.142E+01
   -.443E+02 -.843E+02 -.785E+02   0.444E+02 0.860E+02 0.802E+02   -.249E+00 -.158E+01 -.165E+01
   -.293E+02 0.908E+01 0.589E+02   0.299E+02 -.997E+01 -.647E+02   -.582E+00 0.923E+00 0.597E+01
   0.321E+02 -.162E+02 0.559E+02   -.342E+02 0.158E+02 -.613E+02   0.213E+01 0.466E+00 0.566E+01
   0.217E+02 0.477E+02 0.409E+02   -.227E+02 -.506E+02 -.458E+02   0.109E+01 0.299E+01 0.516E+01
   0.293E+02 -.908E+01 -.589E+02   -.299E+02 0.997E+01 0.647E+02   0.583E+00 -.924E+00 -.597E+01
   -.321E+02 0.162E+02 -.559E+02   0.342E+02 -.158E+02 0.613E+02   -.213E+01 -.466E+00 -.566E+01
   -.217E+02 -.477E+02 -.409E+02   0.227E+02 0.506E+02 0.458E+02   -.109E+01 -.299E+01 -.516E+01
   -.563E+01 -.265E+02 0.515E+02   0.967E+01 0.540E+02 -.734E+02   -.410E+01 -.277E+02 0.222E+02
   0.181E+03 0.131E+03 -.272E+03   -.189E+03 -.136E+03 0.315E+03   0.840E+01 0.531E+01 -.439E+02
   -.123E+03 0.680E+02 0.102E+03   0.129E+03 -.476E+02 -.125E+03   -.643E+01 -.204E+02 0.224E+02
   0.454E+02 0.176E+02 0.320E+02   -.779E+02 -.301E+02 -.377E+02   0.329E+02 0.127E+02 0.580E+01
   -.302E+03 0.447E+02 -.174E+03   0.329E+03 -.400E+02 0.209E+03   -.270E+02 -.473E+01 -.358E+02
   0.491E+02 -.113E+03 0.122E+03   -.773E+02 0.106E+03 -.132E+03   0.285E+02 0.772E+01 0.957E+01
   -.209E+02 0.403E+02 0.365E+02   0.432E+02 -.653E+02 -.476E+02   -.226E+02 0.253E+02 0.113E+02
   0.314E+02 -.325E+03 -.130E+03   -.321E+02 0.355E+03 0.163E+03   0.779E+00 -.301E+02 -.335E+02
   0.117E+03 0.117E+03 0.516E+02   -.102E+03 -.141E+03 -.636E+02   -.151E+02 0.242E+02 0.121E+02
   0.560E+01 0.265E+02 -.515E+02   -.964E+01 -.540E+02 0.734E+02   0.410E+01 0.277E+02 -.222E+02
   -.180E+03 -.131E+03 0.272E+03   0.189E+03 0.136E+03 -.315E+03   -.839E+01 -.531E+01 0.439E+02
   0.123E+03 -.679E+02 -.102E+03   -.129E+03 0.476E+02 0.125E+03   0.643E+01 0.204E+02 -.224E+02
   -.454E+02 -.174E+02 -.320E+02   0.779E+02 0.300E+02 0.378E+02   -.329E+02 -.127E+02 -.580E+01
   0.303E+03 -.448E+02 0.174E+03   -.329E+03 0.401E+02 -.209E+03   0.270E+02 0.471E+01 0.358E+02
   -.490E+02 0.113E+03 -.122E+03   0.773E+02 -.105E+03 0.132E+03   -.285E+02 -.772E+01 -.956E+01
   0.209E+02 -.403E+02 -.365E+02   -.432E+02 0.652E+02 0.476E+02   0.226E+02 -.253E+02 -.113E+02
   -.313E+02 0.325E+03 0.130E+03   0.321E+02 -.355E+03 -.163E+03   -.790E+00 0.301E+02 0.335E+02
   -.118E+03 -.117E+03 -.516E+02   0.102E+03 0.141E+03 0.636E+02   0.151E+02 -.242E+02 -.121E+02
   -.801E+02 0.171E+02 0.262E+01   0.784E+02 -.168E+02 -.300E+01   0.211E+01 -.416E+00 0.444E+00
   0.252E+02 -.772E+02 0.106E+02   -.249E+02 0.755E+02 -.108E+02   -.468E+00 0.213E+01 0.186E+00
   0.525E+02 0.562E+02 -.284E+02   -.513E+02 -.552E+02 0.274E+02   -.135E+01 -.124E+01 0.120E+01
   0.801E+02 -.171E+02 -.262E+01   -.784E+02 0.168E+02 0.300E+01   -.211E+01 0.418E+00 -.445E+00
   -.253E+02 0.772E+02 -.106E+02   0.249E+02 -.755E+02 0.108E+02   0.468E+00 -.213E+01 -.184E+00
   -.525E+02 -.562E+02 0.284E+02   0.514E+02 0.552E+02 -.274E+02   0.135E+01 0.124E+01 -.120E+01
 -----------------------------------------------------------------------------------------------
   -.539E-02 -.103E-01 -.736E-02   0.142E-13 0.242E-12 0.320E-13   0.602E-02 0.672E-02 0.750E-02
 
 
 POSITION                                       TOTAL-FORCE (eV/Angst)
 -----------------------------------------------------------------------------------
      7.59511      2.64755      1.18809        -0.011583      0.229900      0.144574
      7.63873      1.30894      0.54329        -0.008584     -0.016128     -0.074098
     -6.43784      2.86224      5.76282        -0.021532     -0.061510      0.024673
     -6.45160      1.54590      5.28467        -0.000846      0.099746      0.028145
     -5.07078      5.91373      2.32906        -0.106494     -0.069653      0.240289
     -4.33584      6.35007      1.11298        -0.018958     -0.018671     -0.075201
      3.27899     -5.54896      6.42675         0.069718      0.012296     -0.009842
      4.09541     -5.13451      5.36685        -0.064501     -0.034885      0.074931
     -1.19743     -6.36168      4.91918         0.208111     -0.012330      0.175785
     -2.40204     -6.16560      4.07077        -0.010233     -0.024032     -0.072986
      5.53246      6.62037      2.90060        -0.046839      0.054884     -0.003307
      4.37425      6.93301      2.17788         0.085584     -0.024634      0.046173
     -6.54734     -0.91088      5.47311         0.011562     -0.229454     -0.146082
     -6.59084      0.42773      6.11788         0.007879      0.016186      0.074859
      7.48575     -1.12559      0.89836         0.021664      0.063826     -0.025197
      7.49946      0.19072      1.37651         0.001113     -0.097602     -0.030330
      6.11852     -4.17693      4.33219         0.108965      0.070352     -0.236144
      5.38356     -4.61337      5.54826         0.017419      0.018512      0.076971
     -2.23129      7.28571      0.23459        -0.068531     -0.011373      0.005925
     -3.04766      6.87118      1.29440         0.066623      0.036058     -0.073232
      2.24508      8.09818      1.74212        -0.206379      0.012285     -0.174266
      3.44979      7.90210      2.59056         0.010566      0.023397      0.072771
     -4.48465     -4.88386      3.76077         0.043604     -0.053603      0.001260
     -3.32642     -5.19653      4.48345        -0.091191      0.027368     -0.048286
     -6.34631      1.38326      4.21249        -0.026903      0.039357      0.227325
      3.70895     -5.21906      4.35174         0.079485      0.011807      0.217586
      4.18117      6.39460      1.25052         0.048246      0.115952      0.196593
      7.39408      0.35351      2.44864         0.026846     -0.039950     -0.226007
     -2.66112      6.95567      2.30948        -0.080106     -0.011752     -0.217513
     -3.13344     -4.65798      5.41066        -0.046784     -0.115657     -0.194307
      7.76122      3.68660      0.43750        -0.057241     -0.286129      0.258944
      7.40383      2.77061      2.43852         0.173726      0.120684     -0.633363
     -6.30653      3.87970      4.88258        -0.100322     -0.075422      0.162704
     -6.27463      5.46731      2.18121         0.355572      0.123679      0.085334
     -4.53666      5.97898      3.48050        -0.447676     -0.040319     -0.493698
      2.05194     -6.04679      6.15509         0.175067     -0.022060      0.105900
     -0.35557     -7.27894      4.57230        -0.223686      0.282264      0.133167
     -0.99934     -5.65370      5.95586         0.025721     -0.490341     -0.448291
      6.37140      5.67555      2.42043        -0.016335      0.185173      0.081159
     -6.71344     -1.94995      6.22364         0.056915      0.284933     -0.256099
     -6.35615     -1.03396      4.22271        -0.173300     -0.119768      0.631341
      7.35449     -2.14299      1.77856         0.100436      0.071642     -0.160266
      7.32258     -3.73083      4.48014        -0.358873     -0.124171     -0.086974
      5.58434     -4.24178      3.18082         0.448371      0.038865      0.491607
     -1.00428      7.78374      0.50622        -0.176304      0.020148     -0.104607
      1.40320      9.01549      2.08911         0.226216     -0.287142     -0.136462
      2.04712      7.39009      0.70540        -0.026826      0.495007      0.451675
     -5.32367     -3.93889      4.24083         0.021058     -0.189360     -0.081679
      1.51449     -7.74281      5.18874        -0.149801      0.019254      0.005890
      7.51420      5.67007      0.74920         0.058001     -0.138844      0.015039
     -7.55659      4.51281      3.42128         0.086260      0.112223     -0.054567
     -0.46680      9.47956      1.47260         0.149995     -0.018763     -0.007320
     -6.46642     -3.93339      5.91213        -0.058417      0.138743     -0.015119
      8.60443     -2.77629      3.23998        -0.086478     -0.110988      0.054621
 -----------------------------------------------------------------------------------
    total drift:                                0.000629     -0.003544      0.000147


--------------------------------------------------------------------------------------------------------



  FREE ENERGIE OF THE ION-ELECTRON SYSTEM (eV)
  ---------------------------------------------------
  free  energy   TOTEN  =      -456.11242294 eV

  energy  without entropy=     -456.11242294  energy(sigma->0) =     -456.11242294
 


--------------------------------------------------------------------------------------------------------


    POTLOK:  cpu time     16.8842: real time     17.0767


--------------------------------------------------------------------------------------------------------


 writing wavefunctions
     LOOP+:  cpu time   1647.2846: real time   1663.4772
    4ORBIT:  cpu time      0.0000: real time      0.0000

 total amount of memory used by VASP MPI-rank0   492604. kBytes
=======================================================================

   base      :      30000. kBytes
   nonlr-proj:      47485. kBytes
   fftplans  :      44218. kBytes
   grid      :     361184. kBytes
   one-center:        219. kBytes
   wavefun   :       9498. kBytes
 
  
  
 General timing and accounting informations for this job:
 ========================================================
  
                  Total CPU time used (sec):     1686.174
                            User time (sec):     1637.872
                          System time (sec):       48.302
                         Elapsed time (sec):     1703.202
  
                   Maximum memory used (kb):     1145880.
                   Average memory used (kb):          N/A
  
                          Minor page faults:       930238
                          Major page faults:            0
                 Voluntary context switches:        20397
