 vasp.6.3.2 27Jun22 (build Jul 28 2023 19:28:36) gamma-only                     
  
 executed on             LinuxIFC date 2024.06.11  08:37:08
 running on   40 total cores
 distrk:  each k-point on   40 cores,    1 groups
 distr:  one band on NCORE=   1 cores,   40 groups


--------------------------------------------------------------------------------------------------------


 INCAR:
   SYSTEM = CO2
   ISTART = 0
   ICHARG = 2
   ISMEAR = 0
   SIGMA = 0.1
   ENCUT = 400.0
   ENAUG = 644.9
   PREC = Accurate
   EDIFF = 1E-5
   NELM = 500
   IBRION = -1
   NSW = 0
   ALGO = All
   TIME = 0.05
   LREAL = Auto
   LHFCALC = .TRUE.
   GGA = B3
   AEXX = 0.2
   AGGAX = 0.72
   AGGAC = 0.81
   ALDAC = 0.19
   LASPH = .TRUE.
   PRECFOCK = Normal
   IVDW = 11
   VDW_S8 = 1.703
   VDW_SR = 1.261
   LWAVE = .TRUE.
   LCHARG = .TRUE.
   NWRITE = 1

 POTCAR:    PAW_PBE C 08Apr2002                   
 POTCAR:    PAW_PBE O 08Apr2002                   
 -----------------------------------------------------------------------------
|                                                                             |
|           W    W    AA    RRRRR   N    N  II  N    N   GGGG   !!!           |
|           W    W   A  A   R    R  NN   N  II  NN   N  G    G  !!!           |
|           W    W  A    A  R    R  N N  N  II  N N  N  G       !!!           |
|           W WW W  AAAAAA  RRRRR   N  N N  II  N  N N  G  GGG   !            |
|           WW  WW  A    A  R   R   N   NN  II  N   NN  G    G                |
|           W    W  A    A  R    R  N    N  II  N    N   GGGG   !!!           |
|                                                                             |
|     For optimal performance we recommend to set                             |
|       NCORE = 2 up to number-of-cores-per-socket                            |
|     NCORE specifies how many cores store one orbital (NPAR=cpu/NCORE).      |
|     This setting can greatly improve the performance of VASP for DFT.       |
|     The default, NCORE=1 might be grossly inefficient on modern             |
|     multi-core architectures or massively parallel machines. Do your        |
|     own testing! More info at https://www.vasp.at/wiki/index.php/NCORE      |
|     Unfortunately you need to use the default for GW and RPA                |
|     calculations (for HF NCORE is supported but not extensively tested      |
|     yet).                                                                   |
|                                                                             |
 -----------------------------------------------------------------------------

 POTCAR:    PAW_PBE C 08Apr2002                   
  local pseudopotential read in
  partial core-charges read in
  partial kinetic energy density read in
  atomic valenz-charges read in
  non local Contribution for L=           0  read in
    real space projection operators read in
  non local Contribution for L=           0  read in
    real space projection operators read in
  non local Contribution for L=           1  read in
    real space projection operators read in
  non local Contribution for L=           1  read in
    real space projection operators read in
    PAW grid and wavefunctions read in
 
   number of l-projection  operators is LMAX  =           4
   number of lm-projection operators is LMMAX =           8
 
 POTCAR:    PAW_PBE O 08Apr2002                   
  local pseudopotential read in
  partial core-charges read in
  partial kinetic energy density read in
  kinetic energy density of atom read in
  atomic valenz-charges read in
  non local Contribution for L=           0  read in
    real space projection operators read in
  non local Contribution for L=           0  read in
    real space projection operators read in
  non local Contribution for L=           1  read in
    real space projection operators read in
  non local Contribution for L=           1  read in
    real space projection operators read in
    PAW grid and wavefunctions read in
 
   number of l-projection  operators is LMAX  =           4
   number of lm-projection operators is LMMAX =           8
 
 -----------------------------------------------------------------------------
|                                                                             |
|               ----> ADVICE to this user running VASP <----                  |
|                                                                             |
|     You have a (more or less) 'small supercell' and for smaller cells       |
|     it is recommended to use the reciprocal-space projection scheme!        |
|     The real-space optimization is not efficient for small cells and it     |
|     is also less accurate ...                                               |
|     Therefore, set LREAL=.FALSE. in the INCAR file.                         |
|                                                                             |
 -----------------------------------------------------------------------------

 Optimization of the real space projectors (new method)

 maximal supplied QI-value         = 25.13
 optimisation between [QCUT,QGAM] = [ 10.05, 20.36] = [ 28.30,116.06] Ry 
 Optimized for a Real-space Cutoff    1.51 Angstroem

   l    n(q)    QCUT    max X(q) W(low)/X(q) W(high)/X(q)  e(spline) 
   0      9    10.053   115.676    0.19E-03    0.21E-03    0.38E-06
   0      9    10.053    87.132    0.19E-03    0.21E-03    0.38E-06
   1      9    10.053     4.429    0.87E-04    0.11E-03    0.39E-06
   1      9    10.053     2.733    0.59E-04    0.62E-04    0.43E-06
 Optimization of the real space projectors (new method)

 maximal supplied QI-value         = 24.76
 optimisation between [QCUT,QGAM] = [ 10.15, 20.30] = [ 28.85,115.39] Ry 
 Optimized for a Real-space Cutoff    1.51 Angstroem

   l    n(q)    QCUT    max X(q) W(low)/X(q) W(high)/X(q)  e(spline) 
   0      9    10.150    20.381    0.17E-03    0.18E-03    0.41E-06
   0      9    10.150    15.268    0.18E-03    0.20E-03    0.43E-06
   1      9    10.150     5.964    0.16E-03    0.20E-03    0.36E-06
   1      9    10.150     5.382    0.13E-03    0.16E-03    0.33E-06
 -----------------------------------------------------------------------------
|                                                                             |
|               ----> ADVICE to this user running VASP <----                  |
|                                                                             |
|     You enforced a specific xc type in the INCAR file but a different       |
|     type was found in the POTCAR file.                                      |
|     I HOPE YOU KNOW WHAT YOU ARE DOING!                                     |
|                                                                             |
 -----------------------------------------------------------------------------

  PAW_PBE C 08Apr2002                   :
 energy of atom  1       EATOM= -147.1560
 kinetic energy error for atom=    0.0288 (will be added to EATOM!!)
  PAW_PBE O 08Apr2002                   :
 energy of atom  2       EATOM= -432.3788
 kinetic energy error for atom=    0.1156 (will be added to EATOM!!)
 
 
 POSCAR:  C  O
  positions in direct lattice
  No initial velocities read in
 exchange correlation table for  LEXCH =       11
   RHO(1)=    0.500       N(1)  =     2000
   RHO(2)=  100.500       N(2)  =     4000
 


--------------------------------------------------------------------------------------------------------


 ion  position               nearest neighbor table
   1  0.295  0.941  0.220-   2 1.17   3 1.18
   2  0.310  0.006  0.317-   1 1.17
   3  0.278  0.875  0.120-   1 1.18
 
  LATTYP: Found a triclinic cell.
 ALAT       =     6.9679572149
 B/A-ratio  =     2.7504675943
 C/A-ratio  =     2.7511537689
 COS(alpha) =     0.0491667510
 COS(beta)  =     0.6051360705
 COS(gamma) =     0.6058719102
  
  Lattice vectors:
  
 A1 = (   1.0701000163,   1.7447551173,   6.6605662885)
 A2 = (   9.3230348441,  15.3801493263,   6.6207732983)
 A3 = ( -13.2990177192,   3.4850444028,  13.3595094686)


Analysis of symmetry for initial positions (statically):
=====================================================================
 Subroutine PRICEL returns:
 Original cell was already a primitive cell.
 

 Routine SETGRP: Setting up the symmetry group for a 
 triclinic supercell.


 Subroutine GETGRP returns: Found  1 space group operations
 (whereof  1 operations were pure point group operations)
 out of a pool of  2 trial point group operations.


The static configuration has the point symmetry C_1 .


Analysis of symmetry for dynamics (positions and initial velocities):
=====================================================================
 Subroutine PRICEL returns:
 Original cell was already a primitive cell.
 

 Routine SETGRP: Setting up the symmetry group for a 
 triclinic supercell.


 Subroutine GETGRP returns: Found  1 space group operations
 (whereof  1 operations were pure point group operations)
 out of a pool of  2 trial point group operations.


The dynamic configuration has the point symmetry C_1 .


 Subroutine INISYM returns: Found  1 space group operations
 (whereof  1 operations are pure point group operations),
 and found     1 'primitive' translations


----------------------------------------------------------------------------------------

                                     Primitive cell                                     

  volume of cell :    1403.0148

  direct lattice vectors                    reciprocal lattice vectors
    15.439217752  0.004465832 -0.038376892     0.065085042  0.034326685  0.130688713
    -7.186282924 13.630928377 -0.001416099     0.000303919  0.073536393  0.130825479
    -7.182834812-11.890639092  6.700359279     0.000372844  0.000212151  0.150021909

  length of vectors
    15.439266094 15.409246337 15.423204220     0.149979744  0.150076646  0.150022522

  position of ions in fractional coordinates (direct lattice)
     0.294766223  0.940830694  0.219659524
     0.309692258  0.006399359  0.316962248
     0.277914318  0.874764066  0.119775582

  ion indices of the primitive-cell ions
   primitive index   ion index
                 1           1
                 2           2
                 3           3

----------------------------------------------------------------------------------------

 
 
 KPOINTS: KPOINTS                                 

Automatic generation of k-mesh.
 Grid dimensions read from file:
 generate k-points for:    1    1    1

 Generating k-lattice:

  Cartesian coordinates                     Fractional coordinates (reciprocal lattice)
     0.065085042  0.034326685  0.130688713     1.000000000  0.000000000 -0.000000000
     0.000303919  0.073536393  0.130825479     0.000000000  1.000000000  0.000000000
     0.000372844  0.000212151  0.150021909    -0.000000000  0.000000000  1.000000000

  Length of vectors
     0.149979744  0.150076646  0.150022522

  Shift w.r.t. Gamma in fractional coordinates (k-lattice)
     0.000000000  0.000000000  0.000000000

 
 Subroutine IBZKPT returns following result:
 ===========================================
 
 Found      1 irreducible k-points:
 
 Following reciprocal coordinates:
            Coordinates               Weight
  0.000000  0.000000  0.000000      1.000000
 
 Following cartesian coordinates:
            Coordinates               Weight
  0.000000  0.000000  0.000000      1.000000
 
 
 Subroutine IBZKPT_HF returns following result:
 ==============================================
 
 Found      1 k-points in 1st BZ
 the following      1 k-points will be used (e.g. in the exchange kernel)
 Following reciprocal coordinates:   # in IRBZ
  0.000000  0.000000  0.000000    1.00000000   1 t-inv F


--------------------------------------------------------------------------------------------------------




 Dimension of arrays:
   k-points           NKPTS =      1   k-points in BZ     NKDIM =      1   number of bands    NBANDS=     40
   number of dos      NEDOS =    301   number of ions     NIONS =      3
   non local maximal  LDIM  =      4   non local SUM 2l+1 LMDIM =      8
   total plane-waves  NPLWV = ******
   max r-space proj   IRMAX =  12961   max aug-charges    IRDMAX=  11847
   dimension x,y,z NGX =   108 NGY =  108 NGZ =  108
   dimension x,y,z NGXF=   216 NGYF=  216 NGZF=  216
   support grid    NGXF=   216 NGYF=  216 NGZF=  216
   ions per type =               1   2
   NGX,Y,Z   is equivalent  to a cutoff of  11.63, 11.65, 11.64 a.u.
   NGXF,Y,Z  is equivalent  to a cutoff of  23.26, 23.30, 23.28 a.u.

 SYSTEM =  CO2                                     
 POSCAR =   C  O                                   

 Startparameter for this run:
   NWRITE =      1    write-flag & timer
   PREC   = accura    normal or accurate (medium, high low for compatibility)
   ISTART =      0    job   : 0-new  1-cont  2-samecut
   ICHARG =      2    charge: 1-file 2-atom 10-const
   ISPIN  =      1    spin polarized calculation?
   LNONCOLLINEAR =      F non collinear calculations
   LSORBIT =      F    spin-orbit coupling
   INIWAV =      1    electr: 0-lowe 1-rand  2-diag
   LASPH  =      T    aspherical Exc in radial PAW
 Electronic Relaxation 1
   ENCUT  =  400.0 eV  29.40 Ry    5.42 a.u.  25.18 25.13 25.15*2*pi/ulx,y,z
   ENINI  =  400.0     initial cutoff
   ENAUG  =  644.9 eV  augmentation charge cutoff
   NELM   =    500;   NELMIN=  2; NELMDL= -5     # of ELM steps 
   EDIFF  = 0.1E-04   stopping-criterion for ELM
   LREAL  =      T    real-space projection
   NLSPLINE    = F    spline interpolate recip. space projectors
   LCOMPAT=      F    compatible to vasp.4.4
   GGA_COMPAT  = T    GGA compatible to vasp.4.4-vasp.4.6
   LMAXPAW     = -100 max onsite density
   LMAXMIX     =    2 max onsite mixed and CHGCAR
   VOSKOWN=      0    Vosko Wilk Nusair interpolation
   ROPT   =   -0.00025  -0.00025
 Ionic relaxation
   EDIFFG = 0.1E-03   stopping-criterion for IOM
   NSW    =      0    number of steps for IOM
   NBLOCK =      1;   KBLOCK =      1    inner block; outer block 
   IBRION =     -1    ionic relax: 0-MD 1-quasi-New 2-CG
   NFREE  =      0    steps in history (QN), initial steepest desc. (CG)
   ISIF   =      0    stress and relaxation
   IWAVPR =     10    prediction:  0-non 1-charg 2-wave 3-comb
   ISYM   =      3    0-nonsym 1-usesym 2-fastsym
   LCORR  =      T    Harris-Foulkes like correction to forces

   POTIM  = 0.5000    time-step for ionic-motion
   TEIN   =    0.0    initial temperature
   TEBEG  =    0.0;   TEEND  =   0.0 temperature during run
   SMASS  =  -3.00    Nose mass-parameter (am)
   estimated Nose-frequenzy (Omega)   =  0.10E-29 period in steps = 0.13E+47 mass=  -0.545E-26a.u.
   SCALEE = 1.0000    scale energy and forces
   NPACO  =    256;   APACO  = 10.0  distance and # of slots for P.C.
   PSTRESS=    0.0 pullay stress

  Mass of Ions in am
   POMASS =  12.01 16.00
  Ionic Valenz
   ZVAL   =   4.00  6.00
  Atomic Wigner-Seitz radii
   RWIGS  =  -1.00 -1.00
  virtual crystal weights 
   VCA    =   1.00  1.00
   NELECT =      16.0000    total number of electrons
   NUPDOWN=      -1.0000    fix difference up-down

 DOS related values:
   EMIN   =  10.00;   EMAX   =-10.00  energy-range for DOS
   EFERMI =   0.00
   ISMEAR =     0;   SIGMA  =   0.10  broadening in eV -4-tet -1-fermi 0-gaus

 Electronic relaxation 2 (details)
   IALGO  =     58    algorithm
   LDIAG  =      T    sub-space diagonalisation (order eigenvalues)
   LSUBROT=      F    optimize rotation matrix (better conditioning)
   TURBO    =      0    0=normal 1=particle mesh
   IRESTART =      0    0=no restart 2=restart with 2 vectors
   NREBOOT  =      0    no. of reboots
   NMIN     =      0    reboot dimension
   EREF     =   0.00    reference energy to select bands
   IMIX   =      4    mixing-type and parameters
     AMIX     =   0.40;   BMIX     =  1.00
     AMIX_MAG =   1.60;   BMIX_MAG =  1.00
     AMIN     =   0.10
     WC   =   100.;   INIMIX=   1;  MIXPRE=   1;  MAXMIX= -45

 Intra band minimization:
   WEIMIN = 0.0000     energy-eigenvalue tresh-hold
   EBREAK =  0.63E-07  absolut break condition
   DEPER  =   0.30     relativ break condition  

   TIME   =   0.05     timestep for ELM

  volume/ion in A,a.u.               =     467.67      3156.00
  Fermi-wavevector in a.u.,A,eV,Ry     =   0.368491  0.696348  1.847480  0.135786
  Thomas-Fermi vector in A             =   1.294397
 
 Write flags
   LWAVE        =      T    write WAVECAR
   LDOWNSAMPLE  =      F    k-point downsampling of WAVECAR
   LCHARG       =      T    write CHGCAR
   LVTOT        =      F    write LOCPOT, total local potential
   LVHAR        =      F    write LOCPOT, Hartree potential only
   LELF         =      F    write electronic localiz. function (ELF)
   LORBIT       =      0    0 simple, 1 ext, 2 COOP (PROOUT), +10 PAW based schemes


 Dipole corrections
   LMONO  =      F    monopole corrections only (constant potential shift)
   LDIPOL =      F    correct potential (dipole corrections)
   IDIPOL =      0    1-x, 2-y, 3-z, 4-all directions 
   EPSILON=  1.0000000 bulk dielectric constant

 Exchange correlation treatment:
   GGA     =    B3    GGA type
   LEXCH   =    11    internal setting for exchange type
   LIBXC   =     F    Libxc                    
   VOSKOWN =     0    Vosko Wilk Nusair interpolation
   EXXOEP  =     0    0=HF, 1=EXX-LHF (local Hartree Fock) 2=EXX OEP
   LHFCALC =     T    Hartree Fock is set to
   LSYMGRAD=     F    symmetrize gradient (conserves proper symmetry)
   PRECFOCK=normal    Normal, Fast or Accurate (Low or Medium for compatibility)
   LRHFCALC=     F    long range Hartree Fock
   LRSCOR  =     F    long range correlation only (use DFT for short range part)
   LTHOMAS =     F    Thomas Fermi screening in HF
   LMODELHF=     F    short range full HF, long range fraction AEXX
   FOCKCORR=     1    mode to apply convergence corrections
   LFOCKACE=     T    use Adeptively-Compressed-Exchange operator
   ENCUT4O =  -1.0   cutoff for four orbital integrals eV
   LMAXFOCK=     4    L truncation for augmentation on plane wave grid
   LMAXFOCKAE=  -1    L truncation for all-electron charge restoration on plane wave grid
   NMAXFOCKAE=   1    number of basis functions for all-electron charge restoration
   LFOCKAEDFT=     F  apply the AE augmentation even for DFT
   NKREDX  =     1    reduce k-point grid by
   NKREDY  =     1    reduce k-point grid by
   NKREDZ  =     1    reduce k-point grid by
   SHIFTRED=     F    shift reduced grid of Gamma
   HFKIDENT=     F    idential grid for each k-point
   ODDONLY =     F    use only odd q-grid points
   EVENONLY=     F    use only even q-grid points
   HFALPHA =   -1.0000 decay constant for conv. correction
   MCALPHA =    0.0000 extent of test-charge in conv. correction in multipole expansion
   AEXX    =    0.2000 exact exchange contribution
   HFSCREEN=    0.0000 screening length (either q_TF or 0.3 A-1)
   HFSCREENC=   0.0000 screening length for correlation (either q_TF or 0.3 A-1)
   HFRCUT  =    0.0000 spherical cutoff for potential kernel
   ALDAX   =    0.8000 LDA exchange part
   AGGAX   =    0.7200 GGA exchange part
   ALDAC   =    0.1900 LDA correlation
   AGGAC   =    0.8100 GGA correlation
   ENCUTFOCK=  -1.0 apply spherical cutoff to Coloumb kernel
   NBANDSGWLOW=     1    first orbital included in HF term
   NBLOCK_FOCK=    64    blocking factor in FOCK_ACC

 Linear response parameters
   LEPSILON=     F    determine dielectric tensor
   LRPA    =     F    only Hartree local field effects (RPA)
   LNABLA  =     F    use nabla operator in PAW spheres
   LVEL    =     F    velocity operator in full k-point grid
   CSHIFT  =0.1000    complex shift for real part using Kramers Kronig
   OMEGAMAX=  -1.0    maximum frequency
   DEG_THRESHOLD= 0.2000000E-02 threshold for treating states as degnerate
   RTIME   =   -0.100 relaxation time in fs
  (WPLASMAI=    0.000 imaginary part of plasma frequency in eV, 0.658/RTIME)
   DFIELD  = 0.0000000 0.0000000 0.0000000 field for delta impulse in time
 
  Optional k-point grid parameters
   LKPOINTS_OPT  =     F    use optional k-point grid
   KPOINTS_OPT_MODE=     1    mode for optional k-point grid
 
 Orbital magnetization related:
   ORBITALMAG=     F  switch on orbital magnetization
   LCHIMAG   =     F  perturbation theory with respect to B field
   DQ        =  0.001000  dq finite difference perturbation B field
   LLRAUG    =     F  two centre corrections for induced B field



--------------------------------------------------------------------------------------------------------


 Static calculation
 charge density and potential will be updated during run
 non-spin polarized calculation
 Conjugate gradient for all bands (Freysoldt, et al. PRB 79, 241103 (2009))
 preconditioned conjugated gradient                                        
 perform sub-space diagonalisation
    before iterative eigenvector-optimisation
 modified Broyden-mixing scheme, WC =      100.0
 initial mixing is a Kerker type mixing with AMIX =  0.4000 and BMIX =      1.0000
 Hartree-type preconditioning will be used
 using additional bands           32
 real space projection scheme for non local part
 use partial core corrections
 no Harris-corrections to forces 
 use gradient corrections 
 use of overlap-Matrix (Vanderbilt PP)
 Gauss-broadening in eV      SIGMA  =   0.10


--------------------------------------------------------------------------------------------------------


  energy-cutoff  :      400.00
  volume of cell :     1403.01
      direct lattice vectors                 reciprocal lattice vectors
    15.439217752  0.004465832 -0.038376892     0.065085042  0.034326685  0.130688713
    -7.186282924 13.630928377 -0.001416099     0.000303919  0.073536393  0.130825479
    -7.182834812-11.890639092  6.700359279     0.000372844  0.000212151  0.150021909

  length of vectors
    15.439266094 15.409246337 15.423204220     0.149979744  0.150076646  0.150022522


 
 k-points in units of 2pi/SCALE and weight: KPOINTS                                 
   0.00000000  0.00000000  0.00000000       1.000
 
 k-points in reciprocal lattice and weights: KPOINTS                                 
   0.00000000  0.00000000  0.00000000       1.000
 
 position of ions in fractional coordinates (direct lattice) 
   0.29476622  0.94083069  0.21965952
   0.30969226  0.00639936  0.31696225
   0.27791432  0.87476407  0.11977558
 
 position of ions in cartesian coordinates  (Angst):
  -3.78789373 10.21382006  1.45915321
   2.45873113 -3.68027146  2.11186685
  -2.85585061 10.50087923  0.79063519
 


--------------------------------------------------------------------------------------------------------


 use serial FFT for orbitals x direction half grid
 k-point   1 :   0.0000 0.0000 0.0000  plane waves:   12735

 maximum and minimum number of plane-waves per node :     12735    12735

 maximum number of plane-waves:     12735
 maximum index in each direction: 
   IXMAX=   25   IYMAX=   22   IZMAX=   21
   IXMIN=    0   IYMIN=  -25   IZMIN=  -25


 serial   3D FFT for wavefunctions
 parallel 3D FFT for charge:
    minimum data exchange during FFTs selected (reduces bandwidth)


 FFT grid for exact exchange (Hartree Fock) 
  NGX = 80; NGY = 80; NGZ = 80

 use serial FFT for orbitals x direction half grid
 
 Radii for the augmentation spheres in the non-local exchange
 for species   1 augmentation radius   0.874 (default was   0.699)
       energy cutoff for augmentation   1600.0
 for species   2 augmentation radius   0.902 (default was   0.722)
       energy cutoff for augmentation   1600.0
 Maximum index for augmentation-charges in exchange         1119
  SETUP_FOCK is finished

 total amount of memory used by VASP MPI-rank0   114248. kBytes
=======================================================================

   base      :      30000. kBytes
   nonlr-proj:       2903. kBytes
   fftplans  :      14365. kBytes
   grid      :      66355. kBytes
   one-center:          4. kBytes
   HF        :          9. kBytes
   wavefun   :        612. kBytes
 
     INWAV:  cpu time      0.0001: real time      0.0004
 Broyden mixing: mesh for mixing (old mesh)
   NGX = 51   NGY = 51   NGZ = 51
  (NGX  =216   NGY  =216   NGZ  =216)
  gives a total of 132651 points

 initial charge density was supplied:
 charge density of overlapping atoms calculated
 number of electron      16.0000000 magnetization 
 keeping initial charge density in first step


--------------------------------------------------------------------------------------------------------


 Maximum index for non-local projection operator        12550
 Maximum index for augmentation-charges          249 (set IRDMAX)


--------------------------------------------------------------------------------------------------------


    FEWALD:  cpu time      0.0004: real time      0.0004


--------------------------------------- Iteration      1(   1)  ---------------------------------------


    POTLOK:  cpu time      0.2364: real time      0.2392
    SETDIJ:  cpu time      0.0442: real time      0.0445
    TRIAL :  cpu time      0.3490: real time      0.3660
    CORREC:  cpu time      0.0001: real time      0.0001
    --------------------------------------------
      LOOP:  cpu time      0.6308: real time      0.6606

 eigenvalue-minimisations  :   120
 total energy-change (2. order) :-0.1171900E+02  (-0.5312578E+03)
 number of electron      16.0000000 magnetization 
 augmentation part       16.0000000 magnetization 

 Free energy of the ion-electron system (eV)
  ---------------------------------------------------
  alpha Z        PSCENC =         0.76241339
  Ewald energy   TEWEN  =       421.95445347
  -Hartree energ DENC   =     -1232.07560806
  -exchange      EXHF   =         0.00000000
  -V(xc)+E(xc)   XCENC  =        67.50631364
  PAW double counting   =       801.62100016     -873.32065483
  entropy T*S    EENTRO =        -0.00000000
  eigenvalues    EBANDS =      -206.05422603
  atomic energy  EATOM  =      1007.88731181
  ---------------------------------------------------
  free energy    TOTEN  =       -11.71899644 eV

  energy without entropy =      -11.71899644  energy(sigma->0) =      -11.71899644
  exchange ACFDT corr.  =         0.00000000  see jH, gK, PRB 81, 115126


--------------------------------------------------------------------------------------------------------




--------------------------------------- Iteration      1(   2)  ---------------------------------------


    TRIAL :  cpu time      0.2474: real time      0.2502
    CORREC:  cpu time      0.0001: real time      0.0001
    --------------------------------------------
      LOOP:  cpu time      0.2481: real time      0.2515

 eigenvalue-minimisations  :    80
 total energy-change (2. order) :-0.8547814E+02  (-0.8547814E+02)
 number of electron      16.0000000 magnetization 
 augmentation part       16.0000000 magnetization 

 Free energy of the ion-electron system (eV)
  ---------------------------------------------------
  alpha Z        PSCENC =         0.76241339
  Ewald energy   TEWEN  =       421.95445347
  -Hartree energ DENC   =     -1232.07560806
  -exchange      EXHF   =         0.00000000
  -V(xc)+E(xc)   XCENC  =        67.50631364
  PAW double counting   =       801.62100016     -873.32065483
  entropy T*S    EENTRO =        -0.00000000
  eigenvalues    EBANDS =      -291.53236358
  atomic energy  EATOM  =      1007.88731181
  ---------------------------------------------------
  free energy    TOTEN  =       -97.19713399 eV

  energy without entropy =      -97.19713399  energy(sigma->0) =      -97.19713399
  exchange ACFDT corr.  =         0.00000000  see jH, gK, PRB 81, 115126


--------------------------------------------------------------------------------------------------------




--------------------------------------- Iteration      1(   3)  ---------------------------------------


    TRIAL :  cpu time      0.3437: real time      0.3479
    CORREC:  cpu time      0.0001: real time      0.0001
    --------------------------------------------
      LOOP:  cpu time      0.3441: real time      0.3484

 eigenvalue-minimisations  :   120
 total energy-change (2. order) :-0.3211284E+01  (-0.3211284E+01)
 number of electron      16.0000000 magnetization 
 augmentation part       16.0000000 magnetization 

 Free energy of the ion-electron system (eV)
  ---------------------------------------------------
  alpha Z        PSCENC =         0.76241339
  Ewald energy   TEWEN  =       421.95445347
  -Hartree energ DENC   =     -1232.07560806
  -exchange      EXHF   =         0.00000000
  -V(xc)+E(xc)   XCENC  =        67.50631364
  PAW double counting   =       801.62100016     -873.32065483
  entropy T*S    EENTRO =        -0.00000000
  eigenvalues    EBANDS =      -294.74364749
  atomic energy  EATOM  =      1007.88731181
  ---------------------------------------------------
  free energy    TOTEN  =      -100.40841790 eV

  energy without entropy =     -100.40841790  energy(sigma->0) =     -100.40841790
  exchange ACFDT corr.  =         0.00000000  see jH, gK, PRB 81, 115126


--------------------------------------------------------------------------------------------------------




--------------------------------------- Iteration      1(   4)  ---------------------------------------


    TRIAL :  cpu time      0.2545: real time      0.2568
    CORREC:  cpu time      0.0001: real time      0.0001
    --------------------------------------------
      LOOP:  cpu time      0.2551: real time      0.2580

 eigenvalue-minimisations  :    80
 total energy-change (2. order) :-0.2165697E-02  (-0.2165697E-02)
 number of electron      16.0000000 magnetization 
 augmentation part       16.0000000 magnetization 

 Free energy of the ion-electron system (eV)
  ---------------------------------------------------
  alpha Z        PSCENC =         0.76241339
  Ewald energy   TEWEN  =       421.95445347
  -Hartree energ DENC   =     -1232.07560806
  -exchange      EXHF   =         0.00000000
  -V(xc)+E(xc)   XCENC  =        67.50631364
  PAW double counting   =       801.62100016     -873.32065483
  entropy T*S    EENTRO =        -0.00000000
  eigenvalues    EBANDS =      -294.74581319
  atomic energy  EATOM  =      1007.88731181
  ---------------------------------------------------
  free energy    TOTEN  =      -100.41058360 eV

  energy without entropy =     -100.41058360  energy(sigma->0) =     -100.41058360
  exchange ACFDT corr.  =         0.00000000  see jH, gK, PRB 81, 115126


--------------------------------------------------------------------------------------------------------




--------------------------------------- Iteration      1(   5)  ---------------------------------------


    POTLOK:  cpu time      0.3725: real time      0.3752
    SETDIJ:  cpu time      0.1388: real time      0.1396
    TRIAL :  cpu time      2.3163: real time      2.3626
    CORREC:  cpu time      0.0001: real time      0.0001
    CHARGE:  cpu time      0.0742: real time      0.0751
    --------------------------------------------
      LOOP:  cpu time      2.9023: real time      2.9530

 eigenvalue-minimisations  :   120
 total energy-change (2. order) : 0.7016692E+02  (-0.1235082E+00)
 number of electron      15.9999997 magnetization 
 augmentation part        1.5454364 magnetization 

 Free energy of the ion-electron system (eV)
  ---------------------------------------------------
  alpha Z        PSCENC =         0.76241339
  Ewald energy   TEWEN  =       421.95445347
  -Hartree energ DENC   =     -1232.07560806
  -exchange      EXHF   =        44.35424720
  -V(xc)+E(xc)   XCENC  =        53.92938152
  PAW double counting   =       814.06158673     -818.17205984
  entropy T*S    EENTRO =        -0.00000000
  eigenvalues    EBANDS =      -322.94538550
  atomic energy  EATOM  =      1007.88731181
  ---------------------------------------------------
  free energy    TOTEN  =       -30.24365927 eV

  energy without entropy =      -30.24365927  energy(sigma->0) =      -30.24365927
  exchange ACFDT corr.  =        -0.00000000  see jH, gK, PRB 81, 115126


--------------------------------------------------------------------------------------------------------




--------------------------------------- Iteration      1(   6)  ---------------------------------------


    POTLOK:  cpu time      0.4025: real time      0.4055
    SETDIJ:  cpu time      0.1401: real time      0.1407
    TRIAL :  cpu time      2.2072: real time      2.2874
    CORREC:  cpu time     11.4183: real time     11.6136
    CHARGE:  cpu time      0.0770: real time      0.0772
    --------------------------------------------
      LOOP:  cpu time     14.2474: real time     14.5278

 eigenvalue-minimisations  :     0
 total energy-change (2. order) : 0.6248474E+01  (-0.6555077E-01)
 number of electron      15.9999997 magnetization 
 augmentation part        1.3717031 magnetization 

 Free energy of the ion-electron system (eV)
  ---------------------------------------------------
  alpha Z        PSCENC =         0.76241339
  Ewald energy   TEWEN  =       421.95445347
  -Hartree energ DENC   =     -1321.49742684
  -exchange      EXHF   =        44.61278305
  -V(xc)+E(xc)   XCENC  =        58.29862529
  PAW double counting   =      1621.04207120    -1626.16111284
  entropy T*S    EENTRO =        -0.00000000
  eigenvalues    EBANDS =      -230.89430373
  atomic energy  EATOM  =      1007.88731181
  ---------------------------------------------------
  free energy    TOTEN  =       -23.99518520 eV

  energy without entropy =      -23.99518520  energy(sigma->0) =      -23.99518520
  exchange ACFDT corr.  =        -0.00000000  see jH, gK, PRB 81, 115126


--------------------------------------------------------------------------------------------------------




--------------------------------------- Iteration      1(   7)  ---------------------------------------


    POTLOK:  cpu time      0.4030: real time      0.4049
    SETDIJ:  cpu time      0.1436: real time      0.1440
    TRIAL :  cpu time      2.0767: real time      2.0847
    CORREC:  cpu time      2.5613: real time      2.5709
    CHARGE:  cpu time      0.0759: real time      0.0771
    --------------------------------------------
      LOOP:  cpu time      5.2616: real time      5.2835

 eigenvalue-minimisations  :     0
 total energy-change (2. order) :-0.2985441E+01  (-0.5314170E+00)
 number of electron      15.9999997 magnetization 
 augmentation part        1.3375591 magnetization 

 Free energy of the ion-electron system (eV)
  ---------------------------------------------------
  alpha Z        PSCENC =         0.76241339
  Ewald energy   TEWEN  =       421.95445347
  -Hartree energ DENC   =     -1263.42496770
  -exchange      EXHF   =        42.41056492
  -V(xc)+E(xc)   XCENC  =        55.57207615
  PAW double counting   =      1536.45519317    -1540.99983637
  entropy T*S    EENTRO =        -0.00000000
  eigenvalues    EBANDS =      -287.59783541
  atomic energy  EATOM  =      1007.88731181
  ---------------------------------------------------
  free energy    TOTEN  =       -26.98062657 eV

  energy without entropy =      -26.98062657  energy(sigma->0) =      -26.98062657
  exchange ACFDT corr.  =        -0.00000000  see jH, gK, PRB 81, 115126


--------------------------------------------------------------------------------------------------------




--------------------------------------- Iteration      1(   8)  ---------------------------------------


    POTLOK:  cpu time      0.4011: real time      0.4025
    SETDIJ:  cpu time      0.1428: real time      0.1431
    TRIAL :  cpu time      2.0761: real time      2.0845
    CORREC:  cpu time      2.5694: real time      2.5796
    CHARGE:  cpu time      0.0768: real time      0.0770
    --------------------------------------------
      LOOP:  cpu time      5.2666: real time      5.2871

 eigenvalue-minimisations  :     0
 total energy-change (2. order) :-0.5571970E+00  (-0.2342399E+00)
 number of electron      15.9999997 magnetization 
 augmentation part        1.3368826 magnetization 

 Free energy of the ion-electron system (eV)
  ---------------------------------------------------
  alpha Z        PSCENC =         0.76241339
  Ewald energy   TEWEN  =       421.95445347
  -Hartree energ DENC   =     -1270.45703175
  -exchange      EXHF   =        42.53927448
  -V(xc)+E(xc)   XCENC  =        55.73766575
  PAW double counting   =      1545.24102892    -1549.58514697
  entropy T*S    EENTRO =        -0.00000000
  eigenvalues    EBANDS =      -281.61779269
  atomic energy  EATOM  =      1007.88731181
  ---------------------------------------------------
  free energy    TOTEN  =       -27.53782360 eV

  energy without entropy =      -27.53782360  energy(sigma->0) =      -27.53782360
  exchange ACFDT corr.  =        -0.00000000  see jH, gK, PRB 81, 115126


--------------------------------------------------------------------------------------------------------




--------------------------------------- Iteration      1(   9)  ---------------------------------------


    POTLOK:  cpu time      0.4065: real time      0.4079
    SETDIJ:  cpu time      0.1414: real time      0.1418
    TRIAL :  cpu time      2.0648: real time      2.0727
    CORREC:  cpu time      2.5703: real time      2.5815
    CHARGE:  cpu time      0.0751: real time      0.0754
    --------------------------------------------
      LOOP:  cpu time      5.2594: real time      5.2808

 eigenvalue-minimisations  :     0
 total energy-change (2. order) :-0.2376985E+00  (-0.1112026E+00)
 number of electron      15.9999998 magnetization 
 augmentation part        1.3290605 magnetization 

 Free energy of the ion-electron system (eV)
  ---------------------------------------------------
  alpha Z        PSCENC =         0.76241339
  Ewald energy   TEWEN  =       421.95445347
  -Hartree energ DENC   =     -1275.57900980
  -exchange      EXHF   =        42.63261984
  -V(xc)+E(xc)   XCENC  =        55.88890745
  PAW double counting   =      1557.15623628    -1561.47195512
  entropy T*S    EENTRO =        -0.00000000
  eigenvalues    EBANDS =      -277.00649948
  atomic energy  EATOM  =      1007.88731181
  ---------------------------------------------------
  free energy    TOTEN  =       -27.77552214 eV

  energy without entropy =      -27.77552214  energy(sigma->0) =      -27.77552214
  exchange ACFDT corr.  =        -0.00000000  see jH, gK, PRB 81, 115126


--------------------------------------------------------------------------------------------------------




--------------------------------------- Iteration      1(  10)  ---------------------------------------


    POTLOK:  cpu time      0.4042: real time      0.4057
    SETDIJ:  cpu time      0.1386: real time      0.1398
    TRIAL :  cpu time      2.0650: real time      2.0757
    CORREC:  cpu time      2.5530: real time      2.5625
    CHARGE:  cpu time      0.0770: real time      0.0773
    --------------------------------------------
      LOOP:  cpu time      5.2396: real time      5.2627

 eigenvalue-minimisations  :     0
 total energy-change (2. order) :-0.1093546E+00  (-0.3400547E-01)
 number of electron      15.9999998 magnetization 
 augmentation part        1.3274127 magnetization 

 Free energy of the ion-electron system (eV)
  ---------------------------------------------------
  alpha Z        PSCENC =         0.76241339
  Ewald energy   TEWEN  =       421.95445347
  -Hartree energ DENC   =     -1271.85023658
  -exchange      EXHF   =        42.45216118
  -V(xc)+E(xc)   XCENC  =        55.70614941
  PAW double counting   =      1558.22307480    -1562.50934504
  entropy T*S    EENTRO =        -0.00000000
  eigenvalues    EBANDS =      -280.51085916
  atomic energy  EATOM  =      1007.88731181
  ---------------------------------------------------
  free energy    TOTEN  =       -27.88487672 eV

  energy without entropy =      -27.88487672  energy(sigma->0) =      -27.88487672
  exchange ACFDT corr.  =        -0.00000000  see jH, gK, PRB 81, 115126


--------------------------------------------------------------------------------------------------------




--------------------------------------- Iteration      1(  11)  ---------------------------------------


    POTLOK:  cpu time      0.4070: real time      0.4090
    SETDIJ:  cpu time      0.1406: real time      0.1410
    TRIAL :  cpu time      2.0705: real time      2.0791
    CORREC:  cpu time      2.5640: real time      2.5749
    CHARGE:  cpu time      0.0773: real time      0.0775
    --------------------------------------------
      LOOP:  cpu time      5.2609: real time      5.2829

 eigenvalue-minimisations  :     0
 total energy-change (2. order) :-0.3371470E-01  (-0.1036625E-01)
 number of electron      15.9999998 magnetization 
 augmentation part        1.3312473 magnetization 

 Free energy of the ion-electron system (eV)
  ---------------------------------------------------
  alpha Z        PSCENC =         0.76241339
  Ewald energy   TEWEN  =       421.95445347
  -Hartree energ DENC   =     -1270.55713010
  -exchange      EXHF   =        42.38617164
  -V(xc)+E(xc)   XCENC  =        55.65089919
  PAW double counting   =      1560.60215434    -1564.87995834
  entropy T*S    EENTRO =        -0.00000000
  eigenvalues    EBANDS =      -281.72490682
  atomic energy  EATOM  =      1007.88731181
  ---------------------------------------------------
  free energy    TOTEN  =       -27.91859142 eV

  energy without entropy =      -27.91859142  energy(sigma->0) =      -27.91859142
  exchange ACFDT corr.  =         0.00000000  see jH, gK, PRB 81, 115126


--------------------------------------------------------------------------------------------------------




--------------------------------------- Iteration      1(  12)  ---------------------------------------


    POTLOK:  cpu time      0.4083: real time      0.4095
    SETDIJ:  cpu time      0.1407: real time      0.1411
    TRIAL :  cpu time      2.0599: real time      2.0680
    CORREC:  cpu time      2.5804: real time      2.5912
    CHARGE:  cpu time      0.0775: real time      0.0781
    --------------------------------------------
      LOOP:  cpu time      5.2673: real time      5.2894

 eigenvalue-minimisations  :     0
 total energy-change (2. order) :-0.1036841E-01  (-0.3558304E-02)
 number of electron      15.9999998 magnetization 
 augmentation part        1.3325149 magnetization 

 Free energy of the ion-electron system (eV)
  ---------------------------------------------------
  alpha Z        PSCENC =         0.76241339
  Ewald energy   TEWEN  =       421.95445347
  -Hartree energ DENC   =     -1270.94444973
  -exchange      EXHF   =        42.39073505
  -V(xc)+E(xc)   XCENC  =        55.67144598
  PAW double counting   =      1564.12519402    -1568.42082633
  entropy T*S    EENTRO =        -0.00000000
  eigenvalues    EBANDS =      -281.35523750
  atomic energy  EATOM  =      1007.88731181
  ---------------------------------------------------
  free energy    TOTEN  =       -27.92895983 eV

  energy without entropy =      -27.92895983  energy(sigma->0) =      -27.92895983
  exchange ACFDT corr.  =        -0.00000000  see jH, gK, PRB 81, 115126


--------------------------------------------------------------------------------------------------------




--------------------------------------- Iteration      1(  13)  ---------------------------------------


    POTLOK:  cpu time      0.4090: real time      0.4100
    SETDIJ:  cpu time      0.1411: real time      0.1416
    TRIAL :  cpu time      2.0714: real time      2.0872
    CORREC:  cpu time      2.5736: real time      2.5897
    CHARGE:  cpu time      0.0776: real time      0.0778
    --------------------------------------------
      LOOP:  cpu time      5.2731: real time      5.3066

 eigenvalue-minimisations  :     0
 total energy-change (2. order) :-0.3567553E-02  (-0.1166876E-02)
 number of electron      15.9999998 magnetization 
 augmentation part        1.3322482 magnetization 

 Free energy of the ion-electron system (eV)
  ---------------------------------------------------
  alpha Z        PSCENC =         0.76241339
  Ewald energy   TEWEN  =       421.95445347
  -Hartree energ DENC   =     -1270.43875662
  -exchange      EXHF   =        42.37274637
  -V(xc)+E(xc)   XCENC  =        55.65537216
  PAW double counting   =      1565.25013312    -1569.55668457
  entropy T*S    EENTRO =        -0.00000000
  eigenvalues    EBANDS =      -281.81951651
  atomic energy  EATOM  =      1007.88731181
  ---------------------------------------------------
  free energy    TOTEN  =       -27.93252738 eV

  energy without entropy =      -27.93252738  energy(sigma->0) =      -27.93252738
  exchange ACFDT corr.  =        -0.00000000  see jH, gK, PRB 81, 115126


--------------------------------------------------------------------------------------------------------




--------------------------------------- Iteration      1(  14)  ---------------------------------------


    POTLOK:  cpu time      0.4084: real time      0.4110
    SETDIJ:  cpu time      0.1416: real time      0.1420
    TRIAL :  cpu time      2.0311: real time      2.0497
    CORREC:  cpu time      2.6002: real time      2.6100
    CHARGE:  cpu time      0.0788: real time      0.0790
    --------------------------------------------
      LOOP:  cpu time      5.2605: real time      5.2920

 eigenvalue-minimisations  :     0
 total energy-change (2. order) :-0.1152972E-02  (-0.3624311E-03)
 number of electron      15.9999998 magnetization 
 augmentation part        1.3320910 magnetization 

 Free energy of the ion-electron system (eV)
  ---------------------------------------------------
  alpha Z        PSCENC =         0.76241339
  Ewald energy   TEWEN  =       421.95445347
  -Hartree energ DENC   =     -1270.17599026
  -exchange      EXHF   =        42.36456951
  -V(xc)+E(xc)   XCENC  =        55.64647411
  PAW double counting   =      1565.52150417    -1569.82957199
  entropy T*S    EENTRO =        -0.00000000
  eigenvalues    EBANDS =      -282.06484457
  atomic energy  EATOM  =      1007.88731181
  ---------------------------------------------------
  free energy    TOTEN  =       -27.93368036 eV

  energy without entropy =      -27.93368036  energy(sigma->0) =      -27.93368036
  exchange ACFDT corr.  =        -0.00000000  see jH, gK, PRB 81, 115126


--------------------------------------------------------------------------------------------------------




--------------------------------------- Iteration      1(  15)  ---------------------------------------


    POTLOK:  cpu time      0.4127: real time      0.4152
    SETDIJ:  cpu time      0.1428: real time      0.1431
    TRIAL :  cpu time      2.0194: real time      2.0320
    CORREC:  cpu time      3.4131: real time      3.4389
    CHARGE:  cpu time      0.0769: real time      0.0785
    --------------------------------------------
      LOOP:  cpu time      6.0654: real time      6.1091

 eigenvalue-minimisations  :     0
 total energy-change (2. order) :-0.3626427E-03  (-0.9727340E-04)
 number of electron      15.9999998 magnetization 
 augmentation part        1.3316702 magnetization 

 Free energy of the ion-electron system (eV)
  ---------------------------------------------------
  alpha Z        PSCENC =         0.76241339
  Ewald energy   TEWEN  =       421.95445347
  -Hartree energ DENC   =     -1270.25740852
  -exchange      EXHF   =        42.36825168
  -V(xc)+E(xc)   XCENC  =        55.65067531
  PAW double counting   =      1565.52774524    -1569.83543096
  entropy T*S    EENTRO =        -0.00000000
  eigenvalues    EBANDS =      -281.99205442
  atomic energy  EATOM  =      1007.88731181
  ---------------------------------------------------
  free energy    TOTEN  =       -27.93404300 eV

  energy without entropy =      -27.93404300  energy(sigma->0) =      -27.93404300
  exchange ACFDT corr.  =        -0.00000000  see jH, gK, PRB 81, 115126


--------------------------------------------------------------------------------------------------------




--------------------------------------- Iteration      1(  16)  ---------------------------------------


    POTLOK:  cpu time      0.4079: real time      0.4110
    SETDIJ:  cpu time      0.1401: real time      0.1405
    TRIAL :  cpu time      2.1466: real time      2.2542
    CORREC:  cpu time      2.5933: real time      2.7252
    CHARGE:  cpu time      0.0761: real time      0.0763
    --------------------------------------------
      LOOP:  cpu time      5.3655: real time      5.6087

 eigenvalue-minimisations  :     0
 total energy-change (2. order) :-0.1011326E-03  (-0.2816851E-04)
 number of electron      15.9999998 magnetization 
 augmentation part        1.3315702 magnetization 

 Free energy of the ion-electron system (eV)
  ---------------------------------------------------
  alpha Z        PSCENC =         0.76241339
  Ewald energy   TEWEN  =       421.95445347
  -Hartree energ DENC   =     -1270.16032348
  -exchange      EXHF   =        42.36578976
  -V(xc)+E(xc)   XCENC  =        55.64672052
  PAW double counting   =      1565.04473643    -1569.35080846
  entropy T*S    EENTRO =        -0.00000000
  eigenvalues    EBANDS =      -282.08443757
  atomic energy  EATOM  =      1007.88731181
  ---------------------------------------------------
  free energy    TOTEN  =       -27.93414413 eV

  energy without entropy =      -27.93414413  energy(sigma->0) =      -27.93414413
  exchange ACFDT corr.  =        -0.00000000  see jH, gK, PRB 81, 115126


--------------------------------------------------------------------------------------------------------




--------------------------------------- Iteration      1(  17)  ---------------------------------------


    POTLOK:  cpu time      0.4287: real time      0.4312
    SETDIJ:  cpu time      0.1400: real time      0.1403
    TRIAL :  cpu time      2.0790: real time      2.0873
    CORREC:  cpu time      2.5556: real time      2.5653
    CHARGE:  cpu time      0.0764: real time      0.0766
    --------------------------------------------
      LOOP:  cpu time      5.2818: real time      5.3034

 eigenvalue-minimisations  :     0
 total energy-change (2. order) :-0.2858754E-04  (-0.1140613E-04)
 number of electron      15.9999998 magnetization 
 augmentation part        1.3315247 magnetization 

 Free energy of the ion-electron system (eV)
  ---------------------------------------------------
  alpha Z        PSCENC =         0.76241339
  Ewald energy   TEWEN  =       421.95445347
  -Hartree energ DENC   =     -1270.17668418
  -exchange      EXHF   =        42.36680419
  -V(xc)+E(xc)   XCENC  =        55.64757249
  PAW double counting   =      1564.67931476    -1568.98472943
  entropy T*S    EENTRO =        -0.00000000
  eigenvalues    EBANDS =      -282.07062922
  atomic energy  EATOM  =      1007.88731181
  ---------------------------------------------------
  free energy    TOTEN  =       -27.93417272 eV

  energy without entropy =      -27.93417272  energy(sigma->0) =      -27.93417272
  exchange ACFDT corr.  =        -0.00000000  see jH, gK, PRB 81, 115126


--------------------------------------------------------------------------------------------------------




--------------------------------------- Iteration      1(  18)  ---------------------------------------


    POTLOK:  cpu time      0.4088: real time      0.4114
    SETDIJ:  cpu time      0.1429: real time      0.1433
    TRIAL :  cpu time      2.0791: real time      2.0874
    CORREC:  cpu time      2.5569: real time      2.5673
    EDDIAG:  cpu time      2.0049: real time      2.0132
    CHARGE:  cpu time      0.0770: real time      0.0772
    --------------------------------------------
      LOOP:  cpu time      7.2723: real time      7.3023

 eigenvalue-minimisations  :     0
 total energy-change (2. order) :-0.7394251E-05  (-0.2278635E-05)
 number of electron      15.9999998 magnetization 
 augmentation part        1.3314976 magnetization 

 Free energy of the ion-electron system (eV)
  ---------------------------------------------------
  alpha Z        PSCENC =         0.76241339
  Ewald energy   TEWEN  =       421.95445347
  -Hartree energ DENC   =     -1270.19350454
  -exchange      EXHF   =        42.36735751
  -V(xc)+E(xc)   XCENC  =        55.64829176
  PAW double counting   =      1564.29919530    -1568.60427836
  entropy T*S    EENTRO =        -0.00000000
  eigenvalues    EBANDS =      -282.05564732
  atomic energy  EATOM  =      1007.88731181
  ---------------------------------------------------
  free energy    TOTEN  =       -27.93418011 eV

  energy without entropy =      -27.93418011  energy(sigma->0) =      -27.93418011
  exchange ACFDT corr.  =        -0.00000000  see jH, gK, PRB 81, 115126


--------------------------------------------------------------------------------------------------------


  average scaling for gradient   1.0958


 average (electrostatic) potential at core
  the test charge radii are     0.6991  0.7215
  (the norm of the test charge is              1.0000)
       1 -60.6241       2 -77.6488       3 -77.5562
 
 
 
 E-fermi :  -9.8159     XC(G=0):  -0.4330     alpha+bet : -0.1782

 Fermi energy:        -9.8158756743

 k-point     1 :       0.0000    0.0000    0.0000
  band No.  band energies     occupation 
      1     -31.7334      2.00000
      2     -30.6281      2.00000
      3     -15.5015      2.00000
      4     -14.2494      2.00000
      5     -14.1249      2.00000
      6     -14.1191      2.00000
      7     -10.3398      2.00000
      8     -10.3347      2.00000
      9      -0.7394      0.00000
     10       0.3113      0.00000
     11       0.3325      0.00000
     12       0.3936      0.00000
     13       0.6700      0.00000
     14       0.7485      0.00000
     15       0.9301      0.00000
     16       0.9539      0.00000
     17       0.9851      0.00000
     18       2.1551      0.00000
     19       2.3753      0.00000
     20       2.4591      0.00000
     21       2.4966      0.00000
     22       2.5142      0.00000
     23       2.6412      0.00000
     24       2.6562      0.00000
     25       2.8437      0.00000
     26       3.2859      0.00000
     27       3.3015      0.00000
     28       3.3727      0.00000
     29       3.3755      0.00000
     30       3.3925      0.00000
     31       3.4171      0.00000
     32       3.4199      0.00000
     33       3.4344      0.00000
     34       3.4565      0.00000
     35       3.4730      0.00000
     36       3.9318      0.00000
     37       4.0430      0.00000
     38       4.1101      0.00000
     39       4.1494      0.00000
     40       4.1801      0.00000


--------------------------------------------------------------------------------------------------------


 soft charge-density along one line, spin component           1
         0         1         2         3         4         5         6         7         8         9
 total charge-density along one line
 
 pseudopotential strength for first ion, spin component:           1
 10.323  13.731  -0.000   0.000  -0.000   0.000  -0.001   0.001
 13.731  18.263  -0.000   0.000  -0.000   0.001  -0.001   0.002
 -0.000  -0.000  -4.570   0.001  -0.002   8.966   0.000  -0.000
  0.000   0.000   0.001  -4.573   0.005   0.000   8.965   0.001
 -0.000  -0.000  -0.002   0.005  -4.577  -0.000   0.001   8.965
  0.000   0.001   8.966   0.000  -0.000 -19.730  -0.006   0.009
 -0.001  -0.001   0.000   8.965   0.001  -0.006 -19.718  -0.021
  0.001   0.002  -0.000   0.001   8.965   0.009  -0.021 -19.702
 total augmentation occupancy for first ion, spin component:           1
 10.512  -5.263   0.017   0.020  -0.076   0.003   0.003  -0.012
 -5.263   2.859  -0.011  -0.012   0.048  -0.002  -0.002   0.008
  0.017  -0.011   1.265  -0.179   0.254   0.096  -0.031   0.043
  0.020  -0.012  -0.179   1.620  -0.610  -0.031   0.157  -0.104
 -0.076   0.048   0.254  -0.610   2.056   0.043  -0.104   0.231
  0.003  -0.002   0.096  -0.031   0.043   0.008  -0.005   0.008
  0.003  -0.002  -0.031   0.157  -0.104  -0.005   0.019  -0.018
 -0.012   0.008   0.043  -0.104   0.231   0.008  -0.018   0.032


------------------------ aborting loop because EDIFF is reached ----------------------------------------


    FORLOC:  cpu time      0.0084: real time      0.0084
    FORHF :  cpu time      0.3822: real time      0.3837
    FORNL :  cpu time      0.1124: real time      0.1126
    FORCOR:  cpu time      0.4896: real time      0.4917
    OFIELD:  cpu time      0.0011: real time      0.0011
 WARNING: Using user supplied parameters
     VDW_S8 = 1.703
     VDW_SR = 1.261
     because the xc functional is not supported. Required parameters not
     defined in the INCAR file will be replaced with PBE defaults ones.


 ---------------------------------------------------------------------------------------------

         DFTD3 V3.0 Rev 1        
 IVDW         = 11
 DF unknown   
 parameters
 VDW_S6       =    1.0000
 VDW_S8       =    1.7030
 VDW_SR       =    1.2610
 rs18     =    1.0000
 alpha6   =   14.0000
 alpha8   =   16.0000
 k1-k3    =   16.0000    1.3333   -4.0000
 VDW_RADIUS   =   50.2022 A
 VDW_CNRADIUS =   21.1671 A
 Edisp (eV)   -0.00651

 E6    (eV) :    -0.0010
 E8    (eV) :    -0.0055
 % E8        : 84.19
    FORVDW:  cpu time      0.0078: real time      0.0078

 VOLUME and BASIS-vectors are now :
 -----------------------------------------------------------------------------
  energy-cutoff  :      400.00
  volume of cell :     1403.01
      direct lattice vectors                 reciprocal lattice vectors
    15.439217752  0.004465832 -0.038376892     0.065085042  0.034326685  0.130688713
    -7.186282924 13.630928377 -0.001416099     0.000303919  0.073536393  0.130825479
    -7.182834812-11.890639092  6.700359279     0.000372844  0.000212151  0.150021909

  length of vectors
    15.439266094 15.409246337 15.423204220     0.149979744  0.150076646  0.150022522


 FORCES acting on ions:
    Electron-Ion                     Ewald-Force                    Non-Local-Force
 -----------------------------------------------------------------------------------------------
   -.558E+01 0.395E+01 -.818E+00   0.623E+01 -.373E+01 0.334E+00   -.142E+00 0.122E+00 -.415E-01
   0.227E+03 0.663E+02 -.150E+03   -.280E+03 -.810E+02 0.186E+03   0.477E+02 0.132E+02 -.329E+02
   -.222E+03 -.690E+02 0.150E+03   0.273E+03 0.848E+02 -.186E+03   -.463E+02 -.144E+02 0.333E+02
 -----------------------------------------------------------------------------------------------
   -.136E+01 0.123E+01 -.440E+00   0.000E+00 0.000E+00 0.000E+00   0.121E+01 -.108E+01 0.383E+00
 
 
 POSITION                                       TOTAL-FORCE (eV/Angst)
 -----------------------------------------------------------------------------------
     -3.78789     10.21382      1.45915         0.498390      0.350895     -0.526464
      2.45873     -3.68027      2.11187         0.806359      0.143687     -0.470598
     -2.85585     10.50088      0.79064        -1.304749     -0.494582      0.997062
 -----------------------------------------------------------------------------------
    total drift:                                0.000430      0.000045      0.000325


--------------------------------------------------------------------------------------------------------



  FREE ENERGIE OF THE ION-ELECTRON SYSTEM (eV)
  ---------------------------------------------------
  free  energy   TOTEN  =       -27.94068646 eV

  energy  without entropy=      -27.94068646  energy(sigma->0) =      -27.94068646
 


--------------------------------------------------------------------------------------------------------


    POTLOK:  cpu time      0.5537: real time      0.5556


--------------------------------------------------------------------------------------------------------


 writing wavefunctions
     LOOP+:  cpu time     94.4840: real time     95.5632
    4ORBIT:  cpu time      0.0000: real time      0.0000

 total amount of memory used by VASP MPI-rank0   785966. kBytes
=======================================================================

   base      :      30000. kBytes
   nonlr-proj:       2903. kBytes
   fftplans  :      14365. kBytes
   grid      :      66355. kBytes
   one-center:          4. kBytes
   HF        :          9. kBytes
   wavefun   :        612. kBytes
   fock_wrk  :     671718. kBytes
 
  
  
 General timing and accounting informations for this job:
 ========================================================
  
                  Total CPU time used (sec):      105.965
                            User time (sec):       88.500
                          System time (sec):       17.465
                         Elapsed time (sec):      107.884
  
                   Maximum memory used (kb):     1054908.
                   Average memory used (kb):          N/A
  
                          Minor page faults:       809539
                          Major page faults:            2
                 Voluntary context switches:         3214
