 C  H  O Mg                             
   1.00000000000000     
    15.2580133847034212    0.0063748138853447    0.0245793812875825
    -7.1051429846584391   13.5027912564280630    0.0244990775527793
    -7.1050972695285770  -11.7730711971963462    6.6121759878766664
   C    H    O    Mg
    25     6    20     6
Selective dynamics
Direct
  0.2798957293104737  0.9201852105346220  0.1894910327809116 T   T   T
  0.7420146289587877  0.3488568622315816  0.1756317219616995 F   F   F
  0.6147375244667829  0.1657601565609441  0.0792660097631694 F   F   F
  0.4318668325544247  0.9671465444648364  0.8663573944910092 F   F   F
  0.3234262389338390  0.8075287184167456  0.7950395449973537 F   F   F
  0.1756431187897589  0.7420305836581884  0.3488360556678919 F   F   F
  0.0792886724497730  0.6147591864893169  0.1657509970157532 F   F   F
  0.8663783863058567  0.4318876584236207  0.9671367925069294 F   F   F
  0.7950500854359156  0.3234346954380717  0.8075076619444437 F   F   F
  0.3488440819994399  0.1756544907178491  0.7420095521018371 F   F   F
  0.1657572453720519  0.0792943960682057  0.6147375040110846 F   F   F
  0.9671467592826177  0.8663865089320020  0.4318697660720516 F   F   F
  0.8075278661155141  0.7950641173818090  0.3234266352510163 F   F   F
  0.2579972420002625  0.6511776387896421  0.8243595579365545 F   F   F
  0.3852787248139897  0.8342710913390764  0.9207212778319369 F   F   F
  0.5681510986529766  0.0328842014322031  0.1336305969604047 F   F   F
  0.6765881198891224  0.1925005951364058  0.2049500510656052 F   F   F
  0.8243781585298284  0.2580211848976010  0.6511632434084221 F   F   F
  0.9207278750118926  0.3852848887220198  0.8342479487146324 F   F   F
  0.1336511818889838  0.5681728426451578  0.0328771262629203 F   F   F
  0.2049675164746175  0.6766073651381713  0.1924910236924607 F   F   F
  0.6511663337705722  0.8243802871304995  0.2579963958186410 F   F   F
  0.8342648166848495  0.9207454974675833  0.3852737149507949 F   F   F
  0.0328845851291223  0.1336586877905204  0.5681473701802970 F   F   F
  0.1924986952413506  0.2049735799037582  0.6765841445386603 F   F   F
  0.1843461863662594  0.6551116091344162  0.6339679849200758 F   F   F
  0.6339907684248793  0.1843650225064708  0.6551003020733689 F   F   F
  0.6551007247065439  0.6339927397426617  0.1843401731651902 F   F   F
  0.8156602206662189  0.3449213848718352  0.3660127120233017 F   F   F
  0.3660255484819303  0.8156680401886800  0.3448935978257369 F   F   F
  0.3449050883138453  0.3660361468046769  0.8156486975542009 F   F   F
  0.2797886042429261  0.8601593501446280  0.1047223474090337 T   T   T
  0.2771921593065050  0.9786977964833398  0.2702874042150862 T   T   T
  0.6900353516094669  0.3270962457107556  0.0623892552365955 F   F   F
  0.8974682518106397  0.5217192069526785  0.3635228428766104 F   F   F
  0.3598994570948804  0.9268250360521427  0.7336506888026673 F   F   F
  0.0624166709304021  0.6900614490461456  0.3270893755683592 F   F   F
  0.3635401241035188  0.8974945104894365  0.5217005043539713 F   F   F
  0.7336673958313806  0.3599211550389307  0.9268105828923573 F   F   F
  0.3270987085353699  0.0624301238765877  0.6900494760480591 F   F   F
  0.5217032807832113  0.3635379198944880  0.8974551406245951 F   F   F
  0.9268143894271161  0.7336765982663700  0.3598925166351917 F   F   F
  0.3099692347992528  0.6729300441936608  0.9375937909861563 F   F   F
  0.1025405173641941  0.4783177944360540  0.6364727829031422 F   F   F
  0.6401181580461506  0.0732049964193058  0.2663318594054963 F   F   F
  0.9376206519303313  0.3099798899587792  0.6729254340326891 F   F   F
  0.6365000801365513  0.1025954026462555  0.4783089791982902 F   F   F
  0.2663609367059869  0.6401487229796585  0.0731965492899949 F   F   F
  0.6729274253657925  0.9376234138203223  0.3099729110817622 F   F   F
  0.4783075699227610  0.6364841452190744  0.1025449469437791 F   F   F
  0.0732026090514377  0.2663660537541337  0.6401084050827287 F   F   F
  0.5141326688478294  0.1085183739783754  0.7824120619774154 F   F   F
  0.7824156810757653  0.5141434598578571  0.1084921116821774 F   F   F
  0.1084998509711712  0.7824217225920941  0.5141191968141444 F   F   F
  0.4858955895534899  0.8915406945937825  0.2176006275769630 F   F   F
  0.2176137188176858  0.4859091086542858  0.8915179187020433 F   F   F
  0.8915196523485747  0.2176107601684719  0.4858818115060057 F   F   F
