 vasp.6.3.2 27Jun22 (build Jul 28 2023 19:28:36) gamma-only                     
  
 executed on             LinuxIFC date 2024.06.14  08:52:32
 running on   40 total cores
 distrk:  each k-point on   40 cores,    1 groups
 distr:  one band on NCORE=   1 cores,   40 groups


--------------------------------------------------------------------------------------------------------


 INCAR:
   SYSTEM = MOF
   ISTART = 0
   ICHARG = 2
   ISMEAR = 0
   SIGMA = 0.1
   PREC = Accurate
   EDIFF = 1E-5
   NELM = 500
   IBRION = -1
   NSW = 0
   ALGO = All
   TIME = 0.05
   LREAL = Auto
   LHFCALC = .TRUE.
   GGA = B3
   AEXX = 0.2
   AGGAX = 0.72
   AGGAC = 0.81
   ALDAC = 0.19
   LASPH = .TRUE.
   PRECFOCK = Normal
   IVDW = 11
   VDW_S8 = 1.703
   VDW_SR = 1.261
   LWAVE = .TRUE.
   LCHARG = .TRUE.
   NWRITE = 1

 POTCAR:    PAW_PBE C 08Apr2002                   
 POTCAR:    PAW_PBE H 15Jun2001                   
 POTCAR:    PAW_PBE O 08Apr2002                   
 POTCAR:    PAW_PBE Mg 13Apr2007                  
 -----------------------------------------------------------------------------
|                                                                             |
|           W    W    AA    RRRRR   N    N  II  N    N   GGGG   !!!           |
|           W    W   A  A   R    R  NN   N  II  NN   N  G    G  !!!           |
|           W    W  A    A  R    R  N N  N  II  N N  N  G       !!!           |
|           W WW W  AAAAAA  RRRRR   N  N N  II  N  N N  G  GGG   !            |
|           WW  WW  A    A  R   R   N   NN  II  N   NN  G    G                |
|           W    W  A    A  R    R  N    N  II  N    N   GGGG   !!!           |
|                                                                             |
|     For optimal performance we recommend to set                             |
|       NCORE = 2 up to number-of-cores-per-socket                            |
|     NCORE specifies how many cores store one orbital (NPAR=cpu/NCORE).      |
|     This setting can greatly improve the performance of VASP for DFT.       |
|     The default, NCORE=1 might be grossly inefficient on modern             |
|     multi-core architectures or massively parallel machines. Do your        |
|     own testing! More info at https://www.vasp.at/wiki/index.php/NCORE      |
|     Unfortunately you need to use the default for GW and RPA                |
|     calculations (for HF NCORE is supported but not extensively tested      |
|     yet).                                                                   |
|                                                                             |
 -----------------------------------------------------------------------------

 POTCAR:    PAW_PBE C 08Apr2002                   
  local pseudopotential read in
  partial core-charges read in
  partial kinetic energy density read in
  atomic valenz-charges read in
  non local Contribution for L=           0  read in
    real space projection operators read in
  non local Contribution for L=           0  read in
    real space projection operators read in
  non local Contribution for L=           1  read in
    real space projection operators read in
  non local Contribution for L=           1  read in
    real space projection operators read in
    PAW grid and wavefunctions read in
 
   number of l-projection  operators is LMAX  =           4
   number of lm-projection operators is LMMAX =           8
 
 POTCAR:    PAW_PBE H 15Jun2001                   
  local pseudopotential read in
  atomic valenz-charges read in
  non local Contribution for L=           0  read in
    real space projection operators read in
  non local Contribution for L=           0  read in
    real space projection operators read in
  non local Contribution for L=           1  read in
    real space projection operators read in
    PAW grid and wavefunctions read in
 
   number of l-projection  operators is LMAX  =           3
   number of lm-projection operators is LMMAX =           5
 
 POTCAR:    PAW_PBE O 08Apr2002                   
  local pseudopotential read in
  partial core-charges read in
  partial kinetic energy density read in
  kinetic energy density of atom read in
  atomic valenz-charges read in
  non local Contribution for L=           0  read in
    real space projection operators read in
  non local Contribution for L=           0  read in
    real space projection operators read in
  non local Contribution for L=           1  read in
    real space projection operators read in
  non local Contribution for L=           1  read in
    real space projection operators read in
    PAW grid and wavefunctions read in
 
   number of l-projection  operators is LMAX  =           4
   number of lm-projection operators is LMMAX =           8
 
 POTCAR:    PAW_PBE Mg 13Apr2007                  
  local pseudopotential read in
  partial core-charges read in
  partial kinetic energy density read in
  atomic valenz-charges read in
  non local Contribution for L=           0  read in
    real space projection operators read in
  non local Contribution for L=           0  read in
    real space projection operators read in
  non local Contribution for L=           1  read in
    real space projection operators read in
  non local Contribution for L=           1  read in
    real space projection operators read in
  non local Contribution for L=           2  read in
    real space projection operators read in
    PAW grid and wavefunctions read in
 
   number of l-projection  operators is LMAX  =           5
   number of lm-projection operators is LMMAX =          13
 
 Optimization of the real space projectors (new method)

 maximal supplied QI-value         = 25.13
 optimisation between [QCUT,QGAM] = [ 10.05, 20.36] = [ 28.30,116.06] Ry 
 Optimized for a Real-space Cutoff    1.51 Angstroem

   l    n(q)    QCUT    max X(q) W(low)/X(q) W(high)/X(q)  e(spline) 
   0      9    10.053   115.676    0.19E-03    0.21E-03    0.38E-06
   0      9    10.053    87.132    0.19E-03    0.21E-03    0.38E-06
   1      9    10.053     4.429    0.87E-04    0.11E-03    0.39E-06
   1      9    10.053     2.733    0.59E-04    0.62E-04    0.43E-06
 Optimization of the real space projectors (new method)

 maximal supplied QI-value         = 34.20
 optimisation between [QCUT,QGAM] = [  9.92, 20.18] = [ 27.55,114.04] Ry 
 Optimized for a Real-space Cutoff    1.34 Angstroem

   l    n(q)    QCUT    max X(q) W(low)/X(q) W(high)/X(q)  e(spline) 
   0      8     9.919    19.460    0.16E-03    0.20E-03    0.36E-06
   0      8     9.919    12.209    0.16E-03    0.20E-03    0.35E-06
   1      8     9.919     4.655    0.19E-03    0.46E-03    0.40E-06
 Optimization of the real space projectors (new method)

 maximal supplied QI-value         = 24.76
 optimisation between [QCUT,QGAM] = [ 10.15, 20.30] = [ 28.85,115.39] Ry 
 Optimized for a Real-space Cutoff    1.51 Angstroem

   l    n(q)    QCUT    max X(q) W(low)/X(q) W(high)/X(q)  e(spline) 
   0      9    10.150    20.381    0.17E-03    0.18E-03    0.41E-06
   0      9    10.150    15.268    0.18E-03    0.20E-03    0.43E-06
   1      9    10.150     5.964    0.16E-03    0.20E-03    0.36E-06
   1      9    10.150     5.382    0.13E-03    0.16E-03    0.33E-06
 Optimization of the real space projectors (new method)

 maximal supplied QI-value         = 18.90
 optimisation between [QCUT,QGAM] = [ 10.20, 20.41] = [ 29.16,116.64] Ry 
 Optimized for a Real-space Cutoff    1.30 Angstroem

   l    n(q)    QCUT    max X(q) W(low)/X(q) W(high)/X(q)  e(spline) 
   0      8    10.205    28.265    0.22E-03    0.17E-03    0.53E-07
   0      8    10.205    10.429    0.17E-03    0.15E-03    0.43E-07
   1      7    10.205    13.073    0.71E-04    0.41E-03    0.76E-07
   1      7    10.205     9.625    0.71E-04    0.33E-03    0.63E-07
   2      7    10.205     4.652    0.24E-03    0.41E-03    0.55E-07
 -----------------------------------------------------------------------------
|                                                                             |
|               ----> ADVICE to this user running VASP <----                  |
|                                                                             |
|     You enforced a specific xc type in the INCAR file but a different       |
|     type was found in the POTCAR file.                                      |
|     I HOPE YOU KNOW WHAT YOU ARE DOING!                                     |
|                                                                             |
 -----------------------------------------------------------------------------

  PAW_PBE C 08Apr2002                   :
 energy of atom  1       EATOM= -147.1560
 kinetic energy error for atom=    0.0288 (will be added to EATOM!!)
  PAW_PBE H 15Jun2001                   :
 energy of atom  2       EATOM=  -12.4884
 kinetic energy error for atom=    0.0098 (will be added to EATOM!!)
  PAW_PBE O 08Apr2002                   :
 energy of atom  3       EATOM= -432.3788
 kinetic energy error for atom=    0.1156 (will be added to EATOM!!)
  PAW_PBE Mg 13Apr2007                  :
 energy of atom  4       EATOM=  -23.0369
 kinetic energy error for atom=    0.0001 (will be added to EATOM!!)
 
 
 POSCAR:  C  H  O Mg
  positions in direct lattice
  No initial velocities read in
 exchange correlation table for  LEXCH =       11
   RHO(1)=    0.500       N(1)  =     2000
   RHO(2)=  100.500       N(2)  =     4000
 


--------------------------------------------------------------------------------------------------------


 ion  position               nearest neighbor table
   1  0.742  0.349  0.176-  32 1.27  31 1.29   2 1.49
   2  0.615  0.166  0.079-  16 1.40   3 1.43   1 1.49
   3  0.432  0.967  0.866-  33 1.35   4 1.40   2 1.43
   4  0.323  0.808  0.795-  25 1.09   3 1.40  14 1.40
   5  0.176  0.742  0.349-  35 1.27  34 1.29   6 1.49
   6  0.079  0.615  0.166-  20 1.40   7 1.43   5 1.49
   7  0.866  0.432  0.967-  36 1.35   8 1.40   6 1.43
   8  0.795  0.323  0.808-  26 1.09   7 1.40  18 1.40
   9  0.349  0.176  0.742-  38 1.27  37 1.29  10 1.49
  10  0.166  0.079  0.615-  24 1.40  11 1.43   9 1.49
  11  0.967  0.866  0.432-  39 1.35  12 1.40  10 1.43
  12  0.808  0.795  0.323-  27 1.09  11 1.40  22 1.40
  13  0.258  0.651  0.824-  41 1.27  40 1.29  14 1.49
  14  0.385  0.834  0.921-   4 1.40  15 1.43  13 1.49
  15  0.568  0.033  0.134-  42 1.35  16 1.40  14 1.43
  16  0.677  0.193  0.205-  28 1.09  15 1.40   2 1.40
  17  0.824  0.258  0.651-  44 1.27  43 1.29  18 1.49
  18  0.921  0.385  0.834-   8 1.40  19 1.43  17 1.49
  19  0.134  0.568  0.033-  45 1.35  20 1.40  18 1.43
  20  0.205  0.677  0.192-  29 1.09  19 1.40   6 1.40
  21  0.651  0.824  0.258-  47 1.27  46 1.29  22 1.49
  22  0.834  0.921  0.385-  12 1.40  23 1.43  21 1.49
  23  0.033  0.134  0.568-  48 1.35  24 1.40  22 1.43
  24  0.192  0.205  0.677-  30 1.09  23 1.40  10 1.40
  25  0.184  0.655  0.634-   4 1.09
  26  0.634  0.184  0.655-   8 1.09
  27  0.655  0.634  0.184-  12 1.09
  28  0.816  0.345  0.366-  16 1.09
  29  0.366  0.816  0.345-  20 1.09
  30  0.345  0.366  0.816-  24 1.09
  31  0.690  0.327  0.062-   1 1.29  50 2.02  49 2.08
  32  0.897  0.522  0.364-   1 1.27  51 2.04
  33  0.360  0.927  0.734-   3 1.35  51 2.02  49 2.04
  34  0.062  0.690  0.327-   5 1.29  51 2.02  50 2.08
  35  0.364  0.897  0.522-   5 1.27  49 2.04
  36  0.734  0.360  0.927-   7 1.35  49 2.02  50 2.04
  37  0.327  0.062  0.690-   9 1.29  49 2.02  51 2.08
  38  0.522  0.364  0.897-   9 1.27  50 2.04
  39  0.927  0.734  0.360-  11 1.35  50 2.02  51 2.04
  40  0.310  0.673  0.938-  13 1.29  53 2.02  52 2.08
  41  0.103  0.478  0.636-  13 1.27  54 2.04
  42  0.640  0.073  0.266-  15 1.35  54 2.02  52 2.04
  43  0.938  0.310  0.673-  17 1.29  54 2.02  53 2.08
  44  0.637  0.103  0.478-  17 1.27  52 2.04
  45  0.266  0.640  0.073-  19 1.35  52 2.02  53 2.04
  46  0.673  0.938  0.310-  21 1.29  52 2.02  54 2.08
  47  0.478  0.636  0.103-  21 1.27  53 2.04
  48  0.073  0.266  0.640-  23 1.35  53 2.02  54 2.04
  49  0.514  0.109  0.782-  37 2.02  36 2.02  33 2.04  35 2.04  31 2.08  50 2.94  51 2.94
  50  0.782  0.514  0.108-  31 2.02  39 2.02  36 2.04  38 2.04  34 2.08  49 2.94  51 2.94
  51  0.108  0.782  0.514-  34 2.02  33 2.02  39 2.04  32 2.04  37 2.08  49 2.94  50 2.94
  52  0.486  0.892  0.218-  46 2.02  45 2.02  42 2.04  44 2.04  40 2.08  54 2.94  53 2.94
  53  0.218  0.486  0.892-  40 2.02  48 2.02  45 2.04  47 2.04  43 2.08  54 2.94  52 2.94
  54  0.892  0.218  0.486-  43 2.02  42 2.02  48 2.04  41 2.04  46 2.08  52 2.94  53 2.94
 
  LATTYP: Found a trigonal (rhomboedric) cell.
 ALAT       =    15.2580629150
 COS(alpha) =    -0.4652854440
  
  Lattice vectors:
  
 A1 = (  15.2580133847,   0.0063748139,   0.0245793813)
 A2 = (  -7.1051429847,  13.5027912564,   0.0244990776)
 A3 = (  -7.1050972695, -11.7730711972,   6.6121759879)


Analysis of symmetry for initial positions (statically):
=====================================================================
 Subroutine PRICEL returns:
 Original cell was already a primitive cell.
 

 Routine SETGRP: Setting up the symmetry group for a 
 trigonal (rhombohedral) supercell.


 Subroutine GETGRP returns: Found  1 space group operations
 (whereof  1 operations were pure point group operations)
 out of a pool of 12 trial point group operations.


The static configuration has the point symmetry C_1 .


Analysis of symmetry for dynamics (positions and initial velocities):
=====================================================================
 Subroutine PRICEL returns:
 Original cell was already a primitive cell.
 

 Routine SETGRP: Setting up the symmetry group for a 
 trigonal (rhombohedral) supercell.


 Subroutine GETGRP returns: Found  1 space group operations
 (whereof  1 operations were pure point group operations)
 out of a pool of 12 trial point group operations.


The dynamic configuration has the point symmetry C_1 .


 Subroutine INISYM returns: Found  1 space group operations
 (whereof  1 operations are pure point group operations),
 and found     1 'primitive' translations


----------------------------------------------------------------------------------------

                                     Primitive cell                                     

  volume of cell :    1371.3921

  direct lattice vectors                    reciprocal lattice vectors
    15.258013385  0.006374814  0.024579381     0.065314117  0.034130566  0.130953070
    -7.105142985 13.502791256  0.024499078    -0.000241744  0.073693958  0.130953351
    -7.105097270-11.773071197  6.612175988    -0.000241896 -0.000399920  0.150264152

  length of vectors
    15.258034514 15.258080769 15.258062915     0.150264886  0.150265226  0.150264879

  position of ions in fractional coordinates (direct lattice)
     0.742014629  0.348856862  0.175631722
     0.614737524  0.165760157  0.079266010
     0.431866833  0.967146544  0.866357394
     0.323426239  0.807528718  0.795039545
     0.175643119  0.742030584  0.348836056
     0.079288672  0.614759186  0.165750997
     0.866378386  0.431887658  0.967136793
     0.795050085  0.323434695  0.807507662
     0.348844082  0.175654491  0.742009552
     0.165757245  0.079294396  0.614737504
     0.967146759  0.866386509  0.431869766
     0.807527866  0.795064117  0.323426635
     0.257997242  0.651177639  0.824359558
     0.385278725  0.834271091  0.920721278
     0.568151099  0.032884201  0.133630597
     0.676588120  0.192500595  0.204950051
     0.824378159  0.258021185  0.651163243
     0.920727875  0.385284889  0.834247949
     0.133651182  0.568172843  0.032877126
     0.204967516  0.676607365  0.192491024
     0.651166334  0.824380287  0.257996396
     0.834264817  0.920745497  0.385273715
     0.032884585  0.133658688  0.568147370
     0.192498695  0.204973580  0.676584145
     0.184346186  0.655111609  0.633967985
     0.633990768  0.184365023  0.655100302
     0.655100725  0.633992740  0.184340173
     0.815660221  0.344921385  0.366012712
     0.366025548  0.815668040  0.344893598
     0.344905088  0.366036147  0.815648698
     0.690035352  0.327096246  0.062389255
     0.897468252  0.521719207  0.363522843
     0.359899457  0.926825036  0.733650689
     0.062416671  0.690061449  0.327089376
     0.363540124  0.897494510  0.521700504
     0.733667396  0.359921155  0.926810583
     0.327098709  0.062430124  0.690049476
     0.521703281  0.363537920  0.897455141
     0.926814389  0.733676598  0.359892517
     0.309969235  0.672930044  0.937593791
     0.102540517  0.478317794  0.636472783
     0.640118158  0.073204996  0.266331859
     0.937620652  0.309979890  0.672925434
     0.636500080  0.102595403  0.478308979
     0.266360937  0.640148723  0.073196549
     0.672927425  0.937623414  0.309972911
     0.478307570  0.636484145  0.102544947
     0.073202609  0.266366054  0.640108405
     0.514132669  0.108518374  0.782412062
     0.782415681  0.514143460  0.108492112
     0.108499851  0.782421723  0.514119197
     0.485895590  0.891540695  0.217600628
     0.217613719  0.485909109  0.891517919
     0.891519652  0.217610760  0.485881812

  ion indices of the primitive-cell ions
   primitive index   ion index
                 1           1
                 2           2
                 3           3
                 4           4
                 5           5
                 6           6
                 7           7
                 8           8
                 9           9
                10          10
                11          11
                12          12
                13          13
                14          14
                15          15
                16          16
                17          17
                18          18
                19          19
                20          20
                21          21
                22          22
                23          23
                24          24
                25          25
                26          26
                27          27
                28          28
                29          29
                30          30
                31          31
                32          32
                33          33
                34          34
                35          35
                36          36
                37          37
                38          38
                39          39
                40          40
                41          41
                42          42
                43          43
                44          44
                45          45
                46          46
                47          47
                48          48
                49          49
                50          50
                51          51
                52          52
                53          53
                54          54

----------------------------------------------------------------------------------------

 
 
 KPOINTS: KPOINTS                                 

Automatic generation of k-mesh.
 Grid dimensions read from file:
 generate k-points for:    1    1    1

 Generating k-lattice:

  Cartesian coordinates                     Fractional coordinates (reciprocal lattice)
     0.065314117  0.034130566  0.130953070     1.000000000  0.000000000  0.000000000
    -0.000241744  0.073693958  0.130953351     0.000000000  1.000000000  0.000000000
    -0.000241896 -0.000399920  0.150264152     0.000000000 -0.000000000  1.000000000

  Length of vectors
     0.150264886  0.150265226  0.150264879

  Shift w.r.t. Gamma in fractional coordinates (k-lattice)
     0.000000000  0.000000000  0.000000000

 
 Subroutine IBZKPT returns following result:
 ===========================================
 
 Found      1 irreducible k-points:
 
 Following reciprocal coordinates:
            Coordinates               Weight
  0.000000  0.000000  0.000000      1.000000
 
 Following cartesian coordinates:
            Coordinates               Weight
  0.000000  0.000000  0.000000      1.000000
 
 
 Subroutine IBZKPT_HF returns following result:
 ==============================================
 
 Found      1 k-points in 1st BZ
 the following      1 k-points will be used (e.g. in the exchange kernel)
 Following reciprocal coordinates:   # in IRBZ
  0.000000  0.000000  0.000000    1.00000000   1 t-inv F


--------------------------------------------------------------------------------------------------------




 Dimension of arrays:
   k-points           NKPTS =      1   k-points in BZ     NKDIM =      1   number of bands    NBANDS=    160
   number of dos      NEDOS =    301   number of ions     NIONS =     54
   non local maximal  LDIM  =      5   non local SUM 2l+1 LMDIM =     13
   total plane-waves  NPLWV = ******
   max r-space proj   IRMAX =  10535   max aug-charges    IRDMAX=  31172
   dimension x,y,z NGX =   100 NGY =  100 NGZ =  100
   dimension x,y,z NGXF=   200 NGYF=  200 NGZF=  200
   support grid    NGXF=   200 NGYF=  200 NGZF=  200
   ions per type =              24   6  18   6
   NGX,Y,Z   is equivalent  to a cutoff of  10.90, 10.90, 10.90 a.u.
   NGXF,Y,Z  is equivalent  to a cutoff of  21.79, 21.79, 21.79 a.u.

 SYSTEM =  MOF                                     
 POSCAR =   C  H  O Mg                             

 Startparameter for this run:
   NWRITE =      1    write-flag & timer
   PREC   = accura    normal or accurate (medium, high low for compatibility)
   ISTART =      0    job   : 0-new  1-cont  2-samecut
   ICHARG =      2    charge: 1-file 2-atom 10-const
   ISPIN  =      1    spin polarized calculation?
   LNONCOLLINEAR =      F non collinear calculations
   LSORBIT =      F    spin-orbit coupling
   INIWAV =      1    electr: 0-lowe 1-rand  2-diag
   LASPH  =      T    aspherical Exc in radial PAW
 Electronic Relaxation 1
   ENCUT  =  400.0 eV  29.40 Ry    5.42 a.u.  24.88 24.88 24.88*2*pi/ulx,y,z
   ENINI  =  400.0     initial cutoff
   ENAUG  =  644.9 eV  augmentation charge cutoff
   NELM   =    500;   NELMIN=  2; NELMDL= -5     # of ELM steps 
   EDIFF  = 0.1E-04   stopping-criterion for ELM
   LREAL  =      T    real-space projection
   NLSPLINE    = F    spline interpolate recip. space projectors
   LCOMPAT=      F    compatible to vasp.4.4
   GGA_COMPAT  = T    GGA compatible to vasp.4.4-vasp.4.6
   LMAXPAW     = -100 max onsite density
   LMAXMIX     =    2 max onsite mixed and CHGCAR
   VOSKOWN=      0    Vosko Wilk Nusair interpolation
   ROPT   =   -0.00025  -0.00025  -0.00025  -0.00025
 Ionic relaxation
   EDIFFG = 0.1E-03   stopping-criterion for IOM
   NSW    =      0    number of steps for IOM
   NBLOCK =      1;   KBLOCK =      1    inner block; outer block 
   IBRION =     -1    ionic relax: 0-MD 1-quasi-New 2-CG
   NFREE  =      0    steps in history (QN), initial steepest desc. (CG)
   ISIF   =      0    stress and relaxation
   IWAVPR =     10    prediction:  0-non 1-charg 2-wave 3-comb
   ISYM   =      3    0-nonsym 1-usesym 2-fastsym
   LCORR  =      T    Harris-Foulkes like correction to forces

   POTIM  = 0.5000    time-step for ionic-motion
   TEIN   =    0.0    initial temperature
   TEBEG  =    0.0;   TEEND  =   0.0 temperature during run
   SMASS  =  -3.00    Nose mass-parameter (am)
   estimated Nose-frequenzy (Omega)   =  0.10E-29 period in steps = 0.13E+47 mass=  -0.532E-26a.u.
   SCALEE = 1.0000    scale energy and forces
   NPACO  =    256;   APACO  = 10.0  distance and # of slots for P.C.
   PSTRESS=    0.0 pullay stress

  Mass of Ions in am
   POMASS =  12.01  1.00 16.00 24.30
  Ionic Valenz
   ZVAL   =   4.00  1.00  6.00  2.00
  Atomic Wigner-Seitz radii
   RWIGS  =  -1.00 -1.00 -1.00 -1.00
  virtual crystal weights 
   VCA    =   1.00  1.00  1.00  1.00
   NELECT =     222.0000    total number of electrons
   NUPDOWN=      -1.0000    fix difference up-down

 DOS related values:
   EMIN   =  10.00;   EMAX   =-10.00  energy-range for DOS
   EFERMI =   0.00
   ISMEAR =     0;   SIGMA  =   0.10  broadening in eV -4-tet -1-fermi 0-gaus

 Electronic relaxation 2 (details)
   IALGO  =     58    algorithm
   LDIAG  =      T    sub-space diagonalisation (order eigenvalues)
   LSUBROT=      F    optimize rotation matrix (better conditioning)
   TURBO    =      0    0=normal 1=particle mesh
   IRESTART =      0    0=no restart 2=restart with 2 vectors
   NREBOOT  =      0    no. of reboots
   NMIN     =      0    reboot dimension
   EREF     =   0.00    reference energy to select bands
   IMIX   =      4    mixing-type and parameters
     AMIX     =   0.40;   BMIX     =  1.00
     AMIX_MAG =   1.60;   BMIX_MAG =  1.00
     AMIN     =   0.10
     WC   =   100.;   INIMIX=   1;  MIXPRE=   1;  MAXMIX= -45

 Intra band minimization:
   WEIMIN = 0.0000     energy-eigenvalue tresh-hold
   EBREAK =  0.16E-07  absolut break condition
   DEPER  =   0.30     relativ break condition  

   TIME   =   0.05     timestep for ELM

  volume/ion in A,a.u.               =      25.40       171.38
  Fermi-wavevector in a.u.,A,eV,Ry     =   0.892220  1.686051 10.831006  0.796057
  Thomas-Fermi vector in A             =   2.014141
 
 Write flags
   LWAVE        =      T    write WAVECAR
   LDOWNSAMPLE  =      F    k-point downsampling of WAVECAR
   LCHARG       =      T    write CHGCAR
   LVTOT        =      F    write LOCPOT, total local potential
   LVHAR        =      F    write LOCPOT, Hartree potential only
   LELF         =      F    write electronic localiz. function (ELF)
   LORBIT       =      0    0 simple, 1 ext, 2 COOP (PROOUT), +10 PAW based schemes


 Dipole corrections
   LMONO  =      F    monopole corrections only (constant potential shift)
   LDIPOL =      F    correct potential (dipole corrections)
   IDIPOL =      0    1-x, 2-y, 3-z, 4-all directions 
   EPSILON=  1.0000000 bulk dielectric constant

 Exchange correlation treatment:
   GGA     =    B3    GGA type
   LEXCH   =    11    internal setting for exchange type
   LIBXC   =     F    Libxc                    
   VOSKOWN =     0    Vosko Wilk Nusair interpolation
   EXXOEP  =     0    0=HF, 1=EXX-LHF (local Hartree Fock) 2=EXX OEP
   LHFCALC =     T    Hartree Fock is set to
   LSYMGRAD=     F    symmetrize gradient (conserves proper symmetry)
   PRECFOCK=normal    Normal, Fast or Accurate (Low or Medium for compatibility)
   LRHFCALC=     F    long range Hartree Fock
   LRSCOR  =     F    long range correlation only (use DFT for short range part)
   LTHOMAS =     F    Thomas Fermi screening in HF
   LMODELHF=     F    short range full HF, long range fraction AEXX
   FOCKCORR=     1    mode to apply convergence corrections
   LFOCKACE=     T    use Adeptively-Compressed-Exchange operator
   ENCUT4O =  -1.0   cutoff for four orbital integrals eV
   LMAXFOCK=     4    L truncation for augmentation on plane wave grid
   LMAXFOCKAE=  -1    L truncation for all-electron charge restoration on plane wave grid
   NMAXFOCKAE=   1    number of basis functions for all-electron charge restoration
   LFOCKAEDFT=     F  apply the AE augmentation even for DFT
   NKREDX  =     1    reduce k-point grid by
   NKREDY  =     1    reduce k-point grid by
   NKREDZ  =     1    reduce k-point grid by
   SHIFTRED=     F    shift reduced grid of Gamma
   HFKIDENT=     F    idential grid for each k-point
   ODDONLY =     F    use only odd q-grid points
   EVENONLY=     F    use only even q-grid points
   HFALPHA =   -1.0000 decay constant for conv. correction
   MCALPHA =    0.0000 extent of test-charge in conv. correction in multipole expansion
   AEXX    =    0.2000 exact exchange contribution
   HFSCREEN=    0.0000 screening length (either q_TF or 0.3 A-1)
   HFSCREENC=   0.0000 screening length for correlation (either q_TF or 0.3 A-1)
   HFRCUT  =    0.0000 spherical cutoff for potential kernel
   ALDAX   =    0.8000 LDA exchange part
   AGGAX   =    0.7200 GGA exchange part
   ALDAC   =    0.1900 LDA correlation
   AGGAC   =    0.8100 GGA correlation
   ENCUTFOCK=  -1.0 apply spherical cutoff to Coloumb kernel
   NBANDSGWLOW=     1    first orbital included in HF term
   NBLOCK_FOCK=    64    blocking factor in FOCK_ACC

 Linear response parameters
   LEPSILON=     F    determine dielectric tensor
   LRPA    =     F    only Hartree local field effects (RPA)
   LNABLA  =     F    use nabla operator in PAW spheres
   LVEL    =     F    velocity operator in full k-point grid
   CSHIFT  =0.1000    complex shift for real part using Kramers Kronig
   OMEGAMAX=  -1.0    maximum frequency
   DEG_THRESHOLD= 0.2000000E-02 threshold for treating states as degnerate
   RTIME   =   -0.100 relaxation time in fs
  (WPLASMAI=    0.000 imaginary part of plasma frequency in eV, 0.658/RTIME)
   DFIELD  = 0.0000000 0.0000000 0.0000000 field for delta impulse in time
 
  Optional k-point grid parameters
   LKPOINTS_OPT  =     F    use optional k-point grid
   KPOINTS_OPT_MODE=     1    mode for optional k-point grid
 
 Orbital magnetization related:
   ORBITALMAG=     F  switch on orbital magnetization
   LCHIMAG   =     F  perturbation theory with respect to B field
   DQ        =  0.001000  dq finite difference perturbation B field
   LLRAUG    =     F  two centre corrections for induced B field



--------------------------------------------------------------------------------------------------------


 Static calculation
 charge density and potential will be updated during run
 non-spin polarized calculation
 Conjugate gradient for all bands (Freysoldt, et al. PRB 79, 241103 (2009))
 preconditioned conjugated gradient                                        
 perform sub-space diagonalisation
    before iterative eigenvector-optimisation
 modified Broyden-mixing scheme, WC =      100.0
 initial mixing is a Kerker type mixing with AMIX =  0.4000 and BMIX =      1.0000
 Hartree-type preconditioning will be used
 using additional bands           49
 real space projection scheme for non local part
 use partial core corrections
 no Harris-corrections to forces 
 use gradient corrections 
 use of overlap-Matrix (Vanderbilt PP)
 Gauss-broadening in eV      SIGMA  =   0.10


--------------------------------------------------------------------------------------------------------


  energy-cutoff  :      400.00
  volume of cell :     1371.39
      direct lattice vectors                 reciprocal lattice vectors
    15.258013385  0.006374814  0.024579381     0.065314117  0.034130566  0.130953070
    -7.105142985 13.502791256  0.024499078    -0.000241744  0.073693958  0.130953351
    -7.105097270-11.773071197  6.612175988    -0.000241896 -0.000399920  0.150264152

  length of vectors
    15.258034514 15.258080769 15.258062915     0.150264886  0.150265226  0.150264879


 
 k-points in units of 2pi/SCALE and weight: KPOINTS                                 
   0.00000000  0.00000000  0.00000000       1.000
 
 k-points in reciprocal lattice and weights: KPOINTS                                 
   0.00000000  0.00000000  0.00000000       1.000
 
 position of ions in fractional coordinates (direct lattice) 
   0.74201463  0.34885686  0.17563172
   0.61473752  0.16576016  0.07926601
   0.43186683  0.96714654  0.86635739
   0.32342624  0.80752872  0.79503954
   0.17564312  0.74203058  0.34883606
   0.07928867  0.61475919  0.16575100
   0.86637839  0.43188766  0.96713679
   0.79505009  0.32343470  0.80750766
   0.34884408  0.17565449  0.74200955
   0.16575725  0.07929440  0.61473750
   0.96714676  0.86638651  0.43186977
   0.80752787  0.79506412  0.32342664
   0.25799724  0.65117764  0.82435956
   0.38527872  0.83427109  0.92072128
   0.56815110  0.03288420  0.13363060
   0.67658812  0.19250060  0.20495005
   0.82437816  0.25802118  0.65116324
   0.92072788  0.38528489  0.83424795
   0.13365118  0.56817284  0.03287713
   0.20496752  0.67660737  0.19249102
   0.65116633  0.82438029  0.25799640
   0.83426482  0.92074550  0.38527371
   0.03288459  0.13365869  0.56814737
   0.19249870  0.20497358  0.67658414
   0.18434619  0.65511161  0.63396798
   0.63399077  0.18436502  0.65510030
   0.65510072  0.63399274  0.18434017
   0.81566022  0.34492138  0.36601271
   0.36602555  0.81566804  0.34489360
   0.34490509  0.36603615  0.81564870
   0.69003535  0.32709625  0.06238926
   0.89746825  0.52171921  0.36352284
   0.35989946  0.92682504  0.73365069
   0.06241667  0.69006145  0.32708938
   0.36354012  0.89749451  0.52170050
   0.73366740  0.35992116  0.92681058
   0.32709871  0.06243012  0.69004948
   0.52170328  0.36353792  0.89745514
   0.92681439  0.73367660  0.35989252
   0.30996923  0.67293004  0.93759379
   0.10254052  0.47831779  0.63647278
   0.64011816  0.07320500  0.26633186
   0.93762065  0.30997989  0.67292543
   0.63650008  0.10259540  0.47830898
   0.26636094  0.64014872  0.07319655
   0.67292743  0.93762341  0.30997291
   0.47830757  0.63648415  0.10254495
   0.07320261  0.26636605  0.64010841
   0.51413267  0.10851837  0.78241206
   0.78241568  0.51414346  0.10849211
   0.10849985  0.78242172  0.51411920
   0.48589559  0.89154069  0.21760063
   0.21761372  0.48590911  0.89151792
   0.89151965  0.21761076  0.48588181
 
 position of ions in cartesian coordinates  (Angst):
   7.59511078  2.64754683  1.18809279
   7.63873105  1.30893925  0.54329165
  -6.43783813  2.86224369  5.76281678
  -6.45159843  1.54589633  5.28467471
  -5.07078245  5.91373205  2.32906165
  -4.33584125  6.35007213  1.11298466
   3.27898846 -5.54895842  6.42675457
   4.09541460 -5.13450572  5.36684846
  -1.19743264 -6.36168155  4.91917549
  -2.40204151 -6.16559605  4.07076941
   5.53246148  6.62036805  2.90059644
   4.37424905  6.93300785  2.17788070
  -6.54733970 -0.91088336  5.47310514
  -6.59084169  0.42772732  6.11787991
   7.48575173 -1.12559217  0.89835946
   7.49945629  0.19071693  1.37651201
   6.11851738 -4.17692977  4.33218995
   5.38356119 -4.61336960  5.54826430
  -2.23129294  7.28570654  0.23459412
  -3.04766241  6.87118412  1.29439876
   2.24507534  8.09817606  1.74211940
   3.44978811  7.90209766  2.59056074
  -4.48465298 -4.88386445  3.76077320
  -3.32641508 -5.19653070  4.48344660
  -6.34630927  1.38326026  4.21248863
   3.70894842 -5.21905851  4.35173836
   4.18117170  6.39459778  1.25052387
   7.39408289  0.35350742  2.44863915
  -2.66111790  6.95567174  2.30947696
  -3.13343604 -4.65798180  5.41065783
   7.76122131  3.68659803  0.43750293
   7.40382788  2.77060643  2.43851787
  -6.30653318  3.87969749  4.88257993
  -6.27463269  5.46730709  2.18121255
  -4.53665957  5.97898135  3.48049893
   2.05193633 -6.04678976  6.15508551
  -0.35556713 -7.27893549  4.57229794
  -0.99933933 -5.65370086  5.95586082
   6.37139789  5.67555000  2.42042758
  -6.71344453 -1.94994854  6.22364017
  -6.35615277 -1.03396038  4.22270878
   7.35448569 -2.14299152  1.77856029
   7.32257635 -3.73082814  4.48014175
   5.58433991 -4.24178379  3.18082142
  -1.00427807  7.78374439  0.50621851
   1.40319956  9.01548987  2.08910649
   2.04712062  7.39009271  0.70539501
  -5.32367499 -3.93888995  4.24083442
   1.51449077 -7.74281446  5.18874191
   7.51419913  5.67007421  0.74919627
  -7.55659294  4.51280695  3.42128208
  -0.46679633  9.47955771  1.47259858
  -6.46642219 -3.93338742  5.91212651
   8.60442569 -2.77628522  3.23998031
 


--------------------------------------------------------------------------------------------------------


 use serial FFT for orbitals x direction half grid
 k-point   1 :   0.0000 0.0000 0.0000  plane waves:   12430

 maximum and minimum number of plane-waves per node :     12430    12430

 maximum number of plane-waves:     12430
 maximum index in each direction: 
   IXMAX=   24   IYMAX=   22   IZMAX=   21
   IXMIN=    0   IYMIN=  -24   IZMIN=  -24


 serial   3D FFT for wavefunctions
 parallel 3D FFT for charge:
    minimum data exchange during FFTs selected (reduces bandwidth)


 FFT grid for exact exchange (Hartree Fock) 
  NGX = 80; NGY = 80; NGZ = 80

 use serial FFT for orbitals x direction half grid
 
 Radii for the augmentation spheres in the non-local exchange
 for species   1 augmentation radius   0.874 (default was   0.699)
       energy cutoff for augmentation   1600.0
 for species   2 augmentation radius   0.650 (default was   0.520)
       energy cutoff for augmentation   1600.0
 for species   3 augmentation radius   0.902 (default was   0.722)
       energy cutoff for augmentation   1600.0
 for species   4 augmentation radius   1.339 (default was   1.071)
       energy cutoff for augmentation   1600.0
 Maximum index for augmentation-charges in exchange         3769
  SETUP_FOCK is finished

 total amount of memory used by VASP MPI-rank0   143582. kBytes
=======================================================================

   base      :      30000. kBytes
   nonlr-proj:      45210. kBytes
   fftplans  :      10913. kBytes
   grid      :      54672. kBytes
   one-center:        219. kBytes
   HF        :        135. kBytes
   wavefun   :       2433. kBytes
 
     INWAV:  cpu time      0.0001: real time      0.0003
 Broyden mixing: mesh for mixing (old mesh)
   NGX = 49   NGY = 49   NGZ = 49
  (NGX  =200   NGY  =200   NGZ  =200)
  gives a total of 117649 points

 initial charge density was supplied:
 charge density of overlapping atoms calculated
 number of electron     222.0000000 magnetization 
 keeping initial charge density in first step


--------------------------------------------------------------------------------------------------------


 Maximum index for non-local projection operator        10171
 Maximum index for augmentation-charges          858 (set IRDMAX)


--------------------------------------------------------------------------------------------------------


    FEWALD:  cpu time      0.0020: real time      0.0020


--------------------------------------- Iteration      1(   1)  ---------------------------------------


    POTLOK:  cpu time      0.1849: real time      0.1892
    SETDIJ:  cpu time      0.1816: real time      0.1821
    TRIAL :  cpu time      1.0672: real time      1.1106
    CORREC:  cpu time      0.0003: real time      0.0003
    --------------------------------------------
      LOOP:  cpu time      1.4366: real time      1.4864

 eigenvalue-minimisations  :   320
 total energy-change (2. order) : 0.8967448E+03  (-0.9985829E+04)
 number of electron     222.0000000 magnetization 
 augmentation part      222.0000000 magnetization 

 Free energy of the ion-electron system (eV)
  ---------------------------------------------------
  alpha Z        PSCENC =       171.49134797
  Ewald energy   TEWEN  =      9959.13138061
  -Hartree energ DENC   =    -19698.37978568
  -exchange      EXHF   =         0.00000000
  -V(xc)+E(xc)   XCENC  =       536.38217667
  PAW double counting   =      9247.06403337   -10357.13427159
  entropy T*S    EENTRO =        -0.08683290
  eigenvalues    EBANDS =      -435.94183838
  atomic energy  EATOM  =     11474.21860345
  ---------------------------------------------------
  free energy    TOTEN  =       896.74481353 eV

  energy without entropy =      896.83164643  energy(sigma->0) =      896.78822998
  exchange ACFDT corr.  =         0.00000000  see jH, gK, PRB 81, 115126


--------------------------------------------------------------------------------------------------------




--------------------------------------- Iteration      1(   2)  ---------------------------------------


    TRIAL :  cpu time      1.6150: real time      1.6199
    CORREC:  cpu time      0.0001: real time      0.0001
    --------------------------------------------
      LOOP:  cpu time      1.6165: real time      1.6274

 eigenvalue-minimisations  :   560
 total energy-change (2. order) :-0.2447192E+04  (-0.2367537E+04)
 number of electron     222.0000000 magnetization 
 augmentation part      222.0000000 magnetization 

 Free energy of the ion-electron system (eV)
  ---------------------------------------------------
  alpha Z        PSCENC =       171.49134797
  Ewald energy   TEWEN  =      9959.13138061
  -Hartree energ DENC   =    -19698.37978568
  -exchange      EXHF   =         0.00000000
  -V(xc)+E(xc)   XCENC  =       536.38217667
  PAW double counting   =      9247.06403337   -10357.13427159
  entropy T*S    EENTRO =        -0.00000000
  eigenvalues    EBANDS =     -2883.22100816
  atomic energy  EATOM  =     11474.21860345
  ---------------------------------------------------
  free energy    TOTEN  =     -1550.44752335 eV

  energy without entropy =    -1550.44752335  energy(sigma->0) =    -1550.44752335
  exchange ACFDT corr.  =         0.00000000  see jH, gK, PRB 81, 115126


--------------------------------------------------------------------------------------------------------




--------------------------------------- Iteration      1(   3)  ---------------------------------------


    TRIAL :  cpu time      1.2254: real time      1.2290
    CORREC:  cpu time      0.0001: real time      0.0001
    --------------------------------------------
      LOOP:  cpu time      1.2319: real time      1.2362

 eigenvalue-minimisations  :   400
 total energy-change (2. order) :-0.3516744E+03  (-0.3499211E+03)
 number of electron     222.0000000 magnetization 
 augmentation part      222.0000000 magnetization 

 Free energy of the ion-electron system (eV)
  ---------------------------------------------------
  alpha Z        PSCENC =       171.49134797
  Ewald energy   TEWEN  =      9959.13138061
  -Hartree energ DENC   =    -19698.37978568
  -exchange      EXHF   =         0.00000000
  -V(xc)+E(xc)   XCENC  =       536.38217667
  PAW double counting   =      9247.06403337   -10357.13427159
  entropy T*S    EENTRO =        -0.00000000
  eigenvalues    EBANDS =     -3234.89536357
  atomic energy  EATOM  =     11474.21860345
  ---------------------------------------------------
  free energy    TOTEN  =     -1902.12187876 eV

  energy without entropy =    -1902.12187876  energy(sigma->0) =    -1902.12187876
  exchange ACFDT corr.  =         0.00000000  see jH, gK, PRB 81, 115126


--------------------------------------------------------------------------------------------------------




--------------------------------------- Iteration      1(   4)  ---------------------------------------


    TRIAL :  cpu time      1.2213: real time      1.2248
    CORREC:  cpu time      0.0001: real time      0.0001
    --------------------------------------------
      LOOP:  cpu time      1.2241: real time      1.2322

 eigenvalue-minimisations  :   400
 total energy-change (2. order) :-0.8806131E+01  (-0.8784830E+01)
 number of electron     222.0000000 magnetization 
 augmentation part      222.0000000 magnetization 

 Free energy of the ion-electron system (eV)
  ---------------------------------------------------
  alpha Z        PSCENC =       171.49134797
  Ewald energy   TEWEN  =      9959.13138061
  -Hartree energ DENC   =    -19698.37978568
  -exchange      EXHF   =         0.00000000
  -V(xc)+E(xc)   XCENC  =       536.38217667
  PAW double counting   =      9247.06403337   -10357.13427159
  entropy T*S    EENTRO =        -0.00000000
  eigenvalues    EBANDS =     -3243.70149435
  atomic energy  EATOM  =     11474.21860345
  ---------------------------------------------------
  free energy    TOTEN  =     -1910.92800955 eV

  energy without entropy =    -1910.92800955  energy(sigma->0) =    -1910.92800955
  exchange ACFDT corr.  =         0.00000000  see jH, gK, PRB 81, 115126


--------------------------------------------------------------------------------------------------------




--------------------------------------- Iteration      1(   5)  ---------------------------------------


    POTLOK:  cpu time      0.4359: real time      0.4371
    SETDIJ:  cpu time      0.4951: real time      0.4967
    TRIAL :  cpu time     18.0690: real time     18.1270
    CORREC:  cpu time      0.0001: real time      0.0001
    CHARGE:  cpu time      0.1273: real time      0.1277
    --------------------------------------------
      LOOP:  cpu time     19.1278: real time     19.1954

 eigenvalue-minimisations  :   440
 total energy-change (2. order) : 0.1406165E+04  (-0.1324603E+01)
 number of electron     221.9999986 magnetization 
 augmentation part       16.6139668 magnetization 

 Free energy of the ion-electron system (eV)
  ---------------------------------------------------
  alpha Z        PSCENC =       171.49134797
  Ewald energy   TEWEN  =      9959.13138061
  -Hartree energ DENC   =    -19698.37978568
  -exchange      EXHF   =       568.19932977
  -V(xc)+E(xc)   XCENC  =       421.00789237
  PAW double counting   =      9338.37841645    -9133.09917253
  entropy T*S    EENTRO =        -0.00000000
  eigenvalues    EBANDS =     -3605.71071176
  atomic energy  EATOM  =     11474.21860345
  ---------------------------------------------------
  free energy    TOTEN  =      -504.76269935 eV

  energy without entropy =     -504.76269935  energy(sigma->0) =     -504.76269935
  exchange ACFDT corr.  =        -0.00000000  see jH, gK, PRB 81, 115126


--------------------------------------------------------------------------------------------------------




--------------------------------------- Iteration      1(   6)  ---------------------------------------


    POTLOK:  cpu time      0.4055: real time      0.4068
    SETDIJ:  cpu time      0.4926: real time      0.4940
    TRIAL :  cpu time     17.5851: real time     17.6954
    CORREC:  cpu time     71.4298: real time     72.1804
    CHARGE:  cpu time      0.1226: real time      0.1229
    --------------------------------------------
      LOOP:  cpu time     90.0369: real time     90.9071

 eigenvalue-minimisations  :     0
 total energy-change (2. order) : 0.1010580E+03  (-0.2256826E+01)
 number of electron     221.9999988 magnetization 
 augmentation part       14.7321330 magnetization 

 Free energy of the ion-electron system (eV)
  ---------------------------------------------------
  alpha Z        PSCENC =       171.49134797
  Ewald energy   TEWEN  =      9959.13138061
  -Hartree energ DENC   =    -21379.98118472
  -exchange      EXHF   =       572.71945623
  -V(xc)+E(xc)   XCENC  =       489.81957177
  PAW double counting   =     20056.66989090   -19868.56874375
  entropy T*S    EENTRO =        -0.00000000
  eigenvalues    EBANDS =     -1879.20505780
  atomic energy  EATOM  =     11474.21860345
  ---------------------------------------------------
  free energy    TOTEN  =      -403.70473535 eV

  energy without entropy =     -403.70473535  energy(sigma->0) =     -403.70473535
  exchange ACFDT corr.  =        -0.00000000  see jH, gK, PRB 81, 115126


--------------------------------------------------------------------------------------------------------




--------------------------------------- Iteration      1(   7)  ---------------------------------------


    POTLOK:  cpu time      0.4384: real time      0.4397
    SETDIJ:  cpu time      0.4922: real time      0.4934
    TRIAL :  cpu time     17.2063: real time     17.2634
    CORREC:  cpu time     17.8098: real time     17.9667
    CHARGE:  cpu time      0.1214: real time      0.1223
    --------------------------------------------
      LOOP:  cpu time     36.0696: real time     36.2938

 eigenvalue-minimisations  :     0
 total energy-change (2. order) :-0.4589391E+02  (-0.4930150E+01)
 number of electron     221.9999989 magnetization 
 augmentation part       14.3634549 magnetization 

 Free energy of the ion-electron system (eV)
  ---------------------------------------------------
  alpha Z        PSCENC =       171.49134797
  Ewald energy   TEWEN  =      9959.13138061
  -Hartree energ DENC   =    -20559.81860738
  -exchange      EXHF   =       544.98116059
  -V(xc)+E(xc)   XCENC  =       455.18092952
  PAW double counting   =     19476.71829859   -19280.72680102
  entropy T*S    EENTRO =        -0.00000000
  eigenvalues    EBANDS =     -2690.77495556
  atomic energy  EATOM  =     11474.21860345
  ---------------------------------------------------
  free energy    TOTEN  =      -449.59864325 eV

  energy without entropy =     -449.59864325  energy(sigma->0) =     -449.59864325
  exchange ACFDT corr.  =        -0.00000000  see jH, gK, PRB 81, 115126


--------------------------------------------------------------------------------------------------------




--------------------------------------- Iteration      1(   8)  ---------------------------------------


    POTLOK:  cpu time      0.4235: real time      0.4248
    SETDIJ:  cpu time      0.4975: real time      0.4989
    TRIAL :  cpu time     17.1732: real time     17.4582
    CORREC:  cpu time     70.9671: real time     71.4008
    CHARGE:  cpu time      0.1217: real time      0.1220
    --------------------------------------------
      LOOP:  cpu time     89.1851: real time     89.9127

 eigenvalue-minimisations  :     0
 total energy-change (2. order) :-0.5144460E+01  (-0.9005021E-04)
 number of electron     221.9999989 magnetization 
 augmentation part       14.2469559 magnetization 

 Free energy of the ion-electron system (eV)
  ---------------------------------------------------
  alpha Z        PSCENC =       171.49134797
  Ewald energy   TEWEN  =      9959.13138061
  -Hartree energ DENC   =    -20568.47390726
  -exchange      EXHF   =       544.87802291
  -V(xc)+E(xc)   XCENC  =       454.66300893
  PAW double counting   =     19677.67628169   -19479.38095295
  entropy T*S    EENTRO =        -0.00000000
  eigenvalues    EBANDS =     -2688.94688881
  atomic energy  EATOM  =     11474.21860345
  ---------------------------------------------------
  free energy    TOTEN  =      -454.74310346 eV

  energy without entropy =     -454.74310346  energy(sigma->0) =     -454.74310346
  exchange ACFDT corr.  =        -0.00000000  see jH, gK, PRB 81, 115126


--------------------------------------------------------------------------------------------------------




--------------------------------------- Iteration      1(   9)  ---------------------------------------


    POTLOK:  cpu time      0.4273: real time      0.4286
    SETDIJ:  cpu time      0.4972: real time      0.4983
    TRIAL :  cpu time     17.2298: real time     17.2818
    CORREC:  cpu time     17.7556: real time     17.8171
    CHARGE:  cpu time      0.1244: real time      0.1250
    --------------------------------------------
      LOOP:  cpu time     36.0358: real time     36.1588

 eigenvalue-minimisations  :     0
 total energy-change (2. order) :-0.1808346E+01  (-0.8870146E+00)
 number of electron     221.9999989 magnetization 
 augmentation part       14.1639552 magnetization 

 Free energy of the ion-electron system (eV)
  ---------------------------------------------------
  alpha Z        PSCENC =       171.49134797
  Ewald energy   TEWEN  =      9959.13138061
  -Hartree energ DENC   =    -20571.69558436
  -exchange      EXHF   =       544.57561574
  -V(xc)+E(xc)   XCENC  =       454.47234163
  PAW double counting   =     19875.18846444   -19676.11461332
  entropy T*S    EENTRO =        -0.00000000
  eigenvalues    EBANDS =     -2687.81900582
  atomic energy  EATOM  =     11474.21860345
  ---------------------------------------------------
  free energy    TOTEN  =      -456.55144966 eV

  energy without entropy =     -456.55144966  energy(sigma->0) =     -456.55144966
  exchange ACFDT corr.  =        -0.00000000  see jH, gK, PRB 81, 115126


--------------------------------------------------------------------------------------------------------




--------------------------------------- Iteration      1(  10)  ---------------------------------------


    POTLOK:  cpu time      0.4306: real time      0.4316
    SETDIJ:  cpu time      0.4970: real time      0.4984
    TRIAL :  cpu time     17.2325: real time     17.6010
    CORREC:  cpu time     17.8111: real time     17.8731
    CHARGE:  cpu time      0.1235: real time      0.1238
    --------------------------------------------
      LOOP:  cpu time     36.0964: real time     36.5356

 eigenvalue-minimisations  :     0
 total energy-change (2. order) :-0.8682139E+00  (-0.4762303E+00)
 number of electron     221.9999989 magnetization 
 augmentation part       14.1614971 magnetization 

 Free energy of the ion-electron system (eV)
  ---------------------------------------------------
  alpha Z        PSCENC =       171.49134797
  Ewald energy   TEWEN  =      9959.13138061
  -Hartree energ DENC   =    -20549.44507560
  -exchange      EXHF   =       543.68911342
  -V(xc)+E(xc)   XCENC  =       453.59044669
  PAW double counting   =     19935.74721503   -19736.25671477
  entropy T*S    EENTRO =        -0.00000000
  eigenvalues    EBANDS =     -2709.58598031
  atomic energy  EATOM  =     11474.21860345
  ---------------------------------------------------
  free energy    TOTEN  =      -457.41966351 eV

  energy without entropy =     -457.41966351  energy(sigma->0) =     -457.41966351
  exchange ACFDT corr.  =        -0.00000000  see jH, gK, PRB 81, 115126


--------------------------------------------------------------------------------------------------------




--------------------------------------- Iteration      1(  11)  ---------------------------------------


    POTLOK:  cpu time      0.4498: real time      0.4662
    SETDIJ:  cpu time      0.4826: real time      0.5032
    TRIAL :  cpu time     17.1527: real time     17.2653
    CORREC:  cpu time     17.7665: real time     18.0468
    CHARGE:  cpu time      0.1211: real time      0.1214
    --------------------------------------------
      LOOP:  cpu time     35.9736: real time     36.4112

 eigenvalue-minimisations  :     0
 total energy-change (2. order) :-0.4733443E+00  (-0.2397160E+00)
 number of electron     221.9999989 magnetization 
 augmentation part       14.2315492 magnetization 

 Free energy of the ion-electron system (eV)
  ---------------------------------------------------
  alpha Z        PSCENC =       171.49134797
  Ewald energy   TEWEN  =      9959.13138061
  -Hartree energ DENC   =    -20523.30292769
  -exchange      EXHF   =       542.87468912
  -V(xc)+E(xc)   XCENC  =       452.76863288
  PAW double counting   =     19882.51927483   -19683.11061079
  entropy T*S    EENTRO =        -0.00000000
  eigenvalues    EBANDS =     -2734.48339818
  atomic energy  EATOM  =     11474.21860345
  ---------------------------------------------------
  free energy    TOTEN  =      -457.89300781 eV

  energy without entropy =     -457.89300781  energy(sigma->0) =     -457.89300781
  exchange ACFDT corr.  =        -0.00000000  see jH, gK, PRB 81, 115126


--------------------------------------------------------------------------------------------------------




--------------------------------------- Iteration      1(  12)  ---------------------------------------


    POTLOK:  cpu time      0.4297: real time      0.4310
    SETDIJ:  cpu time      0.4981: real time      0.4994
    TRIAL :  cpu time     17.1689: real time     17.3012
    CORREC:  cpu time     17.7784: real time     17.8338
    CHARGE:  cpu time      0.1218: real time      0.1221
    --------------------------------------------
      LOOP:  cpu time     35.9989: real time     36.1953

 eigenvalue-minimisations  :     0
 total energy-change (2. order) :-0.2401813E+00  (-0.9033255E-01)
 number of electron     221.9999989 magnetization 
 augmentation part       14.2960869 magnetization 

 Free energy of the ion-electron system (eV)
  ---------------------------------------------------
  alpha Z        PSCENC =       171.49134797
  Ewald energy   TEWEN  =      9959.13138061
  -Hartree energ DENC   =    -20516.75918043
  -exchange      EXHF   =       542.66086574
  -V(xc)+E(xc)   XCENC  =       452.67194183
  PAW double counting   =     19823.52909876   -19624.55148311
  entropy T*S    EENTRO =        -0.00000000
  eigenvalues    EBANDS =     -2740.52576393
  atomic energy  EATOM  =     11474.21860345
  ---------------------------------------------------
  free energy    TOTEN  =      -458.13318911 eV

  energy without entropy =     -458.13318911  energy(sigma->0) =     -458.13318911
  exchange ACFDT corr.  =        -0.00000000  see jH, gK, PRB 81, 115126


--------------------------------------------------------------------------------------------------------




--------------------------------------- Iteration      1(  13)  ---------------------------------------


    POTLOK:  cpu time      0.4288: real time      0.4358
    SETDIJ:  cpu time      0.4967: real time      0.4982
    TRIAL :  cpu time     17.3202: real time     17.4901
    CORREC:  cpu time     17.7498: real time     17.9788
    CHARGE:  cpu time      0.1218: real time      0.1221
    --------------------------------------------
      LOOP:  cpu time     36.1182: real time     36.5330

 eigenvalue-minimisations  :     0
 total energy-change (2. order) :-0.9065513E-01  (-0.3406497E-01)
 number of electron     221.9999989 magnetization 
 augmentation part       14.3126497 magnetization 

 Free energy of the ion-electron system (eV)
  ---------------------------------------------------
  alpha Z        PSCENC =       171.49134797
  Ewald energy   TEWEN  =      9959.13138061
  -Hartree energ DENC   =    -20526.17029804
  -exchange      EXHF   =       542.93925450
  -V(xc)+E(xc)   XCENC  =       453.09521651
  PAW double counting   =     19797.20027759   -19598.56750434
  entropy T*S    EENTRO =        -0.00000000
  eigenvalues    EBANDS =     -2731.56212249
  atomic energy  EATOM  =     11474.21860345
  ---------------------------------------------------
  free energy    TOTEN  =      -458.22384424 eV

  energy without entropy =     -458.22384424  energy(sigma->0) =     -458.22384424
  exchange ACFDT corr.  =        -0.00000000  see jH, gK, PRB 81, 115126


--------------------------------------------------------------------------------------------------------




--------------------------------------- Iteration      1(  14)  ---------------------------------------


    POTLOK:  cpu time      0.4322: real time      0.4335
    SETDIJ:  cpu time      0.4978: real time      0.4991
    TRIAL :  cpu time     17.9592: real time     18.0834
    CORREC:  cpu time     19.3361: real time     19.4662
    CHARGE:  cpu time      0.1243: real time      0.1246
    --------------------------------------------
      LOOP:  cpu time     38.3510: real time     38.6146

 eigenvalue-minimisations  :     0
 total energy-change (2. order) :-0.3414373E-01  (-0.1657043E-01)
 number of electron     221.9999989 magnetization 
 augmentation part       14.3001909 magnetization 

 Free energy of the ion-electron system (eV)
  ---------------------------------------------------
  alpha Z        PSCENC =       171.49134797
  Ewald energy   TEWEN  =      9959.13138061
  -Hartree energ DENC   =    -20530.69908236
  -exchange      EXHF   =       543.07057126
  -V(xc)+E(xc)   XCENC  =       453.26633249
  PAW double counting   =     19780.85642374   -19582.32001871
  entropy T*S    EENTRO =        -0.00000000
  eigenvalues    EBANDS =     -2727.27354642
  atomic energy  EATOM  =     11474.21860345
  ---------------------------------------------------
  free energy    TOTEN  =      -458.25798797 eV

  energy without entropy =     -458.25798797  energy(sigma->0) =     -458.25798797
  exchange ACFDT corr.  =        -0.00000000  see jH, gK, PRB 81, 115126


--------------------------------------------------------------------------------------------------------




--------------------------------------- Iteration      1(  15)  ---------------------------------------


    POTLOK:  cpu time      0.4655: real time      0.4666
    SETDIJ:  cpu time      0.4971: real time      0.5048
    TRIAL :  cpu time     18.2418: real time     18.4825
    CORREC:  cpu time     18.4467: real time     18.5059
    CHARGE:  cpu time      0.1232: real time      0.1235
    --------------------------------------------
      LOOP:  cpu time     37.7774: real time     38.0924

 eigenvalue-minimisations  :     0
 total energy-change (2. order) :-0.1656799E-01  (-0.6277502E-02)
 number of electron     221.9999989 magnetization 
 augmentation part       14.2929746 magnetization 

 Free energy of the ion-electron system (eV)
  ---------------------------------------------------
  alpha Z        PSCENC =       171.49134797
  Ewald energy   TEWEN  =      9959.13138061
  -Hartree energ DENC   =    -20527.30553267
  -exchange      EXHF   =       542.95825175
  -V(xc)+E(xc)   XCENC  =       453.10603823
  PAW double counting   =     19765.58990816   -19567.01148635
  entropy T*S    EENTRO =        -0.00000000
  eigenvalues    EBANDS =     -2730.45306711
  atomic energy  EATOM  =     11474.21860345
  ---------------------------------------------------
  free energy    TOTEN  =      -458.27455596 eV

  energy without entropy =     -458.27455596  energy(sigma->0) =     -458.27455596
  exchange ACFDT corr.  =        -0.00000000  see jH, gK, PRB 81, 115126


--------------------------------------------------------------------------------------------------------




--------------------------------------- Iteration      1(  16)  ---------------------------------------


    POTLOK:  cpu time      0.4718: real time      0.4729
    SETDIJ:  cpu time      0.5077: real time      0.5092
    TRIAL :  cpu time     18.4022: real time     18.4621
    CORREC:  cpu time     17.7494: real time     18.1592
    CHARGE:  cpu time      0.1225: real time      0.1228
    --------------------------------------------
      LOOP:  cpu time     37.2547: real time     37.7344

 eigenvalue-minimisations  :     0
 total energy-change (2. order) :-0.6279922E-02  (-0.3171529E-02)
 number of electron     221.9999989 magnetization 
 augmentation part       14.2947049 magnetization 

 Free energy of the ion-electron system (eV)
  ---------------------------------------------------
  alpha Z        PSCENC =       171.49134797
  Ewald energy   TEWEN  =      9959.13138061
  -Hartree energ DENC   =    -20525.90581774
  -exchange      EXHF   =       542.91757948
  -V(xc)+E(xc)   XCENC  =       453.03422484
  PAW double counting   =     19763.22783798   -19564.61483729
  entropy T*S    EENTRO =        -0.00000000
  eigenvalues    EBANDS =     -2731.78115519
  atomic energy  EATOM  =     11474.21860345
  ---------------------------------------------------
  free energy    TOTEN  =      -458.28083589 eV

  energy without entropy =     -458.28083589  energy(sigma->0) =     -458.28083589
  exchange ACFDT corr.  =        -0.00000000  see jH, gK, PRB 81, 115126


--------------------------------------------------------------------------------------------------------




--------------------------------------- Iteration      1(  17)  ---------------------------------------


    POTLOK:  cpu time      0.4299: real time      0.4310
    SETDIJ:  cpu time      0.4993: real time      0.5009
    TRIAL :  cpu time     17.1277: real time     17.1836
    CORREC:  cpu time     17.6513: real time     17.8005
    CHARGE:  cpu time      0.1216: real time      0.1219
    --------------------------------------------
      LOOP:  cpu time     35.8310: real time     36.0456

 eigenvalue-minimisations  :     0
 total energy-change (2. order) :-0.3166623E-02  (-0.1350959E-02)
 number of electron     221.9999989 magnetization 
 augmentation part       14.2964784 magnetization 

 Free energy of the ion-electron system (eV)
  ---------------------------------------------------
  alpha Z        PSCENC =       171.49134797
  Ewald energy   TEWEN  =      9959.13138061
  -Hartree energ DENC   =    -20528.11772229
  -exchange      EXHF   =       542.99414728
  -V(xc)+E(xc)   XCENC  =       453.11346274
  PAW double counting   =     19769.06177143   -19570.44588114
  entropy T*S    EENTRO =        -0.00000000
  eigenvalues    EBANDS =     -2729.73111256
  atomic energy  EATOM  =     11474.21860345
  ---------------------------------------------------
  free energy    TOTEN  =      -458.28400251 eV

  energy without entropy =     -458.28400251  energy(sigma->0) =     -458.28400251
  exchange ACFDT corr.  =        -0.00000000  see jH, gK, PRB 81, 115126


--------------------------------------------------------------------------------------------------------




--------------------------------------- Iteration      1(  18)  ---------------------------------------


    POTLOK:  cpu time      0.4309: real time      0.4320
    SETDIJ:  cpu time      0.4978: real time      0.4994
    TRIAL :  cpu time     17.3968: real time     17.7178
    CORREC:  cpu time     17.5554: real time     17.6123
    CHARGE:  cpu time      0.1211: real time      0.1214
    --------------------------------------------
      LOOP:  cpu time     36.0031: real time     36.3913

 eigenvalue-minimisations  :     0
 total energy-change (2. order) :-0.1355264E-02  (-0.5813060E-03)
 number of electron     221.9999989 magnetization 
 augmentation part       14.2957775 magnetization 

 Free energy of the ion-electron system (eV)
  ---------------------------------------------------
  alpha Z        PSCENC =       171.49134797
  Ewald energy   TEWEN  =      9959.13138061
  -Hartree energ DENC   =    -20529.68493543
  -exchange      EXHF   =       543.04731060
  -V(xc)+E(xc)   XCENC  =       453.17254642
  PAW double counting   =     19773.66736503   -19575.05403383
  entropy T*S    EENTRO =        -0.00000000
  eigenvalues    EBANDS =     -2728.27494258
  atomic energy  EATOM  =     11474.21860345
  ---------------------------------------------------
  free energy    TOTEN  =      -458.28535777 eV

  energy without entropy =     -458.28535777  energy(sigma->0) =     -458.28535777
  exchange ACFDT corr.  =        -0.00000000  see jH, gK, PRB 81, 115126


--------------------------------------------------------------------------------------------------------




--------------------------------------- Iteration      1(  19)  ---------------------------------------


    POTLOK:  cpu time      0.4318: real time      0.4332
    SETDIJ:  cpu time      0.4922: real time      0.4999
    TRIAL :  cpu time     17.1263: real time     17.1938
    CORREC:  cpu time     17.6361: real time     17.9333
    CHARGE:  cpu time      0.1246: real time      0.1249
    --------------------------------------------
      LOOP:  cpu time     35.8133: real time     36.1932

 eigenvalue-minimisations  :     0
 total energy-change (2. order) :-0.5846969E-03  (-0.2427852E-03)
 number of electron     221.9999989 magnetization 
 augmentation part       14.2950360 magnetization 

 Free energy of the ion-electron system (eV)
  ---------------------------------------------------
  alpha Z        PSCENC =       171.49134797
  Ewald energy   TEWEN  =      9959.13138061
  -Hartree energ DENC   =    -20529.66563930
  -exchange      EXHF   =       543.04772629
  -V(xc)+E(xc)   XCENC  =       453.17060394
  PAW double counting   =     19775.04759071   -19576.43082056
  entropy T*S    EENTRO =        -0.00000000
  eigenvalues    EBANDS =     -2728.29673557
  atomic energy  EATOM  =     11474.21860345
  ---------------------------------------------------
  free energy    TOTEN  =      -458.28594247 eV

  energy without entropy =     -458.28594247  energy(sigma->0) =     -458.28594247
  exchange ACFDT corr.  =        -0.00000000  see jH, gK, PRB 81, 115126


--------------------------------------------------------------------------------------------------------




--------------------------------------- Iteration      1(  20)  ---------------------------------------


    POTLOK:  cpu time      0.4318: real time      0.4331
    SETDIJ:  cpu time      0.4981: real time      0.4995
    TRIAL :  cpu time     17.1155: real time     17.1791
    CORREC:  cpu time     17.5395: real time     17.6586
    CHARGE:  cpu time      0.1210: real time      0.1213
    --------------------------------------------
      LOOP:  cpu time     35.7066: real time     35.8994

 eigenvalue-minimisations  :     0
 total energy-change (2. order) :-0.2461182E-03  (-0.9498224E-04)
 number of electron     221.9999989 magnetization 
 augmentation part       14.2951310 magnetization 

 Free energy of the ion-electron system (eV)
  ---------------------------------------------------
  alpha Z        PSCENC =       171.49134797
  Ewald energy   TEWEN  =      9959.13138061
  -Hartree energ DENC   =    -20529.47342843
  -exchange      EXHF   =       543.04170038
  -V(xc)+E(xc)   XCENC  =       453.16219812
  PAW double counting   =     19775.28236991   -19576.66238066
  entropy T*S    EENTRO =        -0.00000000
  eigenvalues    EBANDS =     -2728.47797994
  atomic energy  EATOM  =     11474.21860345
  ---------------------------------------------------
  free energy    TOTEN  =      -458.28618859 eV

  energy without entropy =     -458.28618859  energy(sigma->0) =     -458.28618859
  exchange ACFDT corr.  =        -0.00000000  see jH, gK, PRB 81, 115126


--------------------------------------------------------------------------------------------------------




--------------------------------------- Iteration      1(  21)  ---------------------------------------


    POTLOK:  cpu time      0.4292: real time      0.4307
    SETDIJ:  cpu time      0.4973: real time      0.4985
    TRIAL :  cpu time     17.1011: real time     17.1741
    CORREC:  cpu time     17.9968: real time     18.2408
    CHARGE:  cpu time      0.1214: real time      0.1218
    --------------------------------------------
      LOOP:  cpu time     36.1466: real time     36.4741

 eigenvalue-minimisations  :     0
 total energy-change (2. order) :-0.9566081E-04  (-0.3996565E-04)
 number of electron     221.9999989 magnetization 
 augmentation part       14.2952699 magnetization 

 Free energy of the ion-electron system (eV)
  ---------------------------------------------------
  alpha Z        PSCENC =       171.49134797
  Ewald energy   TEWEN  =      9959.13138061
  -Hartree energ DENC   =    -20529.59514270
  -exchange      EXHF   =       543.04524639
  -V(xc)+E(xc)   XCENC  =       453.16644739
  PAW double counting   =     19775.36929887   -19576.74948940
  entropy T*S    EENTRO =        -0.00000000
  eigenvalues    EBANDS =     -2728.36397683
  atomic energy  EATOM  =     11474.21860345
  ---------------------------------------------------
  free energy    TOTEN  =      -458.28628425 eV

  energy without entropy =     -458.28628425  energy(sigma->0) =     -458.28628425
  exchange ACFDT corr.  =        -0.00000000  see jH, gK, PRB 81, 115126


--------------------------------------------------------------------------------------------------------




--------------------------------------- Iteration      1(  22)  ---------------------------------------


    POTLOK:  cpu time      0.4255: real time      0.4266
    SETDIJ:  cpu time      0.4970: real time      0.4985
    TRIAL :  cpu time     17.0637: real time     17.1230
    CORREC:  cpu time     17.6050: real time     17.6791
    CHARGE:  cpu time      0.1238: real time      0.1241
    --------------------------------------------
      LOOP:  cpu time     35.7200: real time     35.8593

 eigenvalue-minimisations  :     0
 total energy-change (2. order) :-0.4002648E-04  (-0.1609776E-04)
 number of electron     221.9999989 magnetization 
 augmentation part       14.2952534 magnetization 

 Free energy of the ion-electron system (eV)
  ---------------------------------------------------
  alpha Z        PSCENC =       171.49134797
  Ewald energy   TEWEN  =      9959.13138061
  -Hartree energ DENC   =    -20529.66320093
  -exchange      EXHF   =       543.04699614
  -V(xc)+E(xc)   XCENC  =       453.16899141
  PAW double counting   =     19775.12494545   -19576.50605606
  entropy T*S    EENTRO =        -0.00000000
  eigenvalues    EBANDS =     -2728.29933232
  atomic energy  EATOM  =     11474.21860345
  ---------------------------------------------------
  free energy    TOTEN  =      -458.28632427 eV

  energy without entropy =     -458.28632427  energy(sigma->0) =     -458.28632427
  exchange ACFDT corr.  =        -0.00000000  see jH, gK, PRB 81, 115126


--------------------------------------------------------------------------------------------------------




--------------------------------------- Iteration      1(  23)  ---------------------------------------


    POTLOK:  cpu time      0.4274: real time      0.4289
    SETDIJ:  cpu time      0.4980: real time      0.4994
    TRIAL :  cpu time     17.2902: real time     17.5096
    CORREC:  cpu time     17.5072: real time     17.6378
    CHARGE:  cpu time      0.1402: real time      0.1439
    --------------------------------------------
      LOOP:  cpu time     35.8652: real time     36.2277

 eigenvalue-minimisations  :     0
 total energy-change (2. order) :-0.1705451E-04  (-0.8455552E-05)
 number of electron     221.9999989 magnetization 
 augmentation part       14.2952590 magnetization 

 Free energy of the ion-electron system (eV)
  ---------------------------------------------------
  alpha Z        PSCENC =       171.49134797
  Ewald energy   TEWEN  =      9959.13138061
  -Hartree energ DENC   =    -20529.60570697
  -exchange      EXHF   =       543.04498523
  -V(xc)+E(xc)   XCENC  =       453.16684290
  PAW double counting   =     19774.73987846   -19576.12136676
  entropy T*S    EENTRO =        -0.00000000
  eigenvalues    EBANDS =     -2728.35230621
  atomic energy  EATOM  =     11474.21860345
  ---------------------------------------------------
  free energy    TOTEN  =      -458.28634133 eV

  energy without entropy =     -458.28634133  energy(sigma->0) =     -458.28634133
  exchange ACFDT corr.  =        -0.00000000  see jH, gK, PRB 81, 115126


--------------------------------------------------------------------------------------------------------




--------------------------------------- Iteration      1(  24)  ---------------------------------------


    POTLOK:  cpu time      0.4327: real time      0.4338
    SETDIJ:  cpu time      0.4986: real time      0.5002
    TRIAL :  cpu time     17.1315: real time     17.2029
    CORREC:  cpu time     17.5998: real time     17.9248
    EDDIAG:  cpu time     16.5853: real time     16.6421
    CHARGE:  cpu time      0.1221: real time      0.1228
    --------------------------------------------
      LOOP:  cpu time     52.3709: real time     52.8347

 eigenvalue-minimisations  :     0
 total energy-change (2. order) :-0.8296431E-05  (-0.2926543E-05)
 number of electron     221.9999989 magnetization 
 augmentation part       14.2953025 magnetization 

 Free energy of the ion-electron system (eV)
  ---------------------------------------------------
  alpha Z        PSCENC =       171.49134797
  Ewald energy   TEWEN  =      9959.13138061
  -Hartree energ DENC   =    -20529.55054991
  -exchange      EXHF   =       543.04303123
  -V(xc)+E(xc)   XCENC  =       453.16484811
  PAW double counting   =     19774.43854908   -19575.82024505
  entropy T*S    EENTRO =        -0.00000000
  eigenvalues    EBANDS =     -2728.40350119
  atomic energy  EATOM  =     11474.21860345
  ---------------------------------------------------
  free energy    TOTEN  =      -458.28634963 eV

  energy without entropy =     -458.28634963  energy(sigma->0) =     -458.28634963
  exchange ACFDT corr.  =        -0.00000000  see jH, gK, PRB 81, 115126


--------------------------------------------------------------------------------------------------------


  average scaling for gradient   0.7454


 average (electrostatic) potential at core
  the test charge radii are     0.6991  0.5201  0.7215  1.0714
  (the norm of the test charge is              1.0000)
       1 -56.2450       2 -53.2094       3 -54.2608       4 -52.7003       5 -56.2447
       6 -53.2094       7 -54.2610       8 -52.7004       9 -56.2444      10 -53.2091
      11 -54.2608      12 -52.7000      13 -56.2446      14 -53.2093      15 -54.2608
      16 -52.7001      17 -56.2449      18 -53.2095      19 -54.2608      20 -52.7001
      21 -56.2450      22 -53.2093      23 -54.2606      24 -52.7001      25 -36.1364
      26 -36.1370      27 -36.1361      28 -36.1365      29 -36.1370      30 -36.1367
      31 -72.8971      32 -72.6364      33 -72.0696      34 -72.8973      35 -72.6356
      36 -72.0696      37 -72.8968      38 -72.6358      39 -72.0697      40 -72.8967
      41 -72.6360      42 -72.0697      43 -72.8968      44 -72.6365      45 -72.0694
      46 -72.8971      47 -72.6362      48 -72.0692      49 -38.8013      50 -38.8015
      51 -38.8015      52 -38.8013      53 -38.8011      54 -38.8012
 
 
 
 E-fermi :  -2.5569     XC(G=0):  -3.6422     alpha+bet : -3.6057

 Fermi energy:        -2.5569091983

 k-point     1 :       0.0000    0.0000    0.0000
  band No.  band energies     occupation 
      1     -27.1573      2.00000
      2     -27.1519      2.00000
      3     -27.0139      2.00000
      4     -27.0139      2.00000
      5     -27.0091      2.00000
      6     -27.0090      2.00000
      7     -24.8343      2.00000
      8     -24.8153      2.00000
      9     -24.7836      2.00000
     10     -24.7832      2.00000
     11     -24.7424      2.00000
     12     -24.7421      2.00000
     13     -24.5003      2.00000
     14     -24.5002      2.00000
     15     -24.4830      2.00000
     16     -24.4755      2.00000
     17     -24.4754      2.00000
     18     -24.4399      2.00000
     19     -20.4892      2.00000
     20     -20.4384      2.00000
     21     -20.4383      2.00000
     22     -18.5769      2.00000
     23     -18.5272      2.00000
     24     -18.5269      2.00000
     25     -17.0880      2.00000
     26     -16.9845      2.00000
     27     -16.9844      2.00000
     28     -15.7923      2.00000
     29     -15.7775      2.00000
     30     -15.7773      2.00000
     31     -13.8450      2.00000
     32     -13.8221      2.00000
     33     -13.8220      2.00000
     34     -13.5790      2.00000
     35     -13.4534      2.00000
     36     -13.4533      2.00000
     37     -13.2226      2.00000
     38     -12.5370      2.00000
     39     -12.5369      2.00000
     40     -11.7069      2.00000
     41     -11.7069      2.00000
     42     -11.7036      2.00000
     43     -11.7035      2.00000
     44     -11.6151      2.00000
     45     -11.3861      2.00000
     46     -11.1522      2.00000
     47     -11.0852      2.00000
     48     -11.0852      2.00000
     49     -10.9662      2.00000
     50     -10.9661      2.00000
     51     -10.7465      2.00000
     52     -10.4282      2.00000
     53     -10.4280      2.00000
     54     -10.3319      2.00000
     55     -10.2078      2.00000
     56     -10.2077      2.00000
     57     -10.1506      2.00000
     58      -9.9458      2.00000
     59      -9.9458      2.00000
     60      -9.7847      2.00000
     61      -9.7846      2.00000
     62      -9.7349      2.00000
     63      -9.5786      2.00000
     64      -9.0383      2.00000
     65      -9.0383      2.00000
     66      -8.9400      2.00000
     67      -8.8868      2.00000
     68      -8.8864      2.00000
     69      -8.8449      2.00000
     70      -8.6097      2.00000
     71      -8.5395      2.00000
     72      -8.5393      2.00000
     73      -8.2540      2.00000
     74      -8.2539      2.00000
     75      -8.0885      2.00000
     76      -7.8355      2.00000
     77      -7.8085      2.00000
     78      -7.8083      2.00000
     79      -7.3401      2.00000
     80      -7.0749      2.00000
     81      -7.0748      2.00000
     82      -6.9408      2.00000
     83      -6.9099      2.00000
     84      -6.9098      2.00000
     85      -6.5490      2.00000
     86      -6.5489      2.00000
     87      -6.3295      2.00000
     88      -6.3295      2.00000
     89      -6.1652      2.00000
     90      -6.0806      2.00000
     91      -5.9368      2.00000
     92      -5.9368      2.00000
     93      -5.9353      2.00000
     94      -5.9352      2.00000
     95      -5.8113      2.00000
     96      -5.7977      2.00000
     97      -5.7100      2.00000
     98      -5.7100      2.00000
     99      -5.6148      2.00000
    100      -5.3095      2.00000
    101      -5.3094      2.00000
    102      -5.1394      2.00000
    103      -5.0412      2.00000
    104      -5.0412      2.00000
    105      -4.9250      2.00000
    106      -4.7245      2.00000
    107      -4.7243      2.00000
    108      -4.6731      2.00000
    109      -3.1648      2.00000
    110      -3.1647      2.00000
    111      -3.0199      2.00000
    112       0.4512      0.00000
    113       0.4512      0.00000
    114       0.4845      0.00000
    115       1.8930      0.00000
    116       2.4077      0.00000
    117       2.4077      0.00000
    118       2.4629      0.00000
    119       2.5022      0.00000
    120       2.5023      0.00000
    121       2.5115      0.00000
    122       2.6198      0.00000
    123       2.8412      0.00000
    124       2.8416      0.00000
    125       2.9041      0.00000
    126       2.9043      0.00000
    127       3.4858      0.00000
    128       4.0808      0.00000
    129       4.0808      0.00000
    130       4.3647      0.00000
    131       4.3648      0.00000
    132       4.5245      0.00000
    133       4.6751      0.00000
    134       4.7318      0.00000
    135       4.7319      0.00000
    136       4.7444      0.00000
    137       4.9304      0.00000
    138       4.9305      0.00000
    139       5.0762      0.00000
    140       5.1269      0.00000
    141       5.1274      0.00000
    142       5.2168      0.00000
    143       5.4588      0.00000
    144       5.4589      0.00000
    145       5.8222      0.00000
    146       5.9142      0.00000
    147       5.9448      0.00000
    148       5.9499      0.00000
    149       6.0317      0.00000
    150       6.0329      0.00000
    151       6.0797      0.00000
    152       6.2191      0.00000
    153       6.2239      0.00000
    154       6.5512      0.00000
    155       6.7077      0.00000
    156       6.7270      0.00000
    157       7.3793      0.00000
    158       7.4667      0.00000
    159       7.4774      0.00000
    160       7.6857      0.00000


--------------------------------------------------------------------------------------------------------


 soft charge-density along one line, spin component           1
         0         1         2         3         4         5         6         7         8         9
 total charge-density along one line
 
 pseudopotential strength for first ion, spin component:           1
 10.043  13.352   0.003   0.001  -0.000  -0.011  -0.004   0.000
 13.352  17.750   0.004   0.001   0.000  -0.014  -0.005   0.000
  0.003   0.004  -4.333   0.007  -0.000   8.499  -0.014   0.000
  0.001   0.001   0.007  -4.342  -0.002  -0.014   8.517   0.006
 -0.000   0.000  -0.000  -0.002  -4.360   0.000   0.006   8.565
 -0.011  -0.014   8.499  -0.014   0.000 -18.801   0.029   0.000
 -0.004  -0.005  -0.014   8.517   0.006   0.029 -18.834  -0.017
  0.000   0.000   0.000   0.006   8.565   0.000  -0.017 -18.956
 total augmentation occupancy for first ion, spin component:           1
  8.341  -3.930   0.425   0.246  -0.015   0.100   0.056  -0.003
 -3.930   2.026  -0.348  -0.176   0.012  -0.065  -0.036   0.002
  0.425  -0.348   1.765   0.005   0.029   0.167  -0.014   0.006
  0.246  -0.176   0.005   1.845  -0.129  -0.014   0.200  -0.021
 -0.015   0.012   0.029  -0.129   1.026   0.007  -0.021   0.075
  0.100  -0.065   0.167  -0.014   0.007   0.019  -0.003   0.001
  0.056  -0.036  -0.014   0.200  -0.021  -0.003   0.026  -0.003
 -0.003   0.002   0.006  -0.021   0.075   0.001  -0.003   0.006


------------------------ aborting loop because EDIFF is reached ----------------------------------------


    FORLOC:  cpu time      0.0534: real time      0.0535
    FORHF :  cpu time      9.3416: real time      9.3736
    FORNL :  cpu time      0.7415: real time      0.7437
    FORCOR:  cpu time      0.9536: real time      0.9565
    OFIELD:  cpu time      0.0010: real time      0.0010
 WARNING: Using user supplied parameters
     VDW_S8 = 1.703
     VDW_SR = 1.261
     because the xc functional is not supported. Required parameters not
     defined in the INCAR file will be replaced with PBE defaults ones.


 ---------------------------------------------------------------------------------------------

         DFTD3 V3.0 Rev 1        
 IVDW         = 11
 DF unknown   
 parameters
 VDW_S6       =    1.0000
 VDW_S8       =    1.7030
 VDW_SR       =    1.2610
 rs18     =    1.0000
 alpha6   =   14.0000
 alpha8   =   16.0000
 k1-k3    =   16.0000    1.3333   -4.0000
 VDW_RADIUS   =   50.2022 A
 VDW_CNRADIUS =   21.1671 A
 Edisp (eV)   -3.90610

 E6    (eV) :    -1.1180
 E8    (eV) :    -2.7881
 % E8        : 71.38
    FORVDW:  cpu time      0.5809: real time      0.5824

 VOLUME and BASIS-vectors are now :
 -----------------------------------------------------------------------------
  energy-cutoff  :      400.00
  volume of cell :     1371.39
      direct lattice vectors                 reciprocal lattice vectors
    15.258013385  0.006374814  0.024579381     0.065314117  0.034130566  0.130953070
    -7.105142985 13.502791256  0.024499078    -0.000241744  0.073693958  0.130953351
    -7.105097270-11.773071197  6.612175988    -0.000241896 -0.000399920  0.150264152

  length of vectors
    15.258034514 15.258080769 15.258062915     0.150264886  0.150265226  0.150264879


 FORCES acting on ions:
    Electron-Ion                     Ewald-Force                    Non-Local-Force
 -----------------------------------------------------------------------------------------------
   0.367E+02 0.139E+03 -.166E+02   -.366E+02 -.144E+03 0.147E+02   -.147E+00 0.587E+01 0.194E+01
   0.878E+01 0.435E+02 -.370E+02   -.890E+01 -.450E+02 0.364E+02   0.956E-01 0.125E+01 0.450E+00
   -.320E+02 0.808E+02 -.526E+01   0.315E+02 -.854E+02 0.832E+01   0.481E+00 0.423E+01 -.281E+01
   -.518E+02 0.227E+02 0.110E+03   0.525E+02 -.226E+02 -.112E+03   -.587E+00 -.943E-01 0.211E+01
   -.131E+03 -.277E+02 0.532E+02   0.135E+03 0.297E+02 -.577E+02   -.362E+01 -.207E+01 0.456E+01
   -.537E+02 -.183E+02 -.110E+02   0.546E+02 0.187E+02 0.976E+01   -.816E+00 -.321E+00 0.100E+01
   -.498E+02 -.624E+02 0.348E+02   0.549E+02 0.645E+02 -.344E+02   -.470E+01 -.193E+01 -.393E+00
   0.540E+02 -.302E+02 0.107E+03   -.553E+02 0.301E+02 -.109E+03   0.126E+01 -.247E-02 0.179E+01
   0.106E+03 -.928E+02 0.329E+02   -.111E+03 0.942E+02 -.358E+02   0.526E+01 -.133E+01 0.296E+01
   0.344E+02 -.425E+02 -.186E+02   -.357E+02 0.429E+02 0.176E+02   0.106E+01 -.363E+00 0.718E+00
   0.864E+02 -.107E+02 -.482E-01   -.902E+02 0.145E+02 0.146E+01   0.351E+01 -.346E+01 -.129E+01
   0.443E+02 0.843E+02 0.785E+02   -.445E+02 -.860E+02 -.802E+02   0.188E+00 0.152E+01 0.156E+01
   -.367E+02 -.139E+03 0.166E+02   0.366E+02 0.144E+03 -.147E+02   0.147E+00 -.587E+01 -.194E+01
   -.881E+01 -.435E+02 0.370E+02   0.893E+01 0.450E+02 -.364E+02   -.963E-01 -.125E+01 -.450E+00
   0.320E+02 -.808E+02 0.528E+01   -.315E+02 0.854E+02 -.834E+01   -.481E+00 -.423E+01 0.281E+01
   0.518E+02 -.228E+02 -.110E+03   -.525E+02 0.226E+02 0.112E+03   0.588E+00 0.965E-01 -.211E+01
   0.131E+03 0.276E+02 -.532E+02   -.135E+03 -.297E+02 0.577E+02   0.362E+01 0.207E+01 -.456E+01
   0.537E+02 0.183E+02 0.110E+02   -.546E+02 -.187E+02 -.975E+01   0.816E+00 0.322E+00 -.100E+01
   0.498E+02 0.624E+02 -.348E+02   -.548E+02 -.645E+02 0.344E+02   0.470E+01 0.193E+01 0.391E+00
   -.540E+02 0.302E+02 -.107E+03   0.553E+02 -.302E+02 0.109E+03   -.126E+01 0.231E-02 -.179E+01
   -.106E+03 0.928E+02 -.329E+02   0.111E+03 -.942E+02 0.358E+02   -.526E+01 0.133E+01 -.296E+01
   -.344E+02 0.425E+02 0.186E+02   0.357E+02 -.429E+02 -.177E+02   -.106E+01 0.363E+00 -.718E+00
   -.864E+02 0.107E+02 0.285E-01   0.902E+02 -.145E+02 -.144E+01   -.352E+01 0.346E+01 0.129E+01
   -.443E+02 -.843E+02 -.785E+02   0.444E+02 0.860E+02 0.802E+02   -.191E+00 -.152E+01 -.156E+01
   -.293E+02 0.910E+01 0.590E+02   0.299E+02 -.997E+01 -.647E+02   -.563E+00 0.895E+00 0.578E+01
   0.321E+02 -.162E+02 0.559E+02   -.342E+02 0.158E+02 -.613E+02   0.207E+01 0.452E+00 0.548E+01
   0.217E+02 0.477E+02 0.409E+02   -.227E+02 -.506E+02 -.458E+02   0.105E+01 0.289E+01 0.500E+01
   0.293E+02 -.910E+01 -.590E+02   -.299E+02 0.997E+01 0.647E+02   0.564E+00 -.896E+00 -.578E+01
   -.321E+02 0.162E+02 -.559E+02   0.342E+02 -.158E+02 0.613E+02   -.207E+01 -.451E+00 -.548E+01
   -.217E+02 -.477E+02 -.409E+02   0.227E+02 0.506E+02 0.458E+02   -.105E+01 -.289E+01 -.500E+01
   -.560E+01 -.263E+02 0.514E+02   0.967E+01 0.540E+02 -.734E+02   -.367E+01 -.249E+02 0.199E+02
   0.180E+03 0.130E+03 -.272E+03   -.189E+03 -.136E+03 0.315E+03   0.747E+01 0.471E+01 -.392E+02
   -.123E+03 0.682E+02 0.102E+03   0.129E+03 -.476E+02 -.125E+03   -.581E+01 -.184E+02 0.201E+02
   0.452E+02 0.175E+02 0.320E+02   -.779E+02 -.301E+02 -.377E+02   0.295E+02 0.114E+02 0.522E+01
   -.302E+03 0.447E+02 -.174E+03   0.329E+03 -.400E+02 0.209E+03   -.240E+02 -.423E+01 -.319E+02
   0.487E+02 -.113E+03 0.122E+03   -.773E+02 0.106E+03 -.132E+03   0.256E+02 0.691E+01 0.861E+01
   -.207E+02 0.402E+02 0.364E+02   0.432E+02 -.653E+02 -.476E+02   -.203E+02 0.227E+02 0.101E+02
   0.313E+02 -.325E+03 -.130E+03   -.321E+02 0.355E+03 0.163E+03   0.685E+00 -.268E+02 -.299E+02
   0.118E+03 0.117E+03 0.514E+02   -.102E+03 -.141E+03 -.636E+02   -.135E+02 0.218E+02 0.109E+02
   0.558E+01 0.263E+02 -.514E+02   -.964E+01 -.540E+02 0.734E+02   0.367E+01 0.249E+02 -.199E+02
   -.180E+03 -.130E+03 0.272E+03   0.189E+03 0.136E+03 -.315E+03   -.747E+01 -.471E+01 0.392E+02
   0.123E+03 -.682E+02 -.102E+03   -.129E+03 0.476E+02 0.125E+03   0.581E+01 0.184E+02 -.201E+02
   -.452E+02 -.173E+02 -.320E+02   0.779E+02 0.300E+02 0.378E+02   -.295E+02 -.114E+02 -.522E+01
   0.302E+03 -.448E+02 0.174E+03   -.329E+03 0.401E+02 -.209E+03   0.241E+02 0.421E+01 0.319E+02
   -.486E+02 0.113E+03 -.122E+03   0.773E+02 -.105E+03 0.132E+03   -.256E+02 -.691E+01 -.860E+01
   0.207E+02 -.401E+02 -.364E+02   -.432E+02 0.652E+02 0.476E+02   0.203E+02 -.227E+02 -.101E+02
   -.313E+02 0.325E+03 0.130E+03   0.321E+02 -.355E+03 -.163E+03   -.693E+00 0.268E+02 0.299E+02
   -.118E+03 -.117E+03 -.514E+02   0.102E+03 0.141E+03 0.636E+02   0.135E+02 -.218E+02 -.109E+02
   -.800E+02 0.171E+02 0.265E+01   0.784E+02 -.168E+02 -.300E+01   0.193E+01 -.401E+00 0.407E+00
   0.252E+02 -.771E+02 0.106E+02   -.249E+02 0.755E+02 -.108E+02   -.412E+00 0.196E+01 0.161E+00
   0.524E+02 0.561E+02 -.283E+02   -.513E+02 -.552E+02 0.274E+02   -.125E+01 -.112E+01 0.110E+01
   0.800E+02 -.171E+02 -.265E+01   -.784E+02 0.168E+02 0.300E+01   -.193E+01 0.402E+00 -.408E+00
   -.252E+02 0.771E+02 -.107E+02   0.249E+02 -.755E+02 0.108E+02   0.412E+00 -.196E+01 -.160E+00
   -.524E+02 -.561E+02 0.284E+02   0.514E+02 0.552E+02 -.274E+02   0.125E+01 0.113E+01 -.110E+01
 -----------------------------------------------------------------------------------------------
   0.453E-02 -.142E-01 -.468E-02   0.142E-13 0.242E-12 0.320E-13   -.428E-02 0.139E-01 0.406E-02
 
 
 POSITION                                       TOTAL-FORCE (eV/Angst)
 -----------------------------------------------------------------------------------
      7.59511      2.64755      1.18809        -0.035316      0.327597      0.173120
      7.63873      1.30894      0.54329        -0.022228     -0.180337     -0.116352
     -6.43784      2.86224      5.76282        -0.017628     -0.167778      0.112894
     -6.45160      1.54590      5.28467         0.007222      0.064276     -0.064674
     -5.07078      5.91373      2.32906        -0.159099     -0.124436      0.314418
     -4.33584      6.35007      1.11298         0.096448      0.026368     -0.192022
      3.27899     -5.54896      6.42675         0.186887      0.078528      0.015049
      4.09541     -5.13451      5.36685        -0.081235     -0.034838     -0.021524
     -1.19743     -6.36168      4.91918         0.306829     -0.020742      0.211439
     -2.40204     -6.16560      4.07077        -0.148543      0.032289     -0.153120
      5.53246      6.62037      2.90060        -0.141857      0.138146      0.051916
      4.37425      6.93301      2.17788         0.050061     -0.060858     -0.039121
     -6.54734     -0.91088      5.47311         0.035542     -0.327944     -0.172954
     -6.59084      0.42773      6.11788         0.021697      0.179072      0.117199
      7.48575     -1.12559      0.89836         0.017713      0.168950     -0.113318
      7.49946      0.19072      1.37651        -0.006707     -0.060757      0.062721
      6.11852     -4.17693      4.33219         0.163287      0.125392     -0.310014
      5.38356     -4.61337      5.54826        -0.095909     -0.025818      0.193346
     -2.23129      7.28571      0.23459        -0.185375     -0.077611     -0.019089
     -3.04766      6.87118      1.29440         0.081078      0.034633      0.022883
      2.24508      8.09818      1.74212        -0.305168      0.020599     -0.210740
      3.44979      7.90210      2.59056         0.149192     -0.033124      0.153187
     -4.48465     -4.88386      3.76077         0.138402     -0.136132     -0.053767
     -3.32642     -5.19653      4.48345        -0.054931      0.063390      0.037593
     -6.34631      1.38326      4.21249        -0.041642      0.098389      0.278549
      3.70895     -5.21906      4.35174         0.062439     -0.013882      0.288975
      4.18117      6.39460      1.25052         0.107357      0.127783      0.248206
      7.39408      0.35351      2.44864         0.041695     -0.099227     -0.277585
     -2.66112      6.95567      2.30948        -0.062965      0.013896     -0.288565
     -3.13344     -4.65798      5.41066        -0.106056     -0.127385     -0.245884
      7.76122      3.68660      0.43750        -0.086358     -0.389317      0.343772
      7.40383      2.77061      2.43852         0.158948      0.092678     -0.580504
     -6.30653      3.87970      4.88258        -0.051233     -0.071138      0.052392
     -6.27463      5.46731      2.18121         0.485459      0.158801      0.107989
     -4.53666      5.97898      3.48050        -0.396462     -0.029392     -0.461219
      2.05194     -6.04679      6.15509         0.102044     -0.004628      0.011581
     -0.35557     -7.27894      4.57230        -0.302086      0.388900      0.170847
     -0.99934     -5.65370      5.95586         0.007533     -0.441271     -0.414107
      6.37140      5.67555      2.42043        -0.035833      0.091638      0.007337
     -6.71344     -1.94995      6.22364         0.086273      0.389165     -0.341189
     -6.35615     -1.03396      4.22271        -0.158359     -0.092543      0.577805
      7.35449     -2.14299      1.77856         0.051014      0.068454     -0.050631
      7.32258     -3.73083      4.48014        -0.490821     -0.159891     -0.109699
      5.58434     -4.24178      3.18082         0.395836      0.028823      0.459322
     -1.00428      7.78374      0.50622        -0.103042      0.003186     -0.011287
      1.40320      9.01549      2.08911         0.304537     -0.393694     -0.174647
      2.04712      7.39009      0.70540        -0.008943      0.445587      0.418055
     -5.32367     -3.93889      4.24083         0.040639     -0.095367     -0.007590
      1.51449     -7.74281      5.18874        -0.006713      0.041542      0.004170
      7.51420      5.67007      0.74920        -0.026767     -0.021732      0.023987
     -7.55659      4.51281      3.42128         0.039338     -0.008320      0.010634
     -0.46680      9.47956      1.47260         0.006992     -0.040860     -0.005066
     -6.46642     -3.93339      5.91213         0.026176      0.021433     -0.024394
      8.60443     -2.77629      3.23998        -0.039361      0.009506     -0.010323
 -----------------------------------------------------------------------------------
    total drift:                               -0.000055      0.000375      0.000107


--------------------------------------------------------------------------------------------------------



  FREE ENERGIE OF THE ION-ELECTRON SYSTEM (eV)
  ---------------------------------------------------
  free  energy   TOTEN  =      -462.19245404 eV

  energy  without entropy=     -462.19245404  energy(sigma->0) =     -462.19245404
 


--------------------------------------------------------------------------------------------------------


    POTLOK:  cpu time      0.9337: real time      0.9867


--------------------------------------------------------------------------------------------------------


 writing wavefunctions
     LOOP+:  cpu time    856.4329: real time    863.7427
    4ORBIT:  cpu time      0.0000: real time      0.0000

 total amount of memory used by VASP MPI-rank0  1218127. kBytes
=======================================================================

   base      :      30000. kBytes
   nonlr-proj:      45210. kBytes
   fftplans  :      10913. kBytes
   grid      :      54672. kBytes
   one-center:        219. kBytes
   HF        :        135. kBytes
   wavefun   :       2433. kBytes
   fock_wrk  :    1074545. kBytes
 
  
  
 General timing and accounting informations for this job:
 ========================================================
  
                  Total CPU time used (sec):      866.270
                            User time (sec):      806.707
                          System time (sec):       59.563
                         Elapsed time (sec):      874.275
  
                   Maximum memory used (kb):     2607168.
                   Average memory used (kb):          N/A
  
                          Minor page faults:      3852663
                          Major page faults:            2
                 Voluntary context switches:        11392
