 vasp.6.3.2 27Jun22 (build Jul 28 2023 19:28:36) gamma-only                     
  
 executed on             LinuxIFC date 2024.06.09  14:25:26
 running on   40 total cores
 distrk:  each k-point on   40 cores,    1 groups
 distr:  one band on NCORE=   1 cores,   40 groups


--------------------------------------------------------------------------------------------------------


 INCAR:
   SYSTEM = CO2
   ISTART = 0
   ICHARG = 2
   ISMEAR = 0
   SIGMA = 0.1
   ENCUT = 1000.0
   ENAUG = 644.9
   PREC = Accurate
   GGA = ML
   AGGAC = 0.0
   LUSE_VDW = .TRUE.
   ZAB_VDW = -1.8867
   LASPH = .TRUE.
   LUSE_VDW = .TRUE.
   EDIFF = 1E-7
   NELM = 500
   ALGO = All
   TIME = 0.05
   LREAL = Auto
   LWAVE = .TRUE.
   LCHARG = .TRUE.
   NWRITE = 1

 POTCAR:    PAW_PBE C 08Apr2002                   
 POTCAR:    PAW_PBE O 08Apr2002                   
 -----------------------------------------------------------------------------
|                                                                             |
|           W    W    AA    RRRRR   N    N  II  N    N   GGGG   !!!           |
|           W    W   A  A   R    R  NN   N  II  NN   N  G    G  !!!           |
|           W    W  A    A  R    R  N N  N  II  N N  N  G       !!!           |
|           W WW W  AAAAAA  RRRRR   N  N N  II  N  N N  G  GGG   !            |
|           WW  WW  A    A  R   R   N   NN  II  N   NN  G    G                |
|           W    W  A    A  R    R  N    N  II  N    N   GGGG   !!!           |
|                                                                             |
|     For optimal performance we recommend to set                             |
|       NCORE = 2 up to number-of-cores-per-socket                            |
|     NCORE specifies how many cores store one orbital (NPAR=cpu/NCORE).      |
|     This setting can greatly improve the performance of VASP for DFT.       |
|     The default, NCORE=1 might be grossly inefficient on modern             |
|     multi-core architectures or massively parallel machines. Do your        |
|     own testing! More info at https://www.vasp.at/wiki/index.php/NCORE      |
|     Unfortunately you need to use the default for GW and RPA                |
|     calculations (for HF NCORE is supported but not extensively tested      |
|     yet).                                                                   |
|                                                                             |
 -----------------------------------------------------------------------------

 -----------------------------------------------------------------------------
|                                                                             |
|               ----> ADVICE to this user running VASP <----                  |
|                                                                             |
|     You have switched on vdW-DFT.                                           |
|     This routine was written and supplied by Jiri Klimes. We recommend      |
|     that you carefully read and cite the following publications:            |
|       J. Klimes, D.R. Bowler, A. Michelides                                 |
|          J. Phys.: Cond Matt. 22 022201 (2010)                              |
|       J. Klimes, D.R. Bowler, A. Michelides                                 |
|          Phys. Rev. B. 83, 195131 (2011)                                    |
|     and references therein.                                                 |
|                                                                             |
 -----------------------------------------------------------------------------

 POTCAR:    PAW_PBE C 08Apr2002                   
  local pseudopotential read in
  partial core-charges read in
  partial kinetic energy density read in
  atomic valenz-charges read in
  non local Contribution for L=           0  read in
    real space projection operators read in
  non local Contribution for L=           0  read in
    real space projection operators read in
  non local Contribution for L=           1  read in
    real space projection operators read in
  non local Contribution for L=           1  read in
    real space projection operators read in
    PAW grid and wavefunctions read in
 
   number of l-projection  operators is LMAX  =           4
   number of lm-projection operators is LMMAX =           8
 
 POTCAR:    PAW_PBE O 08Apr2002                   
  local pseudopotential read in
  partial core-charges read in
  partial kinetic energy density read in
  kinetic energy density of atom read in
  atomic valenz-charges read in
  non local Contribution for L=           0  read in
    real space projection operators read in
  non local Contribution for L=           0  read in
    real space projection operators read in
  non local Contribution for L=           1  read in
    real space projection operators read in
  non local Contribution for L=           1  read in
    real space projection operators read in
    PAW grid and wavefunctions read in
 
   number of l-projection  operators is LMAX  =           4
   number of lm-projection operators is LMMAX =           8
 
 -----------------------------------------------------------------------------
|                                                                             |
|               ----> ADVICE to this user running VASP <----                  |
|                                                                             |
|     You have a (more or less) 'small supercell' and for smaller cells       |
|     it is recommended to use the reciprocal-space projection scheme!        |
|     The real-space optimization is not efficient for small cells and it     |
|     is also less accurate ...                                               |
|     Therefore, set LREAL=.FALSE. in the INCAR file.                         |
|                                                                             |
 -----------------------------------------------------------------------------

 Optimization of the real space projectors (new method)

 maximal supplied QI-value         = 25.13
 optimisation between [QCUT,QGAM] = [ 16.09, 32.17] = [ 72.45,289.82] Ry 
 Optimized for a Real-space Cutoff    0.98 Angstroem

   l    n(q)    QCUT    max X(q) W(low)/X(q) W(high)/X(q)  e(spline) 
   0      9    16.085   115.676    0.97E-04    0.82E-04    0.14E-06
   0      9    16.085    87.132    0.96E-04    0.82E-04    0.14E-06
   1      9    16.085     4.429    0.14E-03    0.12E-03    0.10E-06
   1      9    16.085     2.733    0.11E-03    0.89E-04    0.96E-07
 Optimization of the real space projectors (new method)

 maximal supplied QI-value         = 24.76
 optimisation between [QCUT,QGAM] = [ 16.09, 32.18] = [ 72.51,290.02] Ry 
 Optimized for a Real-space Cutoff    0.95 Angstroem

   l    n(q)    QCUT    max X(q) W(low)/X(q) W(high)/X(q)  e(spline) 
   0      9    16.091    20.381    0.21E-03    0.16E-03    0.13E-06
   0      9    16.091    15.268    0.23E-03    0.17E-03    0.14E-06
   1      9    16.091     5.964    0.15E-03    0.23E-03    0.12E-06
   1      9    16.091     5.382    0.12E-03    0.19E-03    0.11E-06
 -----------------------------------------------------------------------------
|                                                                             |
|               ----> ADVICE to this user running VASP <----                  |
|                                                                             |
|     You enforced a specific xc type in the INCAR file but a different       |
|     type was found in the POTCAR file.                                      |
|     I HOPE YOU KNOW WHAT YOU ARE DOING!                                     |
|                                                                             |
 -----------------------------------------------------------------------------

  PAW_PBE C 08Apr2002                   :
 energy of atom  1       EATOM= -147.1560
 kinetic energy error for atom=    0.0010 (will be added to EATOM!!)
  PAW_PBE O 08Apr2002                   :
 energy of atom  2       EATOM= -432.3788
 kinetic energy error for atom=    0.0022 (will be added to EATOM!!)
 
 
 POSCAR:  C  O
  positions in direct lattice
  No initial velocities read in
 exchange correlation table for  LEXCH =       44
   RHO(1)=    0.500       N(1)  =     2000
   RHO(2)=  100.500       N(2)  =     4000
 


--------------------------------------------------------------------------------------------------------


 ion  position               nearest neighbor table
   1  0.295  0.941  0.220-   2 1.17   3 1.18
   2  0.310  0.006  0.317-   1 1.17
   3  0.278  0.875  0.120-   1 1.18
 
  LATTYP: Found a triclinic cell.
 ALAT       =     6.9679572149
 B/A-ratio  =     2.7504675943
 C/A-ratio  =     2.7511537689
 COS(alpha) =     0.0491667510
 COS(beta)  =     0.6051360705
 COS(gamma) =     0.6058719102
  
  Lattice vectors:
  
 A1 = (   1.0701000163,   1.7447551173,   6.6605662885)
 A2 = (   9.3230348441,  15.3801493263,   6.6207732983)
 A3 = ( -13.2990177192,   3.4850444028,  13.3595094686)


Analysis of symmetry for initial positions (statically):
=====================================================================
 Subroutine PRICEL returns:
 Original cell was already a primitive cell.
 

 Routine SETGRP: Setting up the symmetry group for a 
 triclinic supercell.


 Subroutine GETGRP returns: Found  1 space group operations
 (whereof  1 operations were pure point group operations)
 out of a pool of  2 trial point group operations.


The static configuration has the point symmetry C_1 .


Analysis of symmetry for dynamics (positions and initial velocities):
=====================================================================
 Subroutine PRICEL returns:
 Original cell was already a primitive cell.
 

 Routine SETGRP: Setting up the symmetry group for a 
 triclinic supercell.


 Subroutine GETGRP returns: Found  1 space group operations
 (whereof  1 operations were pure point group operations)
 out of a pool of  2 trial point group operations.


The dynamic configuration has the point symmetry C_1 .


 Subroutine INISYM returns: Found  1 space group operations
 (whereof  1 operations are pure point group operations),
 and found     1 'primitive' translations


----------------------------------------------------------------------------------------

                                     Primitive cell                                     

  volume of cell :    1403.0148

  direct lattice vectors                    reciprocal lattice vectors
    15.439217752  0.004465832 -0.038376892     0.065085042  0.034326685  0.130688713
    -7.186282924 13.630928377 -0.001416099     0.000303919  0.073536393  0.130825479
    -7.182834812-11.890639092  6.700359279     0.000372844  0.000212151  0.150021909

  length of vectors
    15.439266094 15.409246337 15.423204220     0.149979744  0.150076646  0.150022522

  position of ions in fractional coordinates (direct lattice)
     0.295019501  0.941160170  0.219875959
     0.309634406  0.006275347  0.316899865
     0.277845133  0.874684412  0.119782242

  ion indices of the primitive-cell ions
   primitive index   ion index
                 1           1
                 2           2
                 3           3

----------------------------------------------------------------------------------------

 
 
 KPOINTS: KPOINTS                                 

Automatic generation of k-mesh.
 Grid dimensions read from file:
 generate k-points for:    1    1    1

 Generating k-lattice:

  Cartesian coordinates                     Fractional coordinates (reciprocal lattice)
     0.065085042  0.034326685  0.130688713     1.000000000  0.000000000 -0.000000000
     0.000303919  0.073536393  0.130825479     0.000000000  1.000000000  0.000000000
     0.000372844  0.000212151  0.150021909    -0.000000000  0.000000000  1.000000000

  Length of vectors
     0.149979744  0.150076646  0.150022522

  Shift w.r.t. Gamma in fractional coordinates (k-lattice)
     0.000000000  0.000000000  0.000000000

 
 Subroutine IBZKPT returns following result:
 ===========================================
 
 Found      1 irreducible k-points:
 
 Following reciprocal coordinates:
            Coordinates               Weight
  0.000000  0.000000  0.000000      1.000000
 
 Following cartesian coordinates:
            Coordinates               Weight
  0.000000  0.000000  0.000000      1.000000
 


--------------------------------------------------------------------------------------------------------




 Dimension of arrays:
   k-points           NKPTS =      1   k-points in BZ     NKDIM =      1   number of bands    NBANDS=     40
   number of dos      NEDOS =    301   number of ions     NIONS =      3
   non local maximal  LDIM  =      4   non local SUM 2l+1 LMDIM =      8
   total plane-waves  NPLWV = ******
   max r-space proj   IRMAX =  11655   max aug-charges    IRDMAX=  38071
   dimension x,y,z NGX =   160 NGY =  160 NGZ =  160
   dimension x,y,z NGXF=   320 NGYF=  320 NGZF=  320
   support grid    NGXF=   320 NGYF=  320 NGZF=  320
   ions per type =               1   2
   NGX,Y,Z   is equivalent  to a cutoff of  17.23, 17.26, 17.25 a.u.
   NGXF,Y,Z  is equivalent  to a cutoff of  34.46, 34.52, 34.49 a.u.

 SYSTEM =  CO2                                     
 POSCAR =   C  O                                   

 Startparameter for this run:
   NWRITE =      1    write-flag & timer
   PREC   = accura    normal or accurate (medium, high low for compatibility)
   ISTART =      0    job   : 0-new  1-cont  2-samecut
   ICHARG =      2    charge: 1-file 2-atom 10-const
   ISPIN  =      1    spin polarized calculation?
   LNONCOLLINEAR =      F non collinear calculations
   LSORBIT =      F    spin-orbit coupling
   INIWAV =      1    electr: 0-lowe 1-rand  2-diag
   LASPH  =      T    aspherical Exc in radial PAW
 Electronic Relaxation 1
   ENCUT  = 1000.0 eV  73.50 Ry    8.57 a.u.  39.81 39.73 39.77*2*pi/ulx,y,z
   ENINI  = 1000.0     initial cutoff
   ENAUG  =  644.9 eV  augmentation charge cutoff
   NELM   =    500;   NELMIN=  2; NELMDL= -5     # of ELM steps 
   EDIFF  = 0.1E-06   stopping-criterion for ELM
   LREAL  =      T    real-space projection
   NLSPLINE    = F    spline interpolate recip. space projectors
   LCOMPAT=      F    compatible to vasp.4.4
   GGA_COMPAT  = T    GGA compatible to vasp.4.4-vasp.4.6
   LMAXPAW     = -100 max onsite density
   LMAXMIX     =    2 max onsite mixed and CHGCAR
   VOSKOWN=      0    Vosko Wilk Nusair interpolation
   ROPT   =   -0.00025  -0.00025
 Ionic relaxation
   EDIFFG = 0.1E-05   stopping-criterion for IOM
   NSW    =      0    number of steps for IOM
   NBLOCK =      1;   KBLOCK =      1    inner block; outer block 
   IBRION =     -1    ionic relax: 0-MD 1-quasi-New 2-CG
   NFREE  =      0    steps in history (QN), initial steepest desc. (CG)
   ISIF   =      2    stress and relaxation
   IWAVPR =     10    prediction:  0-non 1-charg 2-wave 3-comb
   ISYM   =      2    0-nonsym 1-usesym 2-fastsym
   LCORR  =      T    Harris-Foulkes like correction to forces

   POTIM  = 0.5000    time-step for ionic-motion
   TEIN   =    0.0    initial temperature
   TEBEG  =    0.0;   TEEND  =   0.0 temperature during run
   SMASS  =  -3.00    Nose mass-parameter (am)
   estimated Nose-frequenzy (Omega)   =  0.10E-29 period in steps = 0.13E+47 mass=  -0.545E-26a.u.
   SCALEE = 1.0000    scale energy and forces
   NPACO  =    256;   APACO  = 10.0  distance and # of slots for P.C.
   PSTRESS=    0.0 pullay stress

  Mass of Ions in am
   POMASS =  12.01 16.00
  Ionic Valenz
   ZVAL   =   4.00  6.00
  Atomic Wigner-Seitz radii
   RWIGS  =  -1.00 -1.00
  virtual crystal weights 
   VCA    =   1.00  1.00
   NELECT =      16.0000    total number of electrons
   NUPDOWN=      -1.0000    fix difference up-down

 DOS related values:
   EMIN   =  10.00;   EMAX   =-10.00  energy-range for DOS
   EFERMI =   0.00
   ISMEAR =     0;   SIGMA  =   0.10  broadening in eV -4-tet -1-fermi 0-gaus

 Electronic relaxation 2 (details)
   IALGO  =     58    algorithm
   LDIAG  =      T    sub-space diagonalisation (order eigenvalues)
   LSUBROT=      F    optimize rotation matrix (better conditioning)
   TURBO    =      0    0=normal 1=particle mesh
   IRESTART =      0    0=no restart 2=restart with 2 vectors
   NREBOOT  =      0    no. of reboots
   NMIN     =      0    reboot dimension
   EREF     =   0.00    reference energy to select bands
   IMIX   =      4    mixing-type and parameters
     AMIX     =   0.40;   BMIX     =  1.00
     AMIX_MAG =   1.60;   BMIX_MAG =  1.00
     AMIN     =   0.10
     WC   =   100.;   INIMIX=   1;  MIXPRE=   1;  MAXMIX= -45

 Intra band minimization:
   WEIMIN = 0.0000     energy-eigenvalue tresh-hold
   EBREAK =  0.63E-09  absolut break condition
   DEPER  =   0.30     relativ break condition  

   TIME   =   0.05     timestep for ELM

  volume/ion in A,a.u.               =     467.67      3156.00
  Fermi-wavevector in a.u.,A,eV,Ry     =   0.368491  0.696348  1.847480  0.135786
  Thomas-Fermi vector in A             =   1.294397
 
 Write flags
   LWAVE        =      T    write WAVECAR
   LDOWNSAMPLE  =      F    k-point downsampling of WAVECAR
   LCHARG       =      T    write CHGCAR
   LVTOT        =      F    write LOCPOT, total local potential
   LVHAR        =      F    write LOCPOT, Hartree potential only
   LELF         =      F    write electronic localiz. function (ELF)
   LORBIT       =      0    0 simple, 1 ext, 2 COOP (PROOUT), +10 PAW based schemes


 Dipole corrections
   LMONO  =      F    monopole corrections only (constant potential shift)
   LDIPOL =      F    correct potential (dipole corrections)
   IDIPOL =      0    1-x, 2-y, 3-z, 4-all directions 
   EPSILON=  1.0000000 bulk dielectric constant

 Exchange correlation treatment:
   GGA     =    ML    GGA type
   LEXCH   =    44    internal setting for exchange type
   LIBXC   =     F    Libxc                    
   VOSKOWN =     0    Vosko Wilk Nusair interpolation
   LHFCALC =     F    Hartree Fock is set to
   LHFONE  =     F    Hartree Fock one center treatment
   AEXX    =    0.0000 exact exchange contribution

 vdW DFT:
   LUSE_VDW   =     T    switch on vdW DFT
   Zab_VDW    =******    correlation parameter
   PARAM1     =0.1234
   PARAM2     =1.0000
   PARAM3     =0.0000
   -- rVV10 --
   BPARAM     = 6.3000
   CPARAM     = 0.0093

 Linear response parameters
   LEPSILON=     F    determine dielectric tensor
   LRPA    =     F    only Hartree local field effects (RPA)
   LNABLA  =     F    use nabla operator in PAW spheres
   LVEL    =     F    velocity operator in full k-point grid
   CSHIFT  =0.1000    complex shift for real part using Kramers Kronig
   OMEGAMAX=  -1.0    maximum frequency
   DEG_THRESHOLD= 0.2000000E-02 threshold for treating states as degnerate
   RTIME   =   -0.100 relaxation time in fs
  (WPLASMAI=    0.000 imaginary part of plasma frequency in eV, 0.658/RTIME)
   DFIELD  = 0.0000000 0.0000000 0.0000000 field for delta impulse in time
 
  Optional k-point grid parameters
   LKPOINTS_OPT  =     F    use optional k-point grid
   KPOINTS_OPT_MODE=     1    mode for optional k-point grid
 
 Orbital magnetization related:
   ORBITALMAG=     F  switch on orbital magnetization
   LCHIMAG   =     F  perturbation theory with respect to B field
   DQ        =  0.001000  dq finite difference perturbation B field
   LLRAUG    =     F  two centre corrections for induced B field



--------------------------------------------------------------------------------------------------------


 Static calculation
 charge density and potential will be updated during run
 non-spin polarized calculation
 Conjugate gradient for all bands (Freysoldt, et al. PRB 79, 241103 (2009))
 preconditioned conjugated gradient                                        
 perform sub-space diagonalisation
    before iterative eigenvector-optimisation
 modified Broyden-mixing scheme, WC =      100.0
 initial mixing is a Kerker type mixing with AMIX =  0.4000 and BMIX =      1.0000
 Hartree-type preconditioning will be used
 using additional bands           32
 real space projection scheme for non local part
 use partial core corrections
 no Harris-corrections to forces 
 use gradient corrections 
 use of overlap-Matrix (Vanderbilt PP)
 Gauss-broadening in eV      SIGMA  =   0.10


--------------------------------------------------------------------------------------------------------


  energy-cutoff  :     1000.00
  volume of cell :     1403.01
      direct lattice vectors                 reciprocal lattice vectors
    15.439217752  0.004465832 -0.038376892     0.065085042  0.034326685  0.130688713
    -7.186282924 13.630928377 -0.001416099     0.000303919  0.073536393  0.130825479
    -7.182834812-11.890639092  6.700359279     0.000372844  0.000212151  0.150021909

  length of vectors
    15.439266094 15.409246337 15.423204220     0.149979744  0.150076646  0.150022522


 
 k-points in units of 2pi/SCALE and weight: KPOINTS                                 
   0.00000000  0.00000000  0.00000000       1.000
 
 k-points in reciprocal lattice and weights: KPOINTS                                 
   0.00000000  0.00000000  0.00000000       1.000
 
 position of ions in fractional coordinates (direct lattice) 
   0.29501950  0.94116017  0.21987596
   0.30963441  0.00627535  0.31689987
   0.27784513  0.87468441  0.11978224
 
 position of ions in cartesian coordinates  (Angst):
  -3.78790563 10.21573870  1.46059321
   2.45917722 -3.68122035  2.11145126
  -2.85639420 10.49971397  0.79068259
 


--------------------------------------------------------------------------------------------------------


 use serial FFT for orbitals x direction half grid
 k-point   1 :   0.0000 0.0000 0.0000  plane waves:   50307

 maximum and minimum number of plane-waves per node :     50307    50307

 maximum number of plane-waves:     50307
 maximum index in each direction: 
   IXMAX=   39   IYMAX=   35   IZMAX=   34
   IXMIN=    0   IYMIN=  -39   IZMIN=  -39


 serial   3D FFT for wavefunctions
 parallel 3D FFT for charge:
    minimum data exchange during FFTs selected (reduces bandwidth)


 total amount of memory used by VASP MPI-rank0   289207. kBytes
=======================================================================

   base      :      30000. kBytes
   nonlr-proj:       2241. kBytes
   fftplans  :      44218. kBytes
   grid      :     210329. kBytes
   one-center:          4. kBytes
   wavefun   :       2415. kBytes
 
     INWAV:  cpu time      0.0002: real time      0.0005
 Broyden mixing: mesh for mixing (old mesh)
   NGX = 79   NGY = 79   NGZ = 79
  (NGX  =320   NGY  =320   NGZ  =320)
  gives a total of 493039 points

 initial charge density was supplied:
 charge density of overlapping atoms calculated
 number of electron      16.0000000 magnetization 
 keeping initial charge density in first step


--------------------------------------------------------------------------------------------------------


 Maximum index for non-local projection operator        11265
 Maximum index for augmentation-charges         1058 (set IRDMAX)


--------------------------------------------------------------------------------------------------------


 First call to EWALD:  gamma=   0.158
 Maximum number of real-space cells 4x 4x 4
 Maximum number of reciprocal cells 4x 4x 4

    FEWALD:  cpu time      0.0017: real time      0.0017


--------------------------------------- Iteration      1(   1)  ---------------------------------------


    POTLOK:  cpu time  27990.0328: real time  28262.8099
    SETDIJ:  cpu time      0.0412: real time      0.0937
    TRIAL :  cpu time      0.9294: real time      1.0498
    CORREC:  cpu time      0.0001: real time      0.0001
    --------------------------------------------
      LOOP:  cpu time  27991.0096: real time  28263.9619

 eigenvalue-minimisations  :    80
 total energy-change (2. order) : 0.1897361E+03  (-0.7450280E+03)
 number of electron      16.0000000 magnetization 
 augmentation part       16.0000000 magnetization 

 Free energy of the ion-electron system (eV)
  ---------------------------------------------------
  alpha Z        PSCENC =         0.76241339
  Ewald energy   TEWEN  =       422.34032617
  -Hartree energ DENC   =     -1232.34932879
  -exchange      EXHF   =         0.00000000
  -V(xc)+E(xc)   XCENC  =        66.01365024
  PAW double counting   =       803.28869630     -809.82440074
  entropy T*S    EENTRO =        -0.05987065
  eigenvalues    EBANDS =       -88.43776627
  atomic energy  EATOM  =      1028.00241598
  ---------------------------------------------------
  free energy    TOTEN  =       189.73613564 eV

  energy without entropy =      189.79600629  energy(sigma->0) =      189.76607096


--------------------------------------------------------------------------------------------------------




--------------------------------------- Iteration      1(   2)  ---------------------------------------


    TRIAL :  cpu time      1.2453: real time      1.2515
    CORREC:  cpu time      0.0001: real time      0.0001
    --------------------------------------------
      LOOP:  cpu time      1.2631: real time      1.3214

 eigenvalue-minimisations  :   120
 total energy-change (2. order) :-0.1858346E+03  (-0.1841799E+03)
 number of electron      16.0000000 magnetization 
 augmentation part       16.0000000 magnetization 

 Free energy of the ion-electron system (eV)
  ---------------------------------------------------
  alpha Z        PSCENC =         0.76241339
  Ewald energy   TEWEN  =       422.34032617
  -Hartree energ DENC   =     -1232.34932879
  -exchange      EXHF   =         0.00000000
  -V(xc)+E(xc)   XCENC  =        66.01365024
  PAW double counting   =       803.28869630     -809.82440074
  entropy T*S    EENTRO =        -0.00000000
  eigenvalues    EBANDS =      -274.33220315
  atomic energy  EATOM  =      1028.00241598
  ---------------------------------------------------
  free energy    TOTEN  =         3.90156941 eV

  energy without entropy =        3.90156941  energy(sigma->0) =        3.90156941


--------------------------------------------------------------------------------------------------------




--------------------------------------- Iteration      1(   3)  ---------------------------------------


    TRIAL :  cpu time      1.2179: real time      1.2283
    CORREC:  cpu time      0.0001: real time      0.0001
    --------------------------------------------
      LOOP:  cpu time      1.2183: real time      1.2510

 eigenvalue-minimisations  :   120
 total energy-change (2. order) :-0.2362111E+02  (-0.2362111E+02)
 number of electron      16.0000000 magnetization 
 augmentation part       16.0000000 magnetization 

 Free energy of the ion-electron system (eV)
  ---------------------------------------------------
  alpha Z        PSCENC =         0.76241339
  Ewald energy   TEWEN  =       422.34032617
  -Hartree energ DENC   =     -1232.34932879
  -exchange      EXHF   =         0.00000000
  -V(xc)+E(xc)   XCENC  =        66.01365024
  PAW double counting   =       803.28869630     -809.82440074
  entropy T*S    EENTRO =        -0.00000000
  eigenvalues    EBANDS =      -297.95331349
  atomic energy  EATOM  =      1028.00241598
  ---------------------------------------------------
  free energy    TOTEN  =       -19.71954094 eV

  energy without entropy =      -19.71954094  energy(sigma->0) =      -19.71954094


--------------------------------------------------------------------------------------------------------




--------------------------------------- Iteration      1(   4)  ---------------------------------------


    TRIAL :  cpu time      0.9037: real time      0.9069
    CORREC:  cpu time      0.0001: real time      0.0001
    --------------------------------------------
      LOOP:  cpu time      0.9184: real time      0.9376

 eigenvalue-minimisations  :    80
 total energy-change (2. order) :-0.6354328E-01  (-0.6354328E-01)
 number of electron      16.0000000 magnetization 
 augmentation part       16.0000000 magnetization 

 Free energy of the ion-electron system (eV)
  ---------------------------------------------------
  alpha Z        PSCENC =         0.76241339
  Ewald energy   TEWEN  =       422.34032617
  -Hartree energ DENC   =     -1232.34932879
  -exchange      EXHF   =         0.00000000
  -V(xc)+E(xc)   XCENC  =        66.01365024
  PAW double counting   =       803.28869630     -809.82440074
  entropy T*S    EENTRO =        -0.00000000
  eigenvalues    EBANDS =      -298.01685677
  atomic energy  EATOM  =      1028.00241598
  ---------------------------------------------------
  free energy    TOTEN  =       -19.78308422 eV

  energy without entropy =      -19.78308422  energy(sigma->0) =      -19.78308422


--------------------------------------------------------------------------------------------------------




--------------------------------------- Iteration      1(   5)  ---------------------------------------


    TRIAL :  cpu time      1.2325: real time      1.5923
    CORREC:  cpu time      0.0001: real time      0.0001
    CHARGE:  cpu time      0.2688: real time      0.3234
    --------------------------------------------
      LOOP:  cpu time      1.5024: real time      1.9391

 eigenvalue-minimisations  :   160
 total energy-change (2. order) :-0.2463728E-03  (-0.2463763E-03)
 number of electron      16.0000000 magnetization 
 augmentation part        1.5681453 magnetization 

 Free energy of the ion-electron system (eV)
  ---------------------------------------------------
  alpha Z        PSCENC =         0.76241339
  Ewald energy   TEWEN  =       422.34032617
  -Hartree energ DENC   =     -1232.34932879
  -exchange      EXHF   =         0.00000000
  -V(xc)+E(xc)   XCENC  =        66.01365024
  PAW double counting   =       803.28869630     -809.82440074
  entropy T*S    EENTRO =        -0.00000000
  eigenvalues    EBANDS =      -298.01710314
  atomic energy  EATOM  =      1028.00241598
  ---------------------------------------------------
  free energy    TOTEN  =       -19.78333059 eV

  energy without entropy =      -19.78333059  energy(sigma->0) =      -19.78333059


--------------------------------------------------------------------------------------------------------




--------------------------------------- Iteration      1(   6)  ---------------------------------------


    POTLOK:  cpu time     22.3087: real time     22.3866
    SETDIJ:  cpu time      0.0456: real time      0.0457
    TRIAL :  cpu time      0.6210: real time      0.6528
    CORREC:  cpu time     79.8607: real time     80.4744
    CHARGE:  cpu time      0.2683: real time      0.2691
    --------------------------------------------
      LOOP:  cpu time    103.1053: real time    103.8538

 eigenvalue-minimisations  :     0
 total energy-change (2. order) : 0.5796838E+01  (-0.7436031E-01)
 number of electron      16.0000000 magnetization 
 augmentation part        1.3895719 magnetization 

 Free energy of the ion-electron system (eV)
  ---------------------------------------------------
  alpha Z        PSCENC =         0.76241339
  Ewald energy   TEWEN  =       422.34032617
  -Hartree energ DENC   =     -1325.14391572
  -exchange      EXHF   =         0.00000000
  -V(xc)+E(xc)   XCENC  =        71.54645327
  PAW double counting   =      1457.87296106    -1466.22940319
  entropy T*S    EENTRO =        -0.00000000
  eigenvalues    EBANDS =      -203.13774373
  atomic energy  EATOM  =      1028.00241598
  ---------------------------------------------------
  free energy    TOTEN  =       -13.98649277 eV

  energy without entropy =      -13.98649277  energy(sigma->0) =      -13.98649277


--------------------------------------------------------------------------------------------------------




--------------------------------------- Iteration      1(   7)  ---------------------------------------


    POTLOK:  cpu time     17.8036: real time     17.8652
    SETDIJ:  cpu time      0.0434: real time      0.0435
    TRIAL :  cpu time      0.5554: real time      0.5580
    CORREC:  cpu time     18.1940: real time     18.2921
    CHARGE:  cpu time      0.2729: real time      0.2739
    --------------------------------------------
      LOOP:  cpu time     36.8741: real time     37.0499

 eigenvalue-minimisations  :     0
 total energy-change (2. order) :-0.2981323E+01  (-0.4433265E+00)
 number of electron      16.0000000 magnetization 
 augmentation part        1.3625431 magnetization 

 Free energy of the ion-electron system (eV)
  ---------------------------------------------------
  alpha Z        PSCENC =         0.76241339
  Ewald energy   TEWEN  =       422.34032617
  -Hartree energ DENC   =     -1267.91195021
  -exchange      EXHF   =         0.00000000
  -V(xc)+E(xc)   XCENC  =        68.18514554
  PAW double counting   =      1387.89489542    -1395.31291585
  entropy T*S    EENTRO =        -0.00000000
  eigenvalues    EBANDS =      -260.92814637
  atomic energy  EATOM  =      1028.00241598
  ---------------------------------------------------
  free energy    TOTEN  =       -16.96781594 eV

  energy without entropy =      -16.96781594  energy(sigma->0) =      -16.96781594


--------------------------------------------------------------------------------------------------------




--------------------------------------- Iteration      1(   8)  ---------------------------------------


    POTLOK:  cpu time     18.0712: real time     18.3714
    SETDIJ:  cpu time      0.0447: real time      0.0448
    TRIAL :  cpu time      0.5704: real time      0.5848
    CORREC:  cpu time     18.3247: real time     18.4470
    CHARGE:  cpu time      0.2732: real time      0.2739
    --------------------------------------------
      LOOP:  cpu time     37.2868: real time     37.7424

 eigenvalue-minimisations  :     0
 total energy-change (2. order) :-0.4651810E+00  (-0.1665442E+00)
 number of electron      16.0000000 magnetization 
 augmentation part        1.3609416 magnetization 

 Free energy of the ion-electron system (eV)
  ---------------------------------------------------
  alpha Z        PSCENC =         0.76241339
  Ewald energy   TEWEN  =       422.34032617
  -Hartree energ DENC   =     -1274.74293768
  -exchange      EXHF   =         0.00000000
  -V(xc)+E(xc)   XCENC  =        68.41908318
  PAW double counting   =      1411.34732985    -1418.54410010
  entropy T*S    EENTRO =        -0.00000000
  eigenvalues    EBANDS =      -255.01752776
  atomic energy  EATOM  =      1028.00241598
  ---------------------------------------------------
  free energy    TOTEN  =       -17.43299698 eV

  energy without entropy =      -17.43299698  energy(sigma->0) =      -17.43299698


--------------------------------------------------------------------------------------------------------




--------------------------------------- Iteration      1(   9)  ---------------------------------------


    POTLOK:  cpu time     17.7484: real time     17.8037
    SETDIJ:  cpu time      0.0439: real time      0.0441
    TRIAL :  cpu time      0.5560: real time      0.5588
    CORREC:  cpu time     18.2839: real time     18.3448
    CHARGE:  cpu time      0.2737: real time      0.2745
    --------------------------------------------
      LOOP:  cpu time     36.9306: real time     37.0515

 eigenvalue-minimisations  :     0
 total energy-change (2. order) :-0.1664046E+00  (-0.6398795E-01)
 number of electron      16.0000000 magnetization 
 augmentation part        1.3510686 magnetization 

 Free energy of the ion-electron system (eV)
  ---------------------------------------------------
  alpha Z        PSCENC =         0.76241339
  Ewald energy   TEWEN  =       422.34032617
  -Hartree energ DENC   =     -1277.99552243
  -exchange      EXHF   =         0.00000000
  -V(xc)+E(xc)   XCENC  =        68.53993582
  PAW double counting   =      1429.73358330    -1436.89322631
  entropy T*S    EENTRO =        -0.00000000
  eigenvalues    EBANDS =      -252.08932746
  atomic energy  EATOM  =      1028.00241598
  ---------------------------------------------------
  free energy    TOTEN  =       -17.59940155 eV

  energy without entropy =      -17.59940155  energy(sigma->0) =      -17.59940155


--------------------------------------------------------------------------------------------------------




--------------------------------------- Iteration      1(  10)  ---------------------------------------


    POTLOK:  cpu time     17.8863: real time     18.2141
    SETDIJ:  cpu time      0.0437: real time      0.0438
    TRIAL :  cpu time      0.5546: real time      0.5568
    CORREC:  cpu time     18.1803: real time     18.2445
    CHARGE:  cpu time      0.2732: real time      0.2739
    --------------------------------------------
      LOOP:  cpu time     36.9404: real time     37.3506

 eigenvalue-minimisations  :     0
 total energy-change (2. order) :-0.6208303E-01  (-0.1830885E-01)
 number of electron      16.0000000 magnetization 
 augmentation part        1.3501071 magnetization 

 Free energy of the ion-electron system (eV)
  ---------------------------------------------------
  alpha Z        PSCENC =         0.76241339
  Ewald energy   TEWEN  =       422.34032617
  -Hartree energ DENC   =     -1273.99410796
  -exchange      EXHF   =         0.00000000
  -V(xc)+E(xc)   XCENC  =        68.31635384
  PAW double counting   =      1436.28290580    -1443.38325073
  entropy T*S    EENTRO =        -0.00000000
  eigenvalues    EBANDS =      -255.98854107
  atomic energy  EATOM  =      1028.00241598
  ---------------------------------------------------
  free energy    TOTEN  =       -17.66148458 eV

  energy without entropy =      -17.66148458  energy(sigma->0) =      -17.66148458


--------------------------------------------------------------------------------------------------------




--------------------------------------- Iteration      1(  11)  ---------------------------------------


    POTLOK:  cpu time     17.9379: real time     18.0014
    SETDIJ:  cpu time      0.0438: real time      0.0439
    TRIAL :  cpu time      0.5558: real time      0.5581
    CORREC:  cpu time     18.1894: real time     18.5497
    CHARGE:  cpu time      0.2703: real time      0.2710
    --------------------------------------------
      LOOP:  cpu time     37.0011: real time     37.4435

 eigenvalue-minimisations  :     0
 total energy-change (2. order) :-0.1811871E-01  (-0.6946690E-02)
 number of electron      16.0000000 magnetization 
 augmentation part        1.3531282 magnetization 

 Free energy of the ion-electron system (eV)
  ---------------------------------------------------
  alpha Z        PSCENC =         0.76241339
  Ewald energy   TEWEN  =       422.34032617
  -Hartree energ DENC   =     -1273.24769644
  -exchange      EXHF   =         0.00000000
  -V(xc)+E(xc)   XCENC  =        68.28552918
  PAW double counting   =      1441.50845524    -1448.60250667
  entropy T*S    EENTRO =        -0.00000000
  eigenvalues    EBANDS =      -256.72854013
  atomic energy  EATOM  =      1028.00241598
  ---------------------------------------------------
  free energy    TOTEN  =       -17.67960329 eV

  energy without entropy =      -17.67960329  energy(sigma->0) =      -17.67960329


--------------------------------------------------------------------------------------------------------




--------------------------------------- Iteration      1(  12)  ---------------------------------------


    POTLOK:  cpu time     17.7500: real time     17.8207
    SETDIJ:  cpu time      0.0440: real time      0.0441
    TRIAL :  cpu time      0.5548: real time      0.5568
    CORREC:  cpu time     18.2168: real time     18.3202
    CHARGE:  cpu time      0.2697: real time      0.2704
    --------------------------------------------
      LOOP:  cpu time     36.8382: real time     37.0339

 eigenvalue-minimisations  :     0
 total energy-change (2. order) :-0.6931230E-02  (-0.2250873E-02)
 number of electron      16.0000000 magnetization 
 augmentation part        1.3529690 magnetization 

 Free energy of the ion-electron system (eV)
  ---------------------------------------------------
  alpha Z        PSCENC =         0.76241339
  Ewald energy   TEWEN  =       422.34032617
  -Hartree energ DENC   =     -1273.37415166
  -exchange      EXHF   =         0.00000000
  -V(xc)+E(xc)   XCENC  =        68.30216709
  PAW double counting   =      1444.69281084    -1451.81022362
  entropy T*S    EENTRO =        -0.00000000
  eigenvalues    EBANDS =      -256.60229270
  atomic energy  EATOM  =      1028.00241598
  ---------------------------------------------------
  free energy    TOTEN  =       -17.68653452 eV

  energy without entropy =      -17.68653452  energy(sigma->0) =      -17.68653452


--------------------------------------------------------------------------------------------------------




--------------------------------------- Iteration      1(  13)  ---------------------------------------


    POTLOK:  cpu time     17.8986: real time     18.2170
    SETDIJ:  cpu time      0.0489: real time      0.0490
    TRIAL :  cpu time      0.5563: real time      0.5660
    CORREC:  cpu time     18.2272: real time     18.2895
    CHARGE:  cpu time      0.2700: real time      0.2709
    --------------------------------------------
      LOOP:  cpu time     37.0055: real time     37.4160

 eigenvalue-minimisations  :     0
 total energy-change (2. order) :-0.2245258E-02  (-0.6052317E-03)
 number of electron      16.0000000 magnetization 
 augmentation part        1.3526890 magnetization 

 Free energy of the ion-electron system (eV)
  ---------------------------------------------------
  alpha Z        PSCENC =         0.76241339
  Ewald energy   TEWEN  =       422.34032617
  -Hartree energ DENC   =     -1272.68941606
  -exchange      EXHF   =         0.00000000
  -V(xc)+E(xc)   XCENC  =        68.27169151
  PAW double counting   =      1444.34320713    -1451.46664989
  entropy T*S    EENTRO =        -0.00000000
  eigenvalues    EBANDS =      -257.25276801
  atomic energy  EATOM  =      1028.00241598
  ---------------------------------------------------
  free energy    TOTEN  =       -17.68877978 eV

  energy without entropy =      -17.68877978  energy(sigma->0) =      -17.68877978


--------------------------------------------------------------------------------------------------------




--------------------------------------- Iteration      1(  14)  ---------------------------------------


    POTLOK:  cpu time     17.7571: real time     17.8413
    SETDIJ:  cpu time      0.0436: real time      0.0437
    TRIAL :  cpu time      0.5558: real time      0.5580
    CORREC:  cpu time     18.4588: real time     18.7717
    CHARGE:  cpu time      0.2676: real time      0.2687
    --------------------------------------------
      LOOP:  cpu time     37.0865: real time     37.5011

 eigenvalue-minimisations  :     0
 total energy-change (2. order) :-0.6038522E-03  (-0.1545536E-03)
 number of electron      16.0000000 magnetization 
 augmentation part        1.3524611 magnetization 

 Free energy of the ion-electron system (eV)
  ---------------------------------------------------
  alpha Z        PSCENC =         0.76241339
  Ewald energy   TEWEN  =       422.34032617
  -Hartree energ DENC   =     -1272.61244375
  -exchange      EXHF   =         0.00000000
  -V(xc)+E(xc)   XCENC  =        68.26961353
  PAW double counting   =      1443.79919727    -1450.92305506
  entropy T*S    EENTRO =        -0.00000000
  eigenvalues    EBANDS =      -257.32785116
  atomic energy  EATOM  =      1028.00241598
  ---------------------------------------------------
  free energy    TOTEN  =       -17.68938363 eV

  energy without entropy =      -17.68938363  energy(sigma->0) =      -17.68938363


--------------------------------------------------------------------------------------------------------




--------------------------------------- Iteration      1(  15)  ---------------------------------------


    POTLOK:  cpu time     17.8032: real time     17.8597
    SETDIJ:  cpu time      0.0436: real time      0.0437
    TRIAL :  cpu time      0.5548: real time      0.5566
    CORREC:  cpu time     18.1500: real time     18.2175
    CHARGE:  cpu time      0.2669: real time      0.2678
    --------------------------------------------
      LOOP:  cpu time     36.8210: real time     36.9661

 eigenvalue-minimisations  :     0
 total energy-change (2. order) :-0.1541733E-03  (-0.3880122E-04)
 number of electron      16.0000000 magnetization 
 augmentation part        1.3521769 magnetization 

 Free energy of the ion-electron system (eV)
  ---------------------------------------------------
  alpha Z        PSCENC =         0.76241339
  Ewald energy   TEWEN  =       422.34032617
  -Hartree energ DENC   =     -1272.65241240
  -exchange      EXHF   =         0.00000000
  -V(xc)+E(xc)   XCENC  =        68.27173884
  PAW double counting   =      1443.26937347    -1450.39237738
  entropy T*S    EENTRO =        -0.00000000
  eigenvalues    EBANDS =      -257.29101586
  atomic energy  EATOM  =      1028.00241598
  ---------------------------------------------------
  free energy    TOTEN  =       -17.68953780 eV

  energy without entropy =      -17.68953780  energy(sigma->0) =      -17.68953780


--------------------------------------------------------------------------------------------------------




--------------------------------------- Iteration      1(  16)  ---------------------------------------


    POTLOK:  cpu time     19.5987: real time     19.8863
    SETDIJ:  cpu time      0.0503: real time      0.0511
    TRIAL :  cpu time      0.6638: real time      0.6660
    CORREC:  cpu time     23.7309: real time     24.2411
    CHARGE:  cpu time      0.2870: real time      0.2877
    --------------------------------------------
      LOOP:  cpu time     44.3341: real time     45.1499

 eigenvalue-minimisations  :     0
 total energy-change (2. order) :-0.3866554E-04  (-0.1132150E-04)
 number of electron      16.0000000 magnetization 
 augmentation part        1.3521730 magnetization 

 Free energy of the ion-electron system (eV)
  ---------------------------------------------------
  alpha Z        PSCENC =         0.76241339
  Ewald energy   TEWEN  =       422.34032617
  -Hartree energ DENC   =     -1272.60000128
  -exchange      EXHF   =         0.00000000
  -V(xc)+E(xc)   XCENC  =        68.26888402
  PAW double counting   =      1442.71610033    -1449.83757573
  entropy T*S    EENTRO =        -0.00000000
  eigenvalues    EBANDS =      -257.34213935
  atomic energy  EATOM  =      1028.00241598
  ---------------------------------------------------
  free energy    TOTEN  =       -17.68957647 eV

  energy without entropy =      -17.68957647  energy(sigma->0) =      -17.68957647


--------------------------------------------------------------------------------------------------------




--------------------------------------- Iteration      1(  17)  ---------------------------------------


    POTLOK:  cpu time     21.7212: real time     21.8368
    SETDIJ:  cpu time      0.0463: real time      0.0464
    TRIAL :  cpu time      0.5936: real time      0.5956
    CORREC:  cpu time     23.5699: real time     23.8717
    CHARGE:  cpu time      0.2908: real time      0.2919
    --------------------------------------------
      LOOP:  cpu time     46.2267: real time     46.6609

 eigenvalue-minimisations  :     0
 total energy-change (2. order) :-0.1128323E-04  (-0.3450061E-05)
 number of electron      16.0000000 magnetization 
 augmentation part        1.3521426 magnetization 

 Free energy of the ion-electron system (eV)
  ---------------------------------------------------
  alpha Z        PSCENC =         0.76241339
  Ewald energy   TEWEN  =       422.34032617
  -Hartree energ DENC   =     -1272.63428563
  -exchange      EXHF   =         0.00000000
  -V(xc)+E(xc)   XCENC  =        68.27080768
  PAW double counting   =      1442.37760515    -1449.49883296
  entropy T*S    EENTRO =        -0.00000000
  eigenvalues    EBANDS =      -257.31003752
  atomic energy  EATOM  =      1028.00241598
  ---------------------------------------------------
  free energy    TOTEN  =       -17.68958775 eV

  energy without entropy =      -17.68958775  energy(sigma->0) =      -17.68958775


--------------------------------------------------------------------------------------------------------




--------------------------------------- Iteration      1(  18)  ---------------------------------------


    POTLOK:  cpu time     19.8645: real time     21.1748
    SETDIJ:  cpu time      0.0580: real time      0.0582
    TRIAL :  cpu time      0.6129: real time      0.6157
    CORREC:  cpu time     20.3615: real time     20.4382
    CHARGE:  cpu time      0.2682: real time      0.2689
    --------------------------------------------
      LOOP:  cpu time     41.1707: real time     42.5739

 eigenvalue-minimisations  :     0
 total energy-change (2. order) :-0.3500697E-05  (-0.1039873E-05)
 number of electron      16.0000000 magnetization 
 augmentation part        1.3521354 magnetization 

 Free energy of the ion-electron system (eV)
  ---------------------------------------------------
  alpha Z        PSCENC =         0.76241339
  Ewald energy   TEWEN  =       422.34032617
  -Hartree energ DENC   =     -1272.63895254
  -exchange      EXHF   =         0.00000000
  -V(xc)+E(xc)   XCENC  =        68.27093396
  PAW double counting   =      1442.12612374    -1449.24714328
  entropy T*S    EENTRO =        -0.00000000
  eigenvalues    EBANDS =      -257.30570867
  atomic energy  EATOM  =      1028.00241598
  ---------------------------------------------------
  free energy    TOTEN  =       -17.68959125 eV

  energy without entropy =      -17.68959125  energy(sigma->0) =      -17.68959125


--------------------------------------------------------------------------------------------------------




--------------------------------------- Iteration      1(  19)  ---------------------------------------


    POTLOK:  cpu time     18.0971: real time     18.4705
    SETDIJ:  cpu time      0.0435: real time      0.0436
    TRIAL :  cpu time      0.5551: real time      0.5572
    CORREC:  cpu time     18.2606: real time     18.3402
    CHARGE:  cpu time      0.2683: real time      0.2690
    --------------------------------------------
      LOOP:  cpu time     37.2275: real time     37.6976

 eigenvalue-minimisations  :     0
 total energy-change (2. order) :-0.1082780E-05  (-0.2738508E-06)
 number of electron      16.0000000 magnetization 
 augmentation part        1.3521491 magnetization 

 Free energy of the ion-electron system (eV)
  ---------------------------------------------------
  alpha Z        PSCENC =         0.76241339
  Ewald energy   TEWEN  =       422.34032617
  -Hartree energ DENC   =     -1272.64058752
  -exchange      EXHF   =         0.00000000
  -V(xc)+E(xc)   XCENC  =        68.27093319
  PAW double counting   =      1441.98347321    -1449.10445595
  entropy T*S    EENTRO =        -0.00000000
  eigenvalues    EBANDS =      -257.30411080
  atomic energy  EATOM  =      1028.00241598
  ---------------------------------------------------
  free energy    TOTEN  =       -17.68959234 eV

  energy without entropy =      -17.68959234  energy(sigma->0) =      -17.68959234


--------------------------------------------------------------------------------------------------------




--------------------------------------- Iteration      1(  20)  ---------------------------------------


    POTLOK:  cpu time     17.8118: real time     17.9091
    SETDIJ:  cpu time      0.0437: real time      0.0438
    TRIAL :  cpu time      0.5548: real time      0.5583
    CORREC:  cpu time     18.6471: real time     18.9059
    CHARGE:  cpu time      0.2683: real time      0.2694
    --------------------------------------------
      LOOP:  cpu time     37.3322: real time     37.7109

 eigenvalue-minimisations  :     0
 total energy-change (2. order) :-0.2763622E-06  (-0.1200846E-06)
 number of electron      16.0000000 magnetization 
 augmentation part        1.3521458 magnetization 

 Free energy of the ion-electron system (eV)
  ---------------------------------------------------
  alpha Z        PSCENC =         0.76241339
  Ewald energy   TEWEN  =       422.34032617
  -Hartree energ DENC   =     -1272.64642036
  -exchange      EXHF   =         0.00000000
  -V(xc)+E(xc)   XCENC  =        68.27122533
  PAW double counting   =      1441.92745057    -1449.04850454
  entropy T*S    EENTRO =        -0.00000000
  eigenvalues    EBANDS =      -257.29849915
  atomic energy  EATOM  =      1028.00241598
  ---------------------------------------------------
  free energy    TOTEN  =       -17.68959261 eV

  energy without entropy =      -17.68959261  energy(sigma->0) =      -17.68959261


--------------------------------------------------------------------------------------------------------




--------------------------------------- Iteration      1(  21)  ---------------------------------------


    POTLOK:  cpu time     17.9438: real time     18.0233
    SETDIJ:  cpu time      0.0476: real time      0.0477
    TRIAL :  cpu time      0.5568: real time      0.5588
    CORREC:  cpu time     18.2182: real time     18.3559
    EDDIAG:  cpu time      0.2149: real time      0.2158
    CHARGE:  cpu time      0.2706: real time      0.2713
    --------------------------------------------
      LOOP:  cpu time     37.2540: real time     37.4922

 eigenvalue-minimisations  :     0
 total energy-change (2. order) :-0.8145616E-07  (-0.6721404E-07)
 number of electron      16.0000000 magnetization 
 augmentation part        1.3521648 magnetization 

 Free energy of the ion-electron system (eV)
  ---------------------------------------------------
  alpha Z        PSCENC =         0.76241339
  Ewald energy   TEWEN  =       422.34032617
  -Hartree energ DENC   =     -1272.64442855
  -exchange      EXHF   =         0.00000000
  -V(xc)+E(xc)   XCENC  =        68.27108934
  PAW double counting   =      1441.88119130    -1449.00224455
  entropy T*S    EENTRO =        -0.00000000
  eigenvalues    EBANDS =      -257.30035577
  atomic energy  EATOM  =      1028.00241598
  ---------------------------------------------------
  free energy    TOTEN  =       -17.68959269 eV

  energy without entropy =      -17.68959269  energy(sigma->0) =      -17.68959269


--------------------------------------------------------------------------------------------------------


  average scaling for gradient   1.0572


 average (electrostatic) potential at core
  the test charge radii are     0.6991  0.7215
  (the norm of the test charge is              1.0000)
       1 -63.7466       2 -83.2458       3 -83.1533
 
 
 
 E-fermi :  -8.7315     XC(G=0):  -0.8314     alpha+bet : -0.1782

 Fermi energy:        -8.7314840892

 k-point     1 :       0.0000    0.0000    0.0000
  band No.  band energies     occupation 
      1     -29.2763      2.00000
      2     -28.3081      2.00000
      3     -13.9861      2.00000
      4     -12.8774      2.00000
      5     -12.8003      2.00000
      6     -12.7999      2.00000
      7      -9.3011      2.00000
      8      -9.3003      2.00000
      9      -1.6192      0.00000
     10      -0.9477      0.00000
     11      -0.9383      0.00000
     12       0.0043      0.00000
     13       0.1082      0.00000
     14       0.1771      0.00000
     15       0.5064      0.00000
     16       0.5464      0.00000
     17       0.8415      0.00000
     18       1.6444      0.00000
     19       1.8833      0.00000
     20       1.9125      0.00000
     21       1.9801      0.00000
     22       2.0366      0.00000
     23       2.0469      0.00000
     24       2.1288      0.00000
     25       2.1340      0.00000
     26       2.7515      0.00000
     27       2.8495      0.00000
     28       2.9493      0.00000
     29       2.9956      0.00000
     30       3.0031      0.00000
     31       3.0248      0.00000
     32       3.0401      0.00000
     33       3.0639      0.00000
     34       3.1201      0.00000
     35       3.1792      0.00000
     36       3.5256      0.00000
     37       3.5608      0.00000
     38       3.6903      0.00000
     39       3.7792      0.00000
     40       3.7889      0.00000


--------------------------------------------------------------------------------------------------------


 soft charge-density along one line, spin component           1
         0         1         2         3         4         5         6         7         8         9
 total charge-density along one line
 
 pseudopotential strength for first ion, spin component:           1
 10.584  14.078  -0.000   0.000  -0.000   0.001  -0.001   0.001
 14.078  18.725  -0.000   0.000  -0.000   0.001  -0.002   0.002
 -0.000  -0.000  -4.710   0.006  -0.009   9.320  -0.007   0.010
  0.000   0.000   0.006  -4.723   0.021  -0.007   9.334  -0.024
 -0.000  -0.000  -0.009   0.021  -4.738   0.010  -0.024   9.352
  0.001   0.001   9.320  -0.007   0.010 -20.606   0.006  -0.008
 -0.001  -0.002  -0.007   9.334  -0.024   0.006 -20.617   0.019
  0.001   0.002   0.010  -0.024   9.352  -0.008   0.019 -20.631
 total augmentation occupancy for first ion, spin component:           1
  8.933  -4.342   0.008   0.016  -0.079   0.001   0.002  -0.013
 -4.342   2.373  -0.005  -0.009   0.050  -0.001  -0.002   0.008
  0.008  -0.005   1.255  -0.176   0.249   0.077  -0.031   0.045
  0.016  -0.009  -0.176   1.604  -0.598  -0.031   0.140  -0.107
 -0.079   0.050   0.249  -0.598   2.031   0.045  -0.107   0.216
  0.001  -0.001   0.077  -0.031   0.045   0.006  -0.006   0.008
  0.002  -0.002  -0.031   0.140  -0.107  -0.006   0.017  -0.019
 -0.013   0.008   0.045  -0.107   0.216   0.008  -0.019   0.030


------------------------ aborting loop because EDIFF is reached ----------------------------------------


    FORLOC:  cpu time      0.0261: real time      0.0262
    FORNL :  cpu time      0.3290: real time      0.3300
    STRESS:  cpu time      0.9527: real time      0.9557
    FORCOR:  cpu time     18.0667: real time     18.3410
    OFIELD:  cpu time      0.0032: real time      0.0032

  FORCE on cell =-STRESS in cart. coord.  units (eV):
  Direction    XX          YY          ZZ          XY          YZ          ZX
  --------------------------------------------------------------------------------------
  Alpha Z     0.76241     0.76241     0.76241
  Ewald     274.41201  -188.09627   336.02452   173.20520   -11.39157  -293.95254
  Hartree   437.55940   215.03130   620.05905    95.42842    40.21679  -109.99718
  E(xc)     -75.80754   -78.40467   -77.23837     0.83515    -0.58974    -2.00472
  Local    -898.67446  -253.85562 -1164.90381  -255.70581   -37.95404   372.90474
  n-local   -53.66631   -50.47419   -51.90494    -1.01978     0.72006     2.45534
  augment    11.81940    13.37992    12.67811    -0.50237     0.35492     1.20452
  Kinetic   303.51229   341.63563   324.48639   -12.26611     8.66425    29.43237
  Fock        0.00000     0.00000     0.00000     0.00000     0.00000     0.00000
  -------------------------------------------------------------------------------------
  Total      -0.08280    -0.02148    -0.03665    -0.02530     0.02067     0.04252
  in kB      -0.09455    -0.02453    -0.04185    -0.02889     0.02361     0.04856
  external pressure =       -0.05 kB  Pullay stress =        0.00 kB


 VOLUME and BASIS-vectors are now :
 -----------------------------------------------------------------------------
  energy-cutoff  :     1000.00
  volume of cell :     1403.01
      direct lattice vectors                 reciprocal lattice vectors
    15.439217752  0.004465832 -0.038376892     0.065085042  0.034326685  0.130688713
    -7.186282924 13.630928377 -0.001416099     0.000303919  0.073536393  0.130825479
    -7.182834812-11.890639092  6.700359279     0.000372844  0.000212151  0.150021909

  length of vectors
    15.439266094 15.409246337 15.423204220     0.149979744  0.150076646  0.150022522


 FORCES acting on ions:
    Electron-Ion                     Ewald-Force                    Non-Local-Force
 -----------------------------------------------------------------------------------------------
   -.574E+01 0.261E+01 -.134E+01   0.644E+01 -.242E+01 0.867E+00   -.156E+00 0.973E-01 -.735E-01
   0.228E+03 0.671E+02 -.150E+03   -.280E+03 -.818E+02 0.186E+03   0.517E+02 0.145E+02 -.356E+02
   -.224E+03 -.689E+02 0.151E+03   0.273E+03 0.842E+02 -.187E+03   -.502E+02 -.154E+02 0.362E+02
 -----------------------------------------------------------------------------------------------
   -.134E+01 0.785E+00 -.554E+00   0.000E+00 -.142E-13 0.000E+00   0.134E+01 -.782E+00 0.552E+00
 
 
 POSITION                                       TOTAL-FORCE (eV/Angst)
 -----------------------------------------------------------------------------------
     -3.78791     10.21574      1.46059         0.543721      0.285904     -0.544256
      2.45918     -3.68122      2.11145        -0.231717     -0.129948      0.249636
     -2.85639     10.49971      0.79068        -0.312004     -0.155955      0.294620
 -----------------------------------------------------------------------------------
    total drift:                               -0.000249      0.002428     -0.002108


--------------------------------------------------------------------------------------------------------



  FREE ENERGIE OF THE ION-ELECTRON SYSTEM (eV)
  ---------------------------------------------------
  free  energy   TOTEN  =       -17.68959269 eV

  energy  without entropy=      -17.68959269  energy(sigma->0) =      -17.68959269
 


--------------------------------------------------------------------------------------------------------


    POTLOK:  cpu time     17.8228: real time     17.8911


--------------------------------------------------------------------------------------------------------


 writing wavefunctions
     LOOP+:  cpu time  28740.6351: real time  29022.1131
    4ORBIT:  cpu time      0.0000: real time      0.0000

 total amount of memory used by VASP MPI-rank0   289207. kBytes
=======================================================================

   base      :      30000. kBytes
   nonlr-proj:       2241. kBytes
   fftplans  :      44218. kBytes
   grid      :     210329. kBytes
   one-center:          4. kBytes
   wavefun   :       2415. kBytes
 
  
  
 General timing and accounting informations for this job:
 ========================================================
  
                  Total CPU time used (sec):    28777.643
                            User time (sec):    28735.371
                          System time (sec):       42.272
                         Elapsed time (sec):    29060.558
  
                   Maximum memory used (kb):      987416.
                   Average memory used (kb):          N/A
  
                          Minor page faults:       516750
                          Major page faults:            4
                 Voluntary context switches:       318351
