 vasp.6.2.1 16May21 (build Aug 03 2024 02:50:01) gamma-only                     
  
 executed on             LinuxIFC date 2024.10.29  03:43:25
 running on    7 total cores
 distrk:  each k-point on    7 cores,    1 groups
 distr:  one band on NCORE=   1 cores,    7 groups


--------------------------------------------------------------------------------------------------------


 INCAR:
   SYSTEM = MOF
   ISMEAR = 0
   SIGMA = 0.1
   ENCUT = 420.
   PREC = Accurate
   ISYM = -1
   NELM = 1
   IBRION = -1
   NSW = 0
   ALGO = sub
   NBANDS = 721
   NBANDSHIGH = 721
   NBANDSLOW = 131
   TIME = 0.05
   LHFCALC = .TRUE.
   AEXX = 1
   LASPH = .TRUE.
   PRECFOCK = Normal
   LWAVE = .TRUE.
   LCHARG = .TRUE.
   NWRITE = 1
   LORBIT = 11

 POTCAR:    PAW_PBE C_GW 28Sep2005                
 POTCAR:    PAW_PBE H_GW 21Apr2008                
 POTCAR:    PAW_PBE O_GW 28Sep2005                
 POTCAR:    PAW_PBE Fe_sv_GW 05Dec2013            
 -----------------------------------------------------------------------------
|                                                                             |
|           W    W    AA    RRRRR   N    N  II  N    N   GGGG   !!!           |
|           W    W   A  A   R    R  NN   N  II  NN   N  G    G  !!!           |
|           W    W  A    A  R    R  N N  N  II  N N  N  G       !!!           |
|           W WW W  AAAAAA  RRRRR   N  N N  II  N  N N  G  GGG   !            |
|           WW  WW  A    A  R   R   N   NN  II  N   NN  G    G                |
|           W    W  A    A  R    R  N    N  II  N    N   GGGG   !!!           |
|                                                                             |
|     For optimal performance we recommend to set                             |
|       NCORE = 2 up to number-of-cores-per-socket                            |
|     NCORE specifies how many cores store one orbital (NPAR=cpu/NCORE).      |
|     This setting can greatly improve the performance of VASP for DFT.       |
|     The default, NCORE=1 might be grossly inefficient on modern             |
|     multi-core architectures or massively parallel machines. Do your        |
|     own testing! More info at https://www.vasp.at/wiki/index.php/NCORE      |
|     Unfortunately you need to use the default for GW and RPA                |
|     calculations (for HF NCORE is supported but not extensively tested      |
|     yet).                                                                   |
|                                                                             |
 -----------------------------------------------------------------------------

 POTCAR:    PAW_PBE C_GW 28Sep2005                
  local pseudopotential read in
  kinetic energy density of atom read in
  atomic valenz-charges read in
  non local Contribution for L=           0  read in
    real space projection operators read in
  non local Contribution for L=           0  read in
    real space projection operators read in
  non local Contribution for L=           1  read in
    real space projection operators read in
  non local Contribution for L=           1  read in
    real space projection operators read in
    PAW grid and wavefunctions read in
 
   number of l-projection  operators is LMAX  =           4
   number of lm-projection operators is LMMAX =           8
 
 POTCAR:    PAW_PBE H_GW 21Apr2008                
  local pseudopotential read in
  kinetic energy density of atom read in
  atomic valenz-charges read in
  non local Contribution for L=           0  read in
    real space projection operators read in
  non local Contribution for L=           0  read in
    real space projection operators read in
  non local Contribution for L=           1  read in
    real space projection operators read in
  non local Contribution for L=           1  read in
    real space projection operators read in
  non local Contribution for L=           2  read in
    real space projection operators read in
    PAW grid and wavefunctions read in
 
   number of l-projection  operators is LMAX  =           5
   number of lm-projection operators is LMMAX =          13
 
 POTCAR:    PAW_PBE O_GW 28Sep2005                
  local pseudopotential read in
  kinetic energy density of atom read in
  atomic valenz-charges read in
  non local Contribution for L=           0  read in
    real space projection operators read in
  non local Contribution for L=           0  read in
    real space projection operators read in
  non local Contribution for L=           1  read in
    real space projection operators read in
  non local Contribution for L=           1  read in
    real space projection operators read in
    PAW grid and wavefunctions read in
 
   number of l-projection  operators is LMAX  =           4
   number of lm-projection operators is LMMAX =           8
 
 POTCAR:    PAW_PBE Fe_sv_GW 05Dec2013            
  local pseudopotential read in
  partial core-charges read in
  partial kinetic energy density read in
  kinetic energy density of atom read in
  atomic valenz-charges read in
  non local Contribution for L=           0  read in
    real space projection operators read in
  non local Contribution for L=           0  read in
    real space projection operators read in
  non local Contribution for L=           0  read in
    real space projection operators read in
  non local Contribution for L=           1  read in
    real space projection operators read in
  non local Contribution for L=           1  read in
    real space projection operators read in
  non local Contribution for L=           1  read in
    real space projection operators read in
  non local Contribution for L=           2  read in
    real space projection operators read in
  non local Contribution for L=           2  read in
    real space projection operators read in
  non local Contribution for L=           2  read in
    real space projection operators read in
  non local Contribution for L=           3  read in
    real space projection operators read in
  non local Contribution for L=           3  read in
    real space projection operators read in
    PAW grid and wavefunctions read in
 
   number of l-projection  operators is LMAX  =          11
   number of lm-projection operators is LMMAX =          41
 
 -----------------------------------------------------------------------------
|                                                                             |
|               ----> ADVICE to this user running VASP <----                  |
|                                                                             |
|     You have a (more or less) 'large supercell' and for larger cells it     |
|     might be more efficient to use real-space projection operators.         |
|     Therefore, try LREAL= Auto in the INCAR file.                           |
|     Mind: For very accurate calculation, you might also keep the            |
|     reciprocal projection scheme (i.e. LREAL=.FALSE.).                      |
|                                                                             |
 -----------------------------------------------------------------------------

  PAW_PBE C_GW 28Sep2005                :
 energy of atom  1       EATOM= -147.1560
 kinetic energy error for atom=    0.0192 (will be added to EATOM!!)
  PAW_PBE H_GW 21Apr2008                :
 energy of atom  2       EATOM=  -12.4884
 kinetic energy error for atom=    0.0256 (will be added to EATOM!!)
  PAW_PBE O_GW 28Sep2005                :
 energy of atom  3       EATOM= -432.3788
 kinetic energy error for atom=    0.0724 (will be added to EATOM!!)
  PAW_PBE Fe_sv_GW 05Dec2013            :
 energy of atom  4       EATOM=-3376.4015
 kinetic energy error for atom=    0.1308 (will be added to EATOM!!)
 
 
 POSCAR:  C  H  O Fe
  positions in direct lattice
  velocities in cartesian coordinates
 exchange correlation table for  LEXCH =        8
   RHO(1)=    0.500       N(1)  =     2000
   RHO(2)=  100.500       N(2)  =     4000
 


--------------------------------------------------------------------------------------------------------


 ion  position               nearest neighbor table
   1  0.032  0.132  0.567-  32 1.36   6 1.40  21 1.43
   2  0.081  0.617  0.166-   7 1.40  22 1.43   5 1.49
   3  0.131  0.566  0.032-  34 1.36   7 1.40  23 1.43
   4  0.166  0.081  0.617-   6 1.40  24 1.43  10 1.49
   5  0.179  0.747  0.349-  38 1.27  31 1.29   2 1.49
   6  0.192  0.205  0.678-  26 1.09   1 1.40   4 1.40
   7  0.205  0.677  0.192-  27 1.09   3 1.40   2 1.40
   8  0.253  0.651  0.822-  33 1.27  35 1.29  11 1.49
   9  0.322  0.808  0.795-  25 1.09  12 1.40  11 1.40
  10  0.349  0.179  0.747-  40 1.27  36 1.29   4 1.49
  11  0.383  0.834  0.919-   9 1.40  13 1.43   8 1.49
  12  0.433  0.968  0.868-  37 1.36   9 1.40  14 1.43
  13  0.567  0.032  0.132-  42 1.36  16 1.40  11 1.43
  14  0.617  0.166  0.081-  16 1.40  12 1.43  17 1.49
  15  0.651  0.821  0.253-  39 1.27  43 1.29  21 1.49
  16  0.678  0.192  0.205-  30 1.09  13 1.40  14 1.40
  17  0.747  0.349  0.178-  46 1.27  44 1.29  14 1.49
  18  0.795  0.323  0.808-  28 1.09  22 1.40  23 1.40
  19  0.808  0.795  0.322-  29 1.09  24 1.40  21 1.40
  20  0.821  0.253  0.651-  41 1.27  48 1.29  23 1.49
  21  0.834  0.919  0.383-  19 1.40   1 1.43  15 1.49
  22  0.869  0.434  0.968-  45 1.36  18 1.40   2 1.43
  23  0.919  0.383  0.834-  18 1.40   3 1.43  20 1.49
  24  0.968  0.868  0.433-  47 1.36  19 1.40   4 1.43
  25  0.182  0.656  0.634-   9 1.09
  26  0.344  0.366  0.818-   6 1.09
  27  0.366  0.817  0.344-   7 1.09
  28  0.634  0.183  0.656-  18 1.09
  29  0.656  0.634  0.182-  19 1.09
  30  0.818  0.344  0.366-  16 1.09
  31  0.067  0.696  0.328-   5 1.29  51 2.11  49 2.12
  32  0.073  0.264  0.640-   1 1.36  54 2.06  52 2.07
  33  0.098  0.479  0.633-   8 1.27  54 2.07
  34  0.264  0.638  0.074-   3 1.36  52 2.05  53 2.09
  35  0.303  0.671  0.933-   8 1.29  53 2.10  52 2.12
  36  0.328  0.067  0.696-  10 1.29  49 2.10  50 2.12
  37  0.361  0.926  0.736-  12 1.36  50 2.06  49 2.08
  38  0.367  0.903  0.521-   5 1.27  50 2.07
  39  0.479  0.633  0.098-  15 1.27  52 2.07
  40  0.521  0.367  0.902-  10 1.27  51 2.07
  41  0.633  0.097  0.479-  20 1.27  53 2.07
  42  0.639  0.074  0.264-  13 1.36  53 2.06  54 2.08
  43  0.672  0.933  0.304-  15 1.29  54 2.10  53 2.12
  44  0.697  0.329  0.067-  17 1.29  50 2.10  51 2.12
  45  0.736  0.362  0.926-  22 1.36  51 2.05  50 2.09
  46  0.902  0.521  0.367-  17 1.27  49 2.07
  47  0.927  0.736  0.360-  24 1.36  49 2.06  51 2.07
  48  0.933  0.304  0.672-  20 1.29  52 2.11  54 2.12
  49  0.107  0.783  0.515-  47 2.06  46 2.07  37 2.08  36 2.10  31 2.12
  50  0.515  0.107  0.783-  37 2.06  38 2.07  45 2.09  44 2.10  36 2.12
  51  0.783  0.516  0.106-  45 2.05  47 2.07  40 2.07  31 2.11  44 2.12
  52  0.217  0.484  0.894-  34 2.05  32 2.07  39 2.07  48 2.11  35 2.12
  53  0.485  0.893  0.217-  42 2.06  41 2.07  34 2.09  35 2.10  43 2.12
  54  0.893  0.217  0.485-  32 2.06  33 2.07  42 2.08  43 2.10  48 2.12
 

IMPORTANT INFORMATION: All symmetrisations will be switched off!
NOSYMM: (Re-)initialisation of all symmetry stuff for point group C_1.


----------------------------------------------------------------------------------------

                                     Primitive cell                                     

  volume of cell :    1403.0148

  direct lattice vectors                    reciprocal lattice vectors
    15.439217752  0.004465832 -0.038376892     0.065085042  0.034326685  0.130688713
    -7.186282924 13.630928377 -0.001416099     0.000303919  0.073536393  0.130825479
    -7.182834812-11.890639092  6.700359279     0.000372844  0.000212151  0.150021909

  length of vectors
    15.439266094 15.409246337 15.423204220     0.149979744  0.150076646  0.150022522

  position of ions in fractional coordinates (direct lattice)
     0.032140205  0.131596472  0.567243074
     0.080939400  0.617136620  0.166081282
     0.131311660  0.566131401  0.032072370
     0.166052468  0.080890174  0.616656951
     0.178934143  0.747136406  0.349358741
     0.192223384  0.205099135  0.677753253
     0.204817095  0.677208988  0.192172431
     0.252895436  0.650728993  0.821583851
     0.322307724  0.807597299  0.795016362
     0.349319458  0.178891109  0.746556755
     0.382922059  0.833947320  0.919292900
     0.433306216  0.967704379  0.868314174
     0.566693754  0.032295640  0.131685826
     0.617077941  0.166052695  0.080707123
     0.650680572  0.821108876  0.253443275
     0.677692276  0.192402701  0.204983653
     0.747104594  0.349271007  0.178416179
     0.795182905  0.322791042  0.807827584
     0.807776602  0.794900865  0.322246747
     0.821065842  0.252863594  0.650641229
     0.833947517  0.919109811  0.383343020
     0.868688340  0.433868599  0.967927620
     0.919060577  0.382863380  0.833918703
     0.967859819  0.868403528  0.432756926
     0.182479428  0.655565764  0.633945057
     0.344103209  0.366270524  0.817662957
     0.365791429  0.816735938  0.344089651
     0.634208571  0.183264047  0.655910379
     0.655896791  0.633729476  0.182337028
     0.817520572  0.344434206  0.366054943
     0.067421933  0.696011040  0.328229224
     0.073185170  0.264301200  0.639867354
     0.097668867  0.478758507  0.633498145
     0.264148327  0.637872795  0.073659183
     0.302715318  0.671496338  0.932846989
     0.328490557  0.067484104  0.696479021
     0.361353031  0.926373201  0.735541372
     0.367302190  0.903369468  0.521413749
     0.478945773  0.633023796  0.098161017
     0.521054227  0.366976174  0.901838960
     0.632697810  0.096630539  0.478586221
     0.638646969  0.073626784  0.264458628
     0.671509473  0.932515918  0.303521008
     0.697284712  0.328503632  0.067153018
     0.735851673  0.362127205  0.926340817
     0.902331148  0.521241523  0.366501884
     0.926814852  0.735698800  0.360132676
     0.932578089  0.303988990  0.671770806
     0.107174485  0.783307327  0.515334558
     0.515337162  0.106795323  0.782801462
     0.783372319  0.515771295  0.106356464
     0.216627696  0.484228705  0.893643529
     0.484662838  0.893204670  0.217198508
     0.892825508  0.216692673  0.484665412

  ion indices of the primitive-cell ions
   primitive index   ion index
                 1           1
                 2           2
                 3           3
                 4           4
                 5           5
                 6           6
                 7           7
                 8           8
                 9           9
                10          10
                11          11
                12          12
                13          13
                14          14
                15          15
                16          16
                17          17
                18          18
                19          19
                20          20
                21          21
                22          22
                23          23
                24          24
                25          25
                26          26
                27          27
                28          28
                29          29
                30          30
                31          31
                32          32
                33          33
                34          34
                35          35
                36          36
                37          37
                38          38
                39          39
                40          40
                41          41
                42          42
                43          43
                44          44
                45          45
                46          46
                47          47
                48          48
                49          49
                50          50
                51          51
                52          52
                53          53
                54          54

----------------------------------------------------------------------------------------

 
 
 KPOINTS: KPOINTS                                 

Automatic generation of k-mesh.
 Grid dimensions read from file:
 generate k-points for:    1    1    1

 Generating k-lattice:

  Cartesian coordinates                     Fractional coordinates (reciprocal lattice)
     0.065085042  0.034326685  0.130688713     1.000000000  0.000000000 -0.000000000
     0.000303919  0.073536393  0.130825479     0.000000000  1.000000000  0.000000000
     0.000372844  0.000212151  0.150021909    -0.000000000  0.000000000  1.000000000

  Length of vectors
     0.149979744  0.150076646  0.150022522

  Shift w.r.t. Gamma in fractional coordinates (k-lattice)
     0.000000000  0.000000000  0.000000000

 
 Subroutine IBZKPT returns following result:
 ===========================================
 
 Found      1 irreducible k-points:
 
 Following reciprocal coordinates:
            Coordinates               Weight
  0.000000  0.000000  0.000000      1.000000
 
 Following cartesian coordinates:
            Coordinates               Weight
  0.000000  0.000000  0.000000      1.000000
 
 WARNING: full set of k-points will be restricted to regular points only.

 
 Subroutine IBZKPT_HF returns following result:
 ==============================================
 
 Found      1 k-points in 1st BZ
 the following      1 k-points will be used (e.g. in the exchange kernel)
 Following reciprocal coordinates:   # in IRBZ
  0.000000  0.000000  0.000000    1.00000000   1 t-inv F


--------------------------------------------------------------------------------------------------------




 Dimension of arrays:
   k-points           NKPTS =      1   k-points in BZ     NKDIM =      1   number of bands    NBANDS=    721
   number of dos      NEDOS =    301   number of ions     NIONS =     54
   non local maximal  LDIM  =     11   non local SUM 2l+1 LMDIM =     41
   total plane-waves  NPLWV = ******
   max r-space proj   IRMAX =      1   max aug-charges    IRDMAX=  22306
   dimension x,y,z NGX =   108 NGY =  108 NGZ =  108
   dimension x,y,z NGXF=   216 NGYF=  216 NGZF=  216
   support grid    NGXF=   216 NGYF=  216 NGZF=  216
   ions per type =              24   6  18   6
   lowest and highest band optimized NBANDSLOW=     131 NBANDSHIGH=     721
   NGX,Y,Z   is equivalent  to a cutoff of  11.63, 11.65, 11.64 a.u.
   NGXF,Y,Z  is equivalent  to a cutoff of  23.26, 23.30, 23.28 a.u.

 SYSTEM =  MOF                                     
 POSCAR =   C  H  O Fe                             

 Startparameter for this run:
   NWRITE =      1    write-flag & timer
   PREC   = accura    normal or accurate (medium, high low for compatibility)
   ISTART =      1    job   : 0-new  1-cont  2-samecut
   ICHARG =      0    charge: 1-file 2-atom 10-const
   ISPIN  =      1    spin polarized calculation?
   LNONCOLLINEAR =      F non collinear calculations
   LSORBIT =      F    spin-orbit coupling
   INIWAV =      1    electr: 0-lowe 1-rand  2-diag
   LASPH  =      T    aspherical Exc in radial PAW
 Electronic Relaxation 1
   ENCUT  =  420.0 eV  30.87 Ry    5.56 a.u.  25.80 25.75 25.77*2*pi/ulx,y,z
   ENINI  =  420.0     initial cutoff
   ENAUG  =  963.7 eV  augmentation charge cutoff
   NELM   =      1;   NELMIN=  2; NELMDL=  0     # of ELM steps 
   EDIFF  = 0.1E-03   stopping-criterion for ELM
   LREAL  =      F    real-space projection
   NLSPLINE    = F    spline interpolate recip. space projectors
   LCOMPAT=      F    compatible to vasp.4.4
   GGA_COMPAT  = T    GGA compatible to vasp.4.4-vasp.4.6
   LMAXPAW     = -100 max onsite density
   LMAXMIX     =    2 max onsite mixed and CHGCAR
   VOSKOWN=      0    Vosko Wilk Nusair interpolation
   ROPT   =    0.00000   0.00000   0.00000   0.00000
 Ionic relaxation
   EDIFFG = 0.1E-02   stopping-criterion for IOM
   NSW    =      0    number of steps for IOM
   NBLOCK =      1;   KBLOCK =      1    inner block; outer block 
   IBRION =     -1    ionic relax: 0-MD 1-quasi-New 2-CG
   NFREE  =      0    steps in history (QN), initial steepest desc. (CG)
   ISIF   =      0    stress and relaxation
   IWAVPR =     10    prediction:  0-non 1-charg 2-wave 3-comb
   ISYM   =     -1    0-nonsym 1-usesym 2-fastsym
   LCORR  =      T    Harris-Foulkes like correction to forces

   POTIM  = 0.5000    time-step for ionic-motion
   TEIN   =    0.0    initial temperature
   TEBEG  =    0.0;   TEEND  =   0.0 temperature during run
   SMASS  =  -3.00    Nose mass-parameter (am)
   estimated Nose-frequenzy (Omega)   =  0.10E-29 period in steps = 0.13E+47 mass=  -0.545E-26a.u.
   SCALEE = 1.0000    scale energy and forces
   NPACO  =    256;   APACO  = 16.0  distance and # of slots for P.C.
   PSTRESS=    0.0 pullay stress

  Mass of Ions in am
   POMASS =  12.01  1.00 16.00 55.85
  Ionic Valenz
   ZVAL   =   4.00  1.00  6.00 16.00
  Atomic Wigner-Seitz radii
   RWIGS  =  -1.00 -1.00 -1.00 -1.00
  virtual crystal weights 
   VCA    =   1.00  1.00  1.00  1.00
   NELECT =     306.0000    total number of electrons
   NUPDOWN=      -1.0000    fix difference up-down

 DOS related values:
   EMIN   =  10.00;   EMAX   =-10.00  energy-range for DOS
   EFERMI =   0.00
   ISMEAR =     0;   SIGMA  =   0.10  broadening in eV -4-tet -1-fermi 0-gaus

 Electronic relaxation 2 (details)
   IALGO  =      4    algorithm
   LDIAG  =      T    sub-space diagonalisation (order eigenvalues)
   LSUBROT=      F    optimize rotation matrix (better conditioning)
   TURBO    =      0    0=normal 1=particle mesh
   IRESTART =      0    0=no restart 2=restart with 2 vectors
   NREBOOT  =      0    no. of reboots
   NMIN     =      0    reboot dimension
   EREF     =   0.00    reference energy to select bands
   IMIX   =      1    mixing-type and parameters
     AMIX     =   0.40;   BMIX     =  1.00
     AMIX_MAG =   1.60;   BMIX_MAG =  1.00
     AMIN     =   0.10
     WC   =   100.;   INIMIX=   1;  MIXPRE=   1;  MAXMIX= -45

 Intra band minimization:
   WEIMIN = 0.0000     energy-eigenvalue tresh-hold
   EBREAK =  0.35E-07  absolut break condition
   DEPER  =   0.30     relativ break condition  

   TIME   =   0.05     timestep for ELM

  volume/ion in A,a.u.               =      25.98       175.33
  Fermi-wavevector in a.u.,A,eV,Ry     =   0.985435  1.862202 13.212369  0.971082
  Thomas-Fermi vector in A             =   2.116742
 
 Write flags
   LWAVE        =      T    write WAVECAR
   LDOWNSAMPLE  =      F    k-point downsampling of WAVECAR
   LCHARG       =      T    write CHGCAR
   LVTOT        =      F    write LOCPOT, total local potential
   LVHAR        =      F    write LOCPOT, Hartree potential only
   LELF         =      F    write electronic localiz. function (ELF)
   LORBIT       =     11    0 simple, 1 ext, 2 COOP (PROOUT), +10 PAW based schemes


 Dipole corrections
   LMONO  =      F    monopole corrections only (constant potential shift)
   LDIPOL =      F    correct potential (dipole corrections)
   IDIPOL =      0    1-x, 2-y, 3-z, 4-all directions 
   EPSILON=  1.0000000 bulk dielectric constant

 Exchange correlation treatment:
   GGA     =    --    GGA type
   LEXCH   =     8    internal setting for exchange type
   VOSKOWN=      0    Vosko Wilk Nusair interpolation
   EXXOEP  =     0    0=HF, 1=EXX-LHF (local Hartree Fock) 2=EXX OEP
   LHFCALC =     T    Hartree Fock is set to
   LSYMGRAD=     F    symmetrize gradient (conserves proper symmetry)
   PRECFOCK=normal    Normal, Fast or Accurate (Low or Medium for compatibility)
   LRHFCALC=     F    long range Hartree Fock
   LRSCOR  =     F    long range correlation only (use DFT for short range part)
   LTHOMAS =     F    Thomas Fermi screening in HF
   LMODELHF=     F    short range full HF, long range fraction AEXX
   LFOCKACE=     T    use Adeptively-Compressed-Exchange operator
   ENCUT4O =  -1.0   cutoff for four orbital integrals eV
   LMAXFOCK=     4    L truncation for augmentation on plane wave grid
   LMAXFOCKAE=  -1    L truncation for all-electron charge restoration on plane wave grid
   NMAXFOCKAE=   1    number of basis functions for all-electron charge restoration
   LFOCKAEDFT=     F  apply the AE augmentation even for DFT
   NKREDX  =     1    reduce k-point grid by
   NKREDY  =     1    reduce k-point grid by
   NKREDZ  =     1    reduce k-point grid by
   SHIFTRED=     F    shift reduced grid of Gamma
   HFKIDENT=     F    idential grid for each k-point
   ODDONLY =     F    use only odd q-grid points
   EVENONLY=     F    use only even q-grid points
   HFALPHA =   -1.0000 decay constant for conv. correction
   MCALPHA =    0.0000 extent of test-charge in conv. correction in multipole expansion
   AEXX    =    1.0000 exact exchange contribution
   HFSCREEN=    0.0000 screening length (either q_TF or 0.3 A-1)
   HFSCREENC=   0.0000 screening length for correlation (either q_TF or 0.3 A-1)
   HFRCUT  =    0.0000 spherical cutoff for potential kernel
   ALDAX   =    0.0000 LDA exchange part
   AGGAX   =    0.0000 GGA exchange part
   ALDAC   =    0.0000 LDA correlation
   AGGAC   =    0.0000 GGA correlation
   ENCUTFOCK=  -1.0 apply spherical cutoff to Coloumb kernel
   NBANDSGWLOW=     1    first orbital included in HF term
   NBLOCK_FOCK=    64    blocking factor in FOCK_ACC
 Linear response parameters
   LEPSILON=     F    determine dielectric tensor
   LRPA    =     F    only Hartree local field effects (RPA)
   LNABLA  =     F    use nabla operator in PAW spheres
   LVEL    =     F    velocity operator in full k-point grid
   CSHIFT  =0.1000    complex shift for real part using Kramers Kronig
   OMEGAMAX=  -1.0    maximum frequency
   DEG_THRESHOLD= 0.2000000E-02 threshold for treating states as degnerate
   RTIME   =   -0.100 relaxation time in fs
  (WPLASMAI=    0.000 imaginary part of plasma frequency in eV, 0.658/RTIME)
   DFIELD  = 0.0000000 0.0000000 0.0000000 field for delta impulse in time
 
  Optional k-point grid parameters
   LKPOINTS_OPT  =     F    use optional k-point grid
   KPOINTS_OPT_MODE=     1    mode for optional k-point grid
 
 Orbital magnetization related:
   ORBITALMAG=     F  switch on orbital magnetization
   LCHIMAG   =     F  perturbation theory with respect to B field
   DQ        =  0.001000  dq finite difference perturbation B field
   LLRAUG    =     F  two centre corrections for induced B field



--------------------------------------------------------------------------------------------------------


 Static calculation
 charge density and potential will be updated during run
 non-spin polarized calculation
 Subrot: only subspace diagonalization (rotation)
    band-by band algorithm
 perform sub-space diagonalisation
    before iterative eigenvector-optimisation
 Kerker-like  mixing scheme
 using additional bands          568
 reciprocal scheme for non local part
 use partial core corrections
 calculate Harris-corrections to forces 
   (improved forces if not selfconsistent)
 use gradient corrections 
 use of overlap-Matrix (Vanderbilt PP)
 Gauss-broadening in eV      SIGMA  =   0.10


--------------------------------------------------------------------------------------------------------


  energy-cutoff  :      420.00
  volume of cell :     1403.01
      direct lattice vectors                 reciprocal lattice vectors
    15.439217752  0.004465832 -0.038376892     0.065085042  0.034326685  0.130688713
    -7.186282924 13.630928377 -0.001416099     0.000303919  0.073536393  0.130825479
    -7.182834812-11.890639092  6.700359279     0.000372844  0.000212151  0.150021909

  length of vectors
    15.439266094 15.409246337 15.423204220     0.149979744  0.150076646  0.150022522


 
 old parameters found on file WAVECAR:
  energy-cutoff  :      420.00
  volume of cell :     1403.01
      direct lattice vectors                 reciprocal lattice vectors
    15.439217752  0.004465832 -0.038376892     0.065085042  0.034326685  0.130688713
    -7.186282924 13.630928377 -0.001416099     0.000303919  0.073536393  0.130825479
    -7.182834812-11.890639092  6.700359279     0.000372844  0.000212151  0.150021909

  length of vectors

 
 k-points in units of 2pi/SCALE and weight: KPOINTS                                 
   0.00000000  0.00000000  0.00000000       1.000
 
 k-points in reciprocal lattice and weights: KPOINTS                                 
   0.00000000  0.00000000  0.00000000       1.000
 
 position of ions in fractional coordinates (direct lattice) 
   0.03214020  0.13159647  0.56724307
   0.08093940  0.61713662  0.16608128
   0.13131166  0.56613140  0.03207237
   0.16605247  0.08089017  0.61665695
   0.17893414  0.74713641  0.34935874
   0.19222338  0.20509913  0.67775325
   0.20481709  0.67720899  0.19217243
   0.25289544  0.65072899  0.82158385
   0.32230772  0.80759730  0.79501636
   0.34931946  0.17889111  0.74655676
   0.38292206  0.83394732  0.91929290
   0.43330622  0.96770438  0.86831417
   0.56669375  0.03229564  0.13168583
   0.61707794  0.16605269  0.08070712
   0.65068057  0.82110888  0.25344327
   0.67769228  0.19240270  0.20498365
   0.74710459  0.34927101  0.17841618
   0.79518291  0.32279104  0.80782758
   0.80777660  0.79490087  0.32224675
   0.82106584  0.25286359  0.65064123
   0.83394752  0.91910981  0.38334302
   0.86868834  0.43386860  0.96792762
   0.91906058  0.38286338  0.83391870
   0.96785982  0.86840353  0.43275693
   0.18247943  0.65556576  0.63394506
   0.34410321  0.36627052  0.81766296
   0.36579143  0.81673594  0.34408965
   0.63420857  0.18326405  0.65591038
   0.65589679  0.63372948  0.18233703
   0.81752057  0.34443421  0.36605494
   0.06742193  0.69601104  0.32822922
   0.07318517  0.26430120  0.63986735
   0.09766887  0.47875851  0.63349814
   0.26414833  0.63787280  0.07365918
   0.30271532  0.67149634  0.93284699
   0.32849056  0.06748410  0.69647902
   0.36135303  0.92637320  0.73554137
   0.36730219  0.90336947  0.52141375
   0.47894577  0.63302380  0.09816102
   0.52105423  0.36697617  0.90183896
   0.63269781  0.09663054  0.47858622
   0.63864697  0.07362678  0.26445863
   0.67150947  0.93251592  0.30352101
   0.69728471  0.32850363  0.06715302
   0.73585167  0.36212720  0.92634082
   0.90233115  0.52124152  0.36650188
   0.92681485  0.73569880  0.36013268
   0.93257809  0.30398899  0.67177081
   0.10717448  0.78330733  0.51533456
   0.51533716  0.10679532  0.78280146
   0.78337232  0.51577130  0.10635646
   0.21662770  0.48422870  0.89364353
   0.48466284  0.89320467  0.21719851
   0.89282551  0.21669267  0.48466541
 
 position of ions in cartesian coordinates  (Angst):
  -4.52388317 -4.95095705  3.79931260
  -4.37821175  6.43769394  1.10882413
  -2.27140164  7.33612202  0.20905537
  -2.44692449 -6.22909552  4.12533600
  -5.11591652  6.03086322  2.33290413
  -3.37431139 -5.26236927  4.53352292
  -3.08474249  6.94684887  1.27880509
  -6.67311603 -0.89798737  5.49428014
  -6.53791475  1.55648768  5.31338245
  -1.25473680 -6.43702504  4.98853936
  -6.68409337  0.43820617  6.14371640
  -6.50124571  2.86783369  5.80001762
   7.57134513 -1.12307831  0.86054867
   7.75419311  1.30654888  0.51685004
   2.32483717  8.18177960  1.67202713
   7.60801466  0.18826726  1.34718394
   7.74321629  2.64274213  1.16628635
   4.15484218 -5.20209353  5.38176130
   4.44441119  7.00712439  2.12704337
   6.18601652 -4.28610774  4.32766196
   3.51702459  7.97385078  2.53523010
   3.34150173 -5.59136678  6.45151085
   5.44831152 -4.69293864  5.55174206
   5.59398355  6.69571217  2.86125369
  -6.44726406  1.39877301  4.23972831
  -3.19257720 -4.72839114  5.46491130
  -2.69330113  7.04305679  2.29032977
   3.76340103 -5.29830223  4.37023672
   4.26267732  6.47314643  1.19565489
   7.51736429  0.34598169  2.42083798
  -6.31840665  5.58472248  2.19568066
  -5.36548293 -4.00543421  4.28415826
  -6.48287571 -1.00633871  4.24023897
  -1.03477259  7.82012327  0.48250251
  -6.85236078 -1.93767650  6.23784180
  -0.41601639 -7.36024271  4.65395766
  -6.36144396  3.88288350  4.91321202
  -4.56623892  6.11546212  3.47828427
   2.14038562  7.46364369  0.63843721
  -1.07028522 -5.71888870  6.02212893
   5.63633910 -4.37070655  3.18228181
   7.43154408 -2.13812859  1.74735427
   1.48611650  9.10499778  2.00660882
   7.92246143  3.68243113  0.42272453
   2.10487260 -6.07536816  6.17806378
   7.55297553  2.75109390  2.42032751
   6.43558307  5.75018897  2.37640822
   7.38850658 -3.83996731  4.46488582
  -7.67594086  4.55002746  3.44770442
   1.56620766 -7.84998885  5.22512277
   7.62423645  5.76929366  0.68183275
  -6.55413615 -4.02453846  5.97873350
  -0.49610738  9.59474423  1.43544332
   8.74604099 -2.80527198  3.21286166
 


--------------------------------------------------------------------------------------------------------


 use serial FFT for orbitals x direction half grid
 k-point   1 :   0.0000 0.0000 0.0000  plane waves:   13714

 maximum and minimum number of plane-waves per node :     13714    13714

 maximum number of plane-waves:     13714
 maximum index in each direction: 
   IXMAX=   25   IYMAX=   22   IZMAX=   22
   IXMIN=    0   IYMIN=  -25   IZMIN=  -25


 serial   3D FFT for wavefunctions
 parallel 3D FFT for charge:
    minimum data exchange during FFTs selected (reduces bandwidth)


 FFT grid for exact exchange (Hartree Fock) 
  NGX = 80; NGY = 80; NGZ = 80

 use serial FFT for orbitals x direction half grid
 
 Radii for the augmentation spheres in the non-local exchange
 for species   1 augmentation radius   0.874 (default was   0.699)
       energy cutoff for augmentation   1680.0
 for species   2 augmentation radius   0.735 (default was   0.588)
       energy cutoff for augmentation   1680.0
 for species   3 augmentation radius   0.902 (default was   0.722)
       energy cutoff for augmentation   1680.0
 for species   4 augmentation radius   1.117 (default was   0.893)
       energy cutoff for augmentation   1680.0
 Maximum index for augmentation-charges in exchange         2121
  SETUP_FOCK is finished

 total amount of memory used by VASP MPI-rank0   303184. kBytes
=======================================================================

   base      :      30000. kBytes
   nonl-proj :      29854. kBytes
   fftplans  :      54046. kBytes
   grid      :     155461. kBytes
   one-center:       2178. kBytes
   HF        :       1344. kBytes
   nonlr-proj:       7143. kBytes
   wavefun   :      23158. kBytes
 
     INWAV:  cpu time      0.4093: real time      0.4768
 charge density for first step will be calculated from the start-wavefunctions


--------------------------------------------------------------------------------------------------------


 Maximum index for augmentation-charges         3117 (set IRDMAX)


--------------------------------------------------------------------------------------------------------


 initial charge from wavefunction
    FEWALD:  cpu time      0.0044: real time      0.0044


--------------------------------------- Iteration      1(   1)  ---------------------------------------


    POTLOK:  cpu time      0.7785: real time      0.8027
    SETDIJ:  cpu time      0.7675: real time      0.7695
    EDDIAG:  cpu time    396.9821: real time    398.0310
       DOS:  cpu time      0.0114: real time      0.0114
    --------------------------------------------
      LOOP:  cpu time    398.5396: real time    399.6147

 eigenvalue-minimisations  :     0
 total energy-change (2. order) :-0.8581441E+03  ( 0.0000000E+00)
 number of electron     305.9999976 magnetization 
 augmentation part       49.8211425 magnetization 

 Free energy of the ion-electron system (eV)
  ---------------------------------------------------
  alpha Z        PSCENC =       346.31287096
  Ewald energy   TEWEN  =     19232.08394480
  -Hartree energ DENC   =    -46984.41828881
  -exchange      EXHF   =      4353.41136157
  -V(xc)+E(xc)   XCENC  =         0.00000000
  PAW double counting   =     30855.30445817   -31101.33504047
  entropy T*S    EENTRO =        -0.00000000
  eigenvalues    EBANDS =     -8283.31487729
  atomic energy  EATOM  =     30723.81142458
  Solvation  Ediel_sol  =         0.00000000
  ---------------------------------------------------
  free energy    TOTEN  =      -858.14414649 eV

  energy without entropy =     -858.14414649  energy(sigma->0) =     -858.14414649
  exchange ACFDT corr.  =     -1387.53185234  see jH, gK, PRB 81, 115126


--------------------------------------------------------------------------------------------------------




 average (electrostatic) potential at core
  the test charge radii are     0.6991  0.5883  0.7215  0.8933
  (the norm of the test charge is              1.0000)
       1 -40.6918       2 -39.4190       3 -40.6811       4 -39.4300       5 -43.2253
       6 -38.9000       7 -38.8872       8 -43.2274       9 -38.8928      10 -43.2339
      11 -39.4213      12 -40.6854      13 -40.6856      14 -39.4214      15 -43.2337
      16 -38.8931      17 -43.2277      18 -38.8872      19 -38.8998      20 -43.2254
      21 -39.4298      22 -40.6811      23 -39.4191      24 -40.6918      25 -18.8828
      26 -18.8901      27 -18.8754      28 -18.8754      29 -18.8900      30 -18.8829
      31 -50.7126      32 -49.6599      33 -50.4082      34 -49.6484      35 -50.7103
      36 -50.7144      37 -49.6542      38 -50.4096      39 -50.4191      40 -50.4191
      41 -50.4097      42 -49.6543      43 -50.7146      44 -50.7103      45 -49.6486
      46 -50.4083      47 -49.6599      48 -50.7125      49 -57.2556      50 -57.2624
      51 -57.2548      52 -57.2548      53 -57.2626      54 -57.2557
 
 
 
 E-fermi :  -6.7968     XC(G=0):   0.0000     alpha+bet : -3.5582

 Fermi energy:        -6.7968448223

 k-point     1 :       0.0000    0.0000    0.0000
  band No.  band energies     occupation 
      1     -98.8093      2.00000
      2     -97.5906      2.00000
      3     -97.4592      2.00000
      4     -96.3497      2.00000
      5     -92.0860      2.00000
      6     -85.5487      2.00000
      7     -83.7958      2.00000
      8     -83.4888      2.00000
      9     -83.2346      2.00000
     10     -82.0085      2.00000
     11     -74.3639      2.00000
     12     -74.0641      2.00000
     13     -71.7179      2.00000
     14     -71.6250      2.00000
     15     -71.2251      2.00000
     16     -71.2182      2.00000
     17     -71.2173      2.00000
     18     -71.0644      2.00000
     19     -70.5622      2.00000
     20     -70.4577      2.00000
     21     -31.5670      2.00000
     22     -31.5662      2.00000
     23     -31.5279      2.00000
     24     -31.5271      2.00000
     25     -31.5220      2.00000
     26     -31.3380      2.00000
     27     -31.3380      2.00000
     28     -31.3114      2.00000
     29     -31.2963      2.00000
     30     -31.2962      2.00000
     31     -27.9403      2.00000
     32     -27.9344      2.00000
     33     -27.9325      2.00000
     34     -27.9121      2.00000
     35     -20.0493      2.00000
     36     -20.0487      2.00000
     37     -20.0390      2.00000
     38     -20.0387      2.00000
     39     -20.0367      2.00000
     40     -20.0363      2.00000
     41     -19.7747      2.00000
     42     -19.7745      2.00000
     43     -19.7686      2.00000
     44     -19.7685      2.00000
     45     -19.7685      2.00000
     46     -19.7685      2.00000
     47     -19.7664      2.00000
     48     -19.7663      2.00000
     49     -19.7610      2.00000
     50     -19.7608      2.00000
     51     -19.7579      2.00000
     52     -19.7578      2.00000
     53     -19.7546      2.00000
     54     -19.7539      2.00000
     55     -19.7445      2.00000
     56     -19.7440      2.00000
     57     -19.7432      2.00000
     58     -19.7425      2.00000
     59     -17.6701      2.00000
     60     -17.6598      2.00000
     61     -17.6355      2.00000
     62     -17.6267      2.00000
     63     -17.5811      2.00000
     64     -17.3140      2.00000
     65     -17.2337      2.00000
     66     -17.1839      2.00000
     67     -17.1800      2.00000
     68     -17.1584      2.00000
     69     -17.0267      2.00000
     70     -17.0070      2.00000
     71     -17.0038      2.00000
     72     -16.8692      2.00000
     73     -16.0415      2.00000
     74     -16.0389      2.00000
     75     -15.8996      2.00000
     76     -15.8967      2.00000
     77     -15.8250      2.00000
     78     -15.6135      2.00000
     79     -15.6130      2.00000
     80     -15.6053      2.00000
     81     -15.6051      2.00000
     82     -15.5996      2.00000
     83     -15.5993      2.00000
     84     -15.1299      2.00000
     85     -14.8801      2.00000
     86     -14.7068      2.00000
     87     -14.5478      2.00000
     88     -13.5753      2.00000
     89     -13.5181      2.00000
     90     -13.5096      2.00000
     91     -13.4733      2.00000
     92     -13.4632      2.00000
     93     -12.4665      2.00000
     94     -12.4661      2.00000
     95     -12.4239      2.00000
     96     -12.4210      2.00000
     97     -12.4192      2.00000
     98     -12.4033      2.00000
     99     -12.3968      2.00000
    100     -12.3841      2.00000
    101     -12.3765      2.00000
    102     -12.3718      2.00000
    103     -12.2535      2.00000
    104     -12.2461      2.00000
    105     -12.2204      2.00000
    106     -12.2168      2.00000
    107     -12.2133      2.00000
    108     -12.2112      2.00000
    109     -12.2019      2.00000
    110     -12.1924      2.00000
    111     -12.1599      2.00000
    112     -12.1528      2.00000
    113     -11.8411      2.00000
    114     -11.8295      2.00000
    115     -11.8289      2.00000
    116     -11.8175      2.00000
    117     -11.8173      2.00000
    118     -11.1778      2.00000
    119     -11.1740      2.00000
    120     -11.1723      2.00000
    121     -10.8921      2.00000
    122      -8.8530      2.00000
    123      -8.8477      2.00000
    124      -8.8450      2.00000
    125      -8.7797      2.00000
    126      -8.7729      2.00000
    127      -8.7724      2.00000
    128      -7.8889      2.00000
    129      -7.8787      2.00000
    130      -7.8766      2.00000
    131    -111.6169      2.00000
    132     -71.3134      2.00000
    133     -71.2842      2.00000
    134     -71.2670      2.00000
    135     -34.5850      2.00000
    136     -34.3715      2.00000
    137     -32.7356      2.00000
    138     -32.6960      2.00000
    139     -17.5933      2.00000
    140     -16.5721      2.00000
    141     -15.8115      2.00000
    142     -15.6463      2.00000
    143     -13.2361      2.00000
    144     -12.8293      2.00000
    145     -12.5012      2.00000
    146     -12.2355      2.00000
    147     -11.8428      2.00000
    148     -11.4956      2.00000
    149     -11.2851      2.00000
    150     -11.1021      2.00000
    151     -10.9855      2.00000
    152     -10.2543      2.00000
    153     -10.0215      2.00000
    154       5.6379      0.00000
    155       5.8498      0.00000
    156       7.6318      0.00000
    157       9.2934      0.00000
    158       9.4347      0.00000
    159      10.3621      0.00000
    160      10.6472      0.00000
    161      10.6912      0.00000
    162      10.9049      0.00000
    163      11.5664      0.00000
    164      11.7066      0.00000
    165      12.1713      0.00000
    166      12.2958      0.00000
    167      13.0292      0.00000
    168      13.4772      0.00000
    169      13.8823      0.00000
    170      14.1166      0.00000
    171      14.4856      0.00000
    172      14.7668      0.00000
    173      14.9594      0.00000
    174      15.4002      0.00000
    175      15.9572      0.00000
    176      16.3730      0.00000
    177      16.6816      0.00000
    178      16.8868      0.00000
    179      17.1091      0.00000
    180      17.3091      0.00000
    181      17.5715      0.00000
    182      18.3014      0.00000
    183      18.7060      0.00000
    184      18.8120      0.00000
    185      19.0173      0.00000
    186      19.7958      0.00000
    187      20.0988      0.00000
    188      20.4161      0.00000
    189      20.7766      0.00000
    190      20.9962      0.00000
    191      21.4422      0.00000
    192      21.5735      0.00000
    193      22.3942      0.00000
    194      22.8914      0.00000
    195      23.3887      0.00000
    196      23.6696      0.00000
    197      24.1607      0.00000
    198      24.2973      0.00000
    199      25.2571      0.00000
    200      25.3219      0.00000
    201      25.9529      0.00000
    202      26.4050      0.00000
    203      26.7105      0.00000
    204      27.3050      0.00000
    205      28.0487      0.00000
    206      28.3980      0.00000
    207      28.7947      0.00000
    208      29.3589      0.00000
    209      29.9467      0.00000
    210      30.3952      0.00000
    211      30.6938      0.00000
    212      31.0685      0.00000
    213      32.0780      0.00000
    214      32.4326      0.00000
    215      33.1726      0.00000
    216      33.6946      0.00000
    217      33.9674      0.00000
    218      34.1254      0.00000
    219      34.9320      0.00000
    220      35.3372      0.00000
    221      35.4402      0.00000
    222      36.0218      0.00000
    223      36.4793      0.00000
    224      36.5904      0.00000
    225      37.4273      0.00000
    226      37.4971      0.00000
    227      38.1941      0.00000
    228      38.4908      0.00000
    229      38.8238      0.00000
    230      39.2412      0.00000
    231      39.9204      0.00000
    232      40.0910      0.00000
    233      40.6118      0.00000
    234      41.1526      0.00000
    235      41.7342      0.00000
    236      42.0263      0.00000
    237      42.4191      0.00000
    238      42.7094      0.00000
    239      42.8560      0.00000
    240      43.0289      0.00000
    241      43.3637      0.00000
    242      44.2075      0.00000
    243      44.3933      0.00000
    244      44.6829      0.00000
    245      44.7911      0.00000
    246      45.2872      0.00000
    247      45.6737      0.00000
    248      45.9566      0.00000
    249      46.2609      0.00000
    250      46.5852      0.00000
    251      46.7522      0.00000
    252      47.1341      0.00000
    253      47.6406      0.00000
    254      48.5288      0.00000
    255      48.8434      0.00000
    256      48.9051      0.00000
    257      49.1140      0.00000
    258      49.1825      0.00000
    259      49.6182      0.00000
    260      50.4116      0.00000
    261      51.1937      0.00000
    262      51.5381      0.00000
    263      51.8545      0.00000
    264      52.1955      0.00000
    265      52.6002      0.00000
    266      52.8525      0.00000
    267      53.0660      0.00000
    268      53.5601      0.00000
    269      54.2687      0.00000
    270      54.6980      0.00000
    271      54.9616      0.00000
    272      55.4853      0.00000
    273      56.0661      0.00000
    274      56.7958      0.00000
    275      56.9596      0.00000
    276      57.4275      0.00000
    277      57.8157      0.00000
    278      58.4048      0.00000
    279      59.1329      0.00000
    280      59.4503      0.00000
    281      59.6936      0.00000
    282      60.5278      0.00000
    283      60.8491      0.00000
    284      61.5094      0.00000
    285      62.3169      0.00000
    286      62.6965      0.00000
    287      63.2042      0.00000
    288      63.8708      0.00000
    289      64.2268      0.00000
    290      64.5449      0.00000
    291      65.2273      0.00000
    292      65.8679      0.00000
    293      65.8972      0.00000
    294      66.2674      0.00000
    295      66.9182      0.00000
    296      67.8669      0.00000
    297      68.0348      0.00000
    298      69.1665      0.00000
    299      69.9562      0.00000
    300      70.1416      0.00000
    301      70.6184      0.00000
    302      70.9303      0.00000
    303      71.4304      0.00000
    304      71.7778      0.00000
    305      72.8969      0.00000
    306      73.0758      0.00000
    307      73.7051      0.00000
    308      74.6389      0.00000
    309      74.7815      0.00000
    310      75.7306      0.00000
    311      76.3663      0.00000
    312      76.5482      0.00000
    313      77.2156      0.00000
    314      77.6096      0.00000
    315      78.4652      0.00000
    316      79.0456      0.00000
    317      79.3331      0.00000
    318      79.4238      0.00000
    319      80.2369      0.00000
    320      80.7350      0.00000
    321      81.1155      0.00000
    322      81.5291      0.00000
    323      81.9143      0.00000
    324      82.0523      0.00000
    325      82.5686      0.00000
    326      82.9040      0.00000
    327      83.7121      0.00000
    328      84.2995      0.00000
    329      84.5564      0.00000
    330      85.2962      0.00000
    331      85.5468      0.00000
    332      86.0352      0.00000
    333      86.6898      0.00000
    334      87.2308      0.00000
    335      87.2386      0.00000
    336      87.5269      0.00000
    337      88.3432      0.00000
    338      88.6567      0.00000
    339      88.8457      0.00000
    340      89.2857      0.00000
    341      89.8907      0.00000
    342      90.3961      0.00000
    343      90.8423      0.00000
    344      90.9882      0.00000
    345      91.8798      0.00000
    346      92.2581      0.00000
    347      92.6465      0.00000
    348      93.0034      0.00000
    349      93.5464      0.00000
    350      93.9357      0.00000
    351      94.0851      0.00000
    352      94.7165      0.00000
    353      95.3497      0.00000
    354      95.6155      0.00000
    355      95.9039      0.00000
    356      96.4123      0.00000
    357      96.5113      0.00000
    358      97.1027      0.00000
    359      97.7545      0.00000
    360      97.9696      0.00000
    361      98.5136      0.00000
    362      98.6875      0.00000
    363      98.9387      0.00000
    364      99.2303      0.00000
    365      99.7351      0.00000
    366     100.4368      0.00000
    367     100.7162      0.00000
    368     101.0382      0.00000
    369     101.7573      0.00000
    370     101.9379      0.00000
    371     102.4943      0.00000
    372     102.6449      0.00000
    373     103.1850      0.00000
    374     103.5296      0.00000
    375     103.6463      0.00000
    376     104.1598      0.00000
    377     104.7689      0.00000
    378     105.6385      0.00000
    379     105.8584      0.00000
    380     106.1920      0.00000
    381     106.2405      0.00000
    382     106.5919      0.00000
    383     107.1739      0.00000
    384     107.8242      0.00000
    385     107.9062      0.00000
    386     108.3889      0.00000
    387     108.6704      0.00000
    388     108.7966      0.00000
    389     109.0250      0.00000
    390     109.4257      0.00000
    391     109.5800      0.00000
    392     110.3744      0.00000
    393     110.5684      0.00000
    394     110.9287      0.00000
    395     111.2802      0.00000
    396     111.4201      0.00000
    397     112.0270      0.00000
    398     112.1618      0.00000
    399     112.7267      0.00000
    400     112.9380      0.00000
    401     113.0392      0.00000
    402     113.6239      0.00000
    403     113.8238      0.00000
    404     115.3501      0.00000
    405     115.7321      0.00000
    406     115.9333      0.00000
    407     116.3590      0.00000
    408     116.5384      0.00000
    409     116.9454      0.00000
    410     117.4568      0.00000
    411     117.6849      0.00000
    412     117.9704      0.00000
    413     118.4996      0.00000
    414     118.6907      0.00000
    415     118.7321      0.00000
    416     119.6649      0.00000
    417     119.9516      0.00000
    418     120.5302      0.00000
    419     120.9835      0.00000
    420     121.1640      0.00000
    421     121.3692      0.00000
    422     121.7611      0.00000
    423     122.1700      0.00000
    424     122.9294      0.00000
    425     123.1689      0.00000
    426     123.4990      0.00000
    427     123.7482      0.00000
    428     124.6204      0.00000
    429     124.9466      0.00000
    430     125.0785      0.00000
    431     125.6750      0.00000
    432     126.1152      0.00000
    433     127.0053      0.00000
    434     127.3322      0.00000
    435     127.5996      0.00000
    436     129.3378      0.00000
    437     129.3925      0.00000
    438     130.2338      0.00000
    439     130.6712      0.00000
    440     131.0480      0.00000
    441     131.1507      0.00000
    442     131.5995      0.00000
    443     131.9192      0.00000
    444     132.8623      0.00000
    445     133.7559      0.00000
    446     134.0523      0.00000
    447     134.8209      0.00000
    448     135.0803      0.00000
    449     135.7844      0.00000
    450     136.2141      0.00000
    451     136.4444      0.00000
    452     137.5635      0.00000
    453     137.7867      0.00000
    454     138.9879      0.00000
    455     140.1547      0.00000
    456     140.5811      0.00000
    457     141.8102      0.00000
    458     142.6142      0.00000
    459     143.1528      0.00000
    460     144.7888      0.00000
    461     145.4276      0.00000
    462     146.2868      0.00000
    463     146.9660      0.00000
    464     148.3524      0.00000
    465     149.0113      0.00000
    466     151.4463      0.00000
    467     152.9761      0.00000
    468     155.6204      0.00000
    469     156.6502      0.00000
    470     158.8144      0.00000
    471     159.4051      0.00000
    472     161.7115      0.00000
    473     162.1681      0.00000
    474     162.9364      0.00000
    475     163.5936      0.00000
    476     164.2323      0.00000
    477     165.1329      0.00000
    478     165.6963      0.00000
    479     166.1057      0.00000
    480     166.8635      0.00000
    481     167.6731      0.00000
    482     167.9280      0.00000
    483     168.3045      0.00000
    484     169.1272      0.00000
    485     169.7556      0.00000
    486     170.3976      0.00000
    487     170.4961      0.00000
    488     170.9092      0.00000
    489     171.4247      0.00000
    490     172.0211      0.00000
    491     172.5404      0.00000
    492     172.6254      0.00000
    493     172.7206      0.00000
    494     173.4811      0.00000
    495     173.9710      0.00000
    496     174.1630      0.00000
    497     175.4821      0.00000
    498     175.9295      0.00000
    499     176.0869      0.00000
    500     176.4297      0.00000
    501     176.7221      0.00000
    502     177.4657      0.00000
    503     177.6204      0.00000
    504     178.0636      0.00000
    505     178.1816      0.00000
    506     178.3014      0.00000
    507     179.1623      0.00000
    508     179.8971      0.00000
    509     180.0997      0.00000
    510     180.3248      0.00000
    511     181.0512      0.00000
    512     181.5660      0.00000
    513     181.7817      0.00000
    514     181.9772      0.00000
    515     182.3261      0.00000
    516     182.5844      0.00000
    517     183.4360      0.00000
    518     184.0150      0.00000
    519     184.5432      0.00000
    520     184.9644      0.00000
    521     185.5644      0.00000
    522     186.2395      0.00000
    523     186.7055      0.00000
    524     187.6925      0.00000
    525     188.0534      0.00000
    526     188.5620      0.00000
    527     189.0895      0.00000
    528     190.3288      0.00000
    529     190.7530      0.00000
    530     191.8378      0.00000
    531     191.9720      0.00000
    532     193.7479      0.00000
    533     194.3151      0.00000
    534     194.7186      0.00000
    535     195.4146      0.00000
    536     196.2872      0.00000
    537     196.8978      0.00000
    538     197.6777      0.00000
    539     198.7281      0.00000
    540     199.5597      0.00000
    541     200.1120      0.00000
    542     200.8522      0.00000
    543     201.9277      0.00000
    544     202.2090      0.00000
    545     202.2549      0.00000
    546     202.8880      0.00000
    547     203.5426      0.00000
    548     203.7111      0.00000
    549     204.2823      0.00000
    550     205.1372      0.00000
    551     205.9389      0.00000
    552     206.2606      0.00000
    553     206.8732      0.00000
    554     207.6379      0.00000
    555     207.9548      0.00000
    556     208.1207      0.00000
    557     208.7646      0.00000
    558     209.4653      0.00000
    559     209.6253      0.00000
    560     210.2144      0.00000
    561     210.2543      0.00000
    562     210.8721      0.00000
    563     211.0701      0.00000
    564     211.4252      0.00000
    565     211.8872      0.00000
    566     212.2999      0.00000
    567     212.5449      0.00000
    568     213.3473      0.00000
    569     213.9398      0.00000
    570     214.1545      0.00000
    571     214.4462      0.00000
    572     215.0019      0.00000
    573     215.2011      0.00000
    574     215.7392      0.00000
    575     216.1236      0.00000
    576     216.4350      0.00000
    577     217.1476      0.00000
    578     217.1899      0.00000
    579     217.6525      0.00000
    580     217.9057      0.00000
    581     218.0849      0.00000
    582     218.3712      0.00000
    583     218.6524      0.00000
    584     219.0710      0.00000
    585     219.8547      0.00000
    586     220.0306      0.00000
    587     220.3680      0.00000
    588     220.6551      0.00000
    589     221.1362      0.00000
    590     221.3707      0.00000
    591     222.0060      0.00000
    592     222.3894      0.00000
    593     222.5995      0.00000
    594     222.8020      0.00000
    595     223.0187      0.00000
    596     223.3742      0.00000
    597     223.5274      0.00000
    598     223.9059      0.00000
    599     224.1795      0.00000
    600     224.3928      0.00000
    601     224.7843      0.00000
    602     225.3147      0.00000
    603     225.4777      0.00000
    604     225.5747      0.00000
    605     225.9667      0.00000
    606     226.5969      0.00000
    607     226.9416      0.00000
    608     227.2517      0.00000
    609     227.6599      0.00000
    610     227.7941      0.00000
    611     228.7887      0.00000
    612     229.1028      0.00000
    613     229.3738      0.00000
    614     229.5364      0.00000
    615     229.7925      0.00000
    616     230.2135      0.00000
    617     230.4129      0.00000
    618     230.8066      0.00000
    619     231.3554      0.00000
    620     231.4708      0.00000
    621     231.5973      0.00000
    622     231.9910      0.00000
    623     232.3775      0.00000
    624     232.6377      0.00000
    625     232.8647      0.00000
    626     233.4098      0.00000
    627     233.5906      0.00000
    628     233.9559      0.00000
    629     234.3805      0.00000
    630     234.5974      0.00000
    631     234.9550      0.00000
    632     235.7187      0.00000
    633     236.0459      0.00000
    634     236.0762      0.00000
    635     236.3255      0.00000
    636     236.6111      0.00000
    637     237.0851      0.00000
    638     237.2588      0.00000
    639     237.4967      0.00000
    640     238.2142      0.00000
    641     238.4174      0.00000
    642     238.4367      0.00000
    643     239.2363      0.00000
    644     239.5299      0.00000
    645     239.9057      0.00000
    646     240.4228      0.00000
    647     240.6300      0.00000
    648     240.8852      0.00000
    649     241.1830      0.00000
    650     241.7826      0.00000
    651     242.0517      0.00000
    652     242.1371      0.00000
    653     242.9474      0.00000
    654     243.0825      0.00000
    655     243.5725      0.00000
    656     244.0118      0.00000
    657     244.1824      0.00000
    658     244.5498      0.00000
    659     244.5911      0.00000
    660     244.9449      0.00000
    661     245.6451      0.00000
    662     246.0991      0.00000
    663     246.3927      0.00000
    664     246.5791      0.00000
    665     246.8957      0.00000
    666     247.5705      0.00000
    667     247.8720      0.00000
    668     248.3757      0.00000
    669     248.8957      0.00000
    670     249.7956      0.00000
    671     250.4951      0.00000
    672     251.0616      0.00000
    673     251.6203      0.00000
    674     252.0166      0.00000
    675     252.5941      0.00000
    676     252.9035      0.00000
    677     254.3552      0.00000
    678     254.6091      0.00000
    679     255.5073      0.00000
    680     255.7610      0.00000
    681     256.3808      0.00000
    682     257.4595      0.00000
    683     257.5014      0.00000
    684     259.6663      0.00000
    685     260.5869      0.00000
    686     261.2907      0.00000
    687     262.1201      0.00000
    688     263.5933      0.00000
    689     263.6795      0.00000
    690     264.8224      0.00000
    691     266.0183      0.00000
    692     266.5786      0.00000
    693     267.4921      0.00000
    694     269.7187      0.00000
    695     269.9726      0.00000
    696     271.4487      0.00000
    697     272.0359      0.00000
    698     272.3310      0.00000
    699     273.4453      0.00000
    700     273.8715      0.00000
    701     275.3047      0.00000
    702     275.5088      0.00000
    703     277.1085      0.00000
    704     278.7586      0.00000
    705     279.6802      0.00000
    706     280.7557      0.00000
    707     282.4500      0.00000
    708     284.7293      0.00000
    709     288.5700      0.00000
    710     289.5172      0.00000
    711     291.6068      0.00000
    712     291.9679      0.00000
    713     294.0073      0.00000
    714     295.0589      0.00000
    715     296.0728      0.00000
    716     300.0787      0.00000
    717     304.0526      0.00000
    718     304.8071      0.00000
    719     307.0648      0.00000
    720     309.3647      0.00000
    721     324.0745      0.00000


--------------------------------------------------------------------------------------------------------


 soft charge-density along one line, spin component           1
         0         1         2         3         4         5         6         7         8         9
 total charge-density along one line
 
 pseudopotential strength for first ion, spin component:           1
  9.114 -13.866   0.007   0.002  -0.007   0.031   0.009  -0.033
-13.866  23.855  -0.008  -0.002   0.009  -0.060  -0.018   0.065
  0.007  -0.008  -3.481   0.004  -0.002  -1.026  -0.017   0.009
  0.002  -0.002   0.004  -3.469   0.010  -0.017  -1.074  -0.040
 -0.007   0.009  -0.002   0.010  -3.472   0.009  -0.040  -1.061
  0.031  -0.060  -1.026  -0.017   0.009  52.213   0.042  -0.027
  0.009  -0.018  -0.017  -1.074  -0.040   0.042  52.315   0.085
 -0.033   0.065   0.009  -0.040  -1.061  -0.027   0.085  52.290
 total augmentation occupancy for first ion, spin component:           1
  1.609   0.061  -0.081  -0.017   0.093  -0.002   0.001   0.003
  0.061   0.003   0.001   0.001  -0.001   0.000   0.000  -0.000
 -0.081   0.001   1.052   0.125  -0.107   0.061   0.014  -0.015
 -0.017   0.001   0.125   1.270   0.188   0.014   0.070   0.010
  0.093  -0.001  -0.107   0.188   1.226  -0.015   0.010   0.070
 -0.002   0.000   0.061   0.014  -0.015   0.004   0.001  -0.002
  0.001   0.000   0.014   0.070   0.010   0.001   0.004   0.000
  0.003  -0.000  -0.015   0.010   0.070  -0.002   0.000   0.005


------------------------ aborting loop because EDIFF is reached ----------------------------------------





 total charge

# of ion       s       p       d       f       tot
--------------------------------------------------
    1        0.824   1.624   0.000   0.000   2.448
    2        0.833   1.725   0.000   0.000   2.558
    3        0.824   1.624   0.000   0.000   2.448
    4        0.833   1.725   0.000   0.000   2.558
    5        0.839   1.546   0.000   0.000   2.385
    6        0.846   1.715   0.000   0.000   2.561
    7        0.846   1.715   0.000   0.000   2.561
    8        0.839   1.545   0.000   0.000   2.385
    9        0.846   1.714   0.000   0.000   2.561
   10        0.839   1.545   0.000   0.000   2.385
   11        0.833   1.725   0.000   0.000   2.558
   12        0.824   1.624   0.000   0.000   2.448
   13        0.824   1.624   0.000   0.000   2.448
   14        0.833   1.725   0.000   0.000   2.558
   15        0.839   1.545   0.000   0.000   2.385
   16        0.846   1.714   0.000   0.000   2.561
   17        0.839   1.545   0.000   0.000   2.385
   18        0.846   1.715   0.000   0.000   2.561
   19        0.846   1.715   0.000   0.000   2.561
   20        0.839   1.546   0.000   0.000   2.385
   21        0.833   1.725   0.000   0.000   2.558
   22        0.824   1.624   0.000   0.000   2.448
   23        0.833   1.725   0.000   0.000   2.558
   24        0.824   1.624   0.000   0.000   2.448
   25        0.664   0.048   0.000   0.000   0.712
   26        0.664   0.048   0.000   0.000   0.712
   27        0.664   0.048   0.000   0.000   0.712
   28        0.664   0.048   0.000   0.000   0.712
   29        0.664   0.048   0.000   0.000   0.712
   30        0.664   0.048   0.000   0.000   0.712
   31        1.542   3.670   0.000   0.000   5.212
   32        1.525   3.648   0.000   0.000   5.172
   33        1.554   3.620   0.000   0.000   5.174
   34        1.525   3.646   0.000   0.000   5.171
   35        1.541   3.670   0.000   0.000   5.211
   36        1.541   3.670   0.000   0.000   5.211
   37        1.525   3.647   0.000   0.000   5.172
   38        1.554   3.620   0.000   0.000   5.174
   39        1.554   3.620   0.000   0.000   5.174
   40        1.554   3.620   0.000   0.000   5.174
   41        1.554   3.620   0.000   0.000   5.174
   42        1.525   3.647   0.000   0.000   5.172
   43        1.541   3.670   0.000   0.000   5.211
   44        1.541   3.670   0.000   0.000   5.211
   45        1.525   3.646   0.000   0.000   5.171
   46        1.554   3.620   0.000   0.000   5.174
   47        1.525   3.648   0.000   0.000   5.172
   48        1.542   3.670   0.000   0.000   5.212
   49        2.071   6.276   5.722   0.014  14.082
   50        2.071   6.275   5.722   0.014  14.082
   51        2.071   6.276   5.722   0.014  14.083
   52        2.071   6.276   5.722   0.014  14.083
   53        2.071   6.275   5.722   0.014  14.082
   54        2.071   6.276   5.722   0.014  14.082
--------------------------------------------------
tot         64.191 143.211  34.332   0.085 241.820
 
    CHARGE:  cpu time      0.3862: real time      0.3871
    FORLOC:  cpu time      0.3440: real time      0.3450
    FORHF :  cpu time     49.8692: real time     49.9983
    FORNL :  cpu time      5.5752: real time      5.5894
    FORCOR:  cpu time      1.4407: real time      1.4445
    FORHAR:  cpu time      0.4901: real time      0.4913
    MIXING:  cpu time      0.0107: real time      0.0107
    OFIELD:  cpu time      0.0001: real time      0.0001

 VOLUME and BASIS-vectors are now :
 -----------------------------------------------------------------------------
  energy-cutoff  :      420.00
  volume of cell :     1403.01
      direct lattice vectors                 reciprocal lattice vectors
    15.439217752  0.004465832 -0.038376892     0.065085042  0.034326685  0.130688713
    -7.186282924 13.630928377 -0.001416099     0.000303919  0.073536393  0.130825479
    -7.182834812-11.890639092  6.700359279     0.000372844  0.000212151  0.150021909

  length of vectors
    15.439266094 15.409246337 15.423204220     0.149979744  0.150076646  0.150022522


 FORCES acting on ions
    electron-ion (+dipol)            ewald-force                    non-local-force                 convergence-correction
 -----------------------------------------------------------------------------------------------
   -.190E+03 0.710E+02 0.247E+02   0.193E+03 -.743E+02 -.259E+02   -.367E+01 0.355E+01 0.127E+01   0.107E-05 0.142E-05 0.323E-06
   -.123E+03 -.466E+02 -.634E+00   0.125E+03 0.472E+02 -.164E+01   -.100E+01 -.277E+00 0.966E+00   -.629E-05 -.202E-05 0.125E-05
   0.150E+03 0.130E+03 -.452E+02   -.155E+03 -.132E+03 0.448E+02   0.418E+01 0.165E+01 0.200E+00   0.524E-06 -.117E-05 0.488E-05
   0.923E+02 -.910E+02 -.237E+02   -.944E+02 0.917E+02 0.220E+02   0.110E+01 -.547E+00 0.708E+00   0.488E-06 0.547E-08 -.614E-08
   -.259E+03 -.772E+02 0.108E+03   0.263E+03 0.787E+02 -.111E+03   -.393E+01 -.219E+01 0.515E+01   -.221E-05 -.970E-06 0.881E-06
   -.747E+02 -.806E+02 -.676E+02   0.749E+02 0.824E+02 0.693E+02   -.357E+00 -.173E+01 -.188E+01   0.513E-06 0.735E-06 -.115E-06
   -.371E+02 0.581E+02 -.110E+03   0.385E+02 -.582E+02 0.112E+03   -.138E+01 0.370E-01 -.219E+01   -.954E-05 -.346E-05 0.868E-05
   -.518E+02 -.284E+03 0.360E+02   0.520E+02 0.289E+03 -.354E+02   0.180E+00 -.581E+01 -.272E+01   -.235E-05 0.315E-04 -.209E-04
   -.672E+02 0.489E+02 0.987E+02   0.680E+02 -.487E+02 -.101E+03   -.680E+00 0.512E-01 0.249E+01   -.121E-07 -.430E-05 0.341E-05
   0.227E+03 -.174E+03 0.562E+02   -.231E+03 0.175E+03 -.578E+02   0.575E+01 -.143E+01 0.341E+01   0.205E-06 -.351E-06 0.900E-07
   -.158E+02 -.113E+03 0.648E+02   0.161E+02 0.116E+03 -.637E+02   -.216E+00 -.135E+01 -.355E+00   -.117E-05 0.193E-05 0.244E-05
   -.448E+02 0.191E+03 -.559E+02   0.443E+02 -.195E+03 0.585E+02   0.534E+00 0.438E+01 -.284E+01   0.216E-06 -.441E-05 0.942E-06
   0.448E+02 -.191E+03 0.559E+02   -.443E+02 0.195E+03 -.585E+02   -.458E+00 -.380E+01 0.237E+01   0.100E-04 0.194E-04 -.281E-04
   0.158E+02 0.113E+03 -.648E+02   -.161E+02 -.116E+03 0.637E+02   0.232E+00 0.136E+01 0.347E+00   0.533E-06 -.373E-05 -.268E-06
   -.227E+03 0.174E+03 -.562E+02   0.231E+03 -.175E+03 0.578E+02   -.575E+01 0.143E+01 -.341E+01   0.214E-05 0.538E-06 0.723E-06
   0.672E+02 -.489E+02 -.987E+02   -.680E+02 0.487E+02 0.101E+03   0.677E+00 -.377E-01 -.249E+01   0.400E-05 -.150E-05 -.405E-05
   0.518E+02 0.284E+03 -.360E+02   -.520E+02 -.289E+03 0.354E+02   -.659E-01 0.647E+01 0.227E+01   0.153E-06 -.231E-05 0.149E-06
   0.371E+02 -.581E+02 0.110E+03   -.385E+02 0.582E+02 -.112E+03   0.137E+01 -.452E-01 0.219E+01   -.701E-05 -.533E-06 -.280E-05
   0.747E+02 0.806E+02 0.676E+02   -.749E+02 -.824E+02 -.693E+02   0.358E+00 0.173E+01 0.189E+01   0.111E-05 0.950E-07 -.129E-06
   0.259E+03 0.772E+02 -.108E+03   -.263E+03 -.787E+02 0.111E+03   0.432E+01 0.223E+01 -.434E+01   -.173E-04 0.600E-05 -.252E-04
   -.923E+02 0.910E+02 0.237E+02   0.944E+02 -.917E+02 -.220E+02   -.109E+01 0.555E+00 -.717E+00   0.161E-05 0.730E-06 0.252E-07
   -.150E+03 -.130E+03 0.452E+02   0.155E+03 0.132E+03 -.448E+02   -.488E+01 -.192E+01 -.326E+00   -.445E-05 -.131E-05 -.772E-06
   0.123E+03 0.466E+02 0.634E+00   -.125E+03 -.472E+02 0.164E+01   0.984E+00 0.285E+00 -.966E+00   -.150E-04 -.148E-05 -.589E-05
   0.190E+03 -.710E+02 -.247E+02   -.193E+03 0.743E+02 0.259E+02   0.367E+01 -.354E+01 -.128E+01   0.617E-06 -.194E-06 0.109E-07
   -.362E+02 0.178E+02 0.568E+02   0.367E+02 -.186E+02 -.624E+02   -.469E+00 0.841E+00 0.568E+01   -.165E-06 -.657E-06 0.793E-06
   -.327E+02 -.485E+02 -.377E+02   0.336E+02 0.514E+02 0.425E+02   -.963E+00 -.281E+01 -.493E+01   0.780E-07 0.206E-06 -.105E-06
   -.282E+02 0.270E+02 -.582E+02   0.302E+02 -.265E+02 0.634E+02   -.206E+01 -.518E+00 -.535E+01   -.827E-06 0.303E-06 0.210E-05
   0.282E+02 -.270E+02 0.582E+02   -.302E+02 0.265E+02 -.634E+02   0.206E+01 0.518E+00 0.535E+01   -.372E-06 0.484E-06 -.652E-06
   0.327E+02 0.485E+02 0.377E+02   -.336E+02 -.514E+02 -.425E+02   0.963E+00 0.281E+01 0.493E+01   0.287E-06 -.956E-08 -.630E-07
   0.362E+02 -.178E+02 -.568E+02   -.367E+02 0.186E+02 0.624E+02   0.469E+00 -.841E+00 -.568E+01   0.678E-06 0.163E-06 0.212E-07
   -.276E+03 -.104E+03 0.624E+02   0.242E+03 0.901E+02 -.672E+02   0.242E+02 0.948E+01 0.236E+01   -.168E-05 -.153E-05 0.610E-06
   -.486E+03 0.323E+02 0.260E+02   0.472E+03 -.732E+01 -.129E+02   0.101E+02 -.154E+02 -.972E+01   0.210E-05 0.367E-05 0.441E-05
   -.242E+03 -.447E+03 0.211E+03   0.250E+03 0.454E+03 -.256E+03   -.512E+01 -.462E+01 0.294E+02   0.511E-05 0.608E-05 0.663E-05
   0.250E+03 0.382E+03 -.188E+03   -.221E+03 -.375E+03 0.200E+03   -.144E+02 -.360E+01 -.574E+01   -.384E-05 -.191E-04 0.193E-04
   -.262E+02 -.285E+03 0.920E+02   0.217E+02 0.256E+03 -.704E+02   0.261E+01 0.156E+02 -.119E+02   0.221E-05 0.958E-04 -.132E-04
   0.239E+03 -.184E+03 -.294E+01   -.216E+03 0.158E+03 -.740E+01   -.175E+02 0.181E+02 0.622E+01   -.499E-07 -.122E-05 0.438E-06
   -.219E+03 0.439E+03 -.343E+02   0.226E+03 -.419E+03 0.103E+02   -.317E+01 -.127E+02 0.163E+02   -.642E-06 -.402E-05 0.149E-05
   -.546E+03 -.209E+02 0.376E+02   0.575E+03 0.271E+02 -.185E+01   -.187E+02 -.435E+01 -.234E+02   -.298E-05 -.124E-05 0.176E-05
   -.282E+03 0.471E+03 -.218E+02   0.285E+03 -.502E+03 -.124E+02   -.177E+01 0.203E+02 0.224E+02   0.481E-05 0.118E-06 -.272E-05
   0.282E+03 -.471E+03 0.218E+02   -.285E+03 0.502E+03 0.124E+02   0.178E+01 -.203E+02 -.224E+02   0.229E-06 -.307E-06 -.316E-08
   0.546E+03 0.209E+02 -.376E+02   -.575E+03 -.271E+02 0.185E+01   0.152E+02 0.311E+01 0.199E+02   -.172E-04 -.509E-04 -.247E-04
   0.219E+03 -.439E+03 0.343E+02   -.226E+03 0.419E+03 -.103E+02   0.385E+01 0.101E+02 -.116E+02   -.856E-04 0.345E-04 -.237E-04
   -.239E+03 0.184E+03 0.294E+01   0.216E+03 -.158E+03 0.740E+01   0.175E+02 -.181E+02 -.621E+01   -.296E-06 -.367E-05 0.297E-05
   0.262E+02 0.285E+03 -.920E+02   -.217E+02 -.256E+03 0.704E+02   -.319E+01 -.215E+02 0.142E+02   -.385E-06 -.248E-05 0.443E-06
   -.250E+03 -.382E+03 0.188E+03   0.221E+03 0.375E+03 -.200E+03   0.182E+02 0.589E+01 0.824E+01   -.119E-05 -.539E-06 0.201E-06
   0.242E+03 0.447E+03 -.211E+03   -.250E+03 -.454E+03 0.256E+03   0.517E+01 0.466E+01 -.294E+02   0.798E-06 -.287E-05 0.642E-06
   0.486E+03 -.323E+02 -.260E+02   -.472E+03 0.732E+01 0.129E+02   -.103E+02 0.155E+02 0.943E+01   0.533E-06 -.952E-06 0.176E-06
   0.276E+03 0.104E+03 -.624E+02   -.242E+03 -.901E+02 0.672E+02   -.241E+02 -.949E+01 -.234E+01   0.199E-04 0.111E-04 -.110E-04
   0.665E+03 0.726E+03 -.328E+03   -.660E+03 -.722E+03 0.325E+03   -.240E+02 -.368E+02 0.159E+02   0.368E-06 -.583E-05 0.205E-05
   -.101E+04 0.216E+03 0.727E+02   0.100E+04 -.215E+03 -.737E+02   0.314E+02 0.274E+02 0.229E+01   -.375E-05 -.471E-05 0.242E-05
   0.334E+03 -.972E+03 0.170E+03   -.332E+03 0.965E+03 -.170E+03   -.316E+02 0.374E+02 0.589E+01   -.101E-05 -.255E-05 0.222E-06
   -.334E+03 0.972E+03 -.170E+03   0.332E+03 -.965E+03 0.170E+03   0.151E+02 -.380E+02 0.353E+01   0.424E-04 0.821E-05 -.301E-04
   0.101E+04 -.216E+03 -.727E+02   -.100E+04 0.215E+03 0.737E+02   -.153E+01 0.582E+01 -.124E+02   0.106E-03 0.553E-05 -.860E-04
   -.665E+03 -.726E+03 0.328E+03   0.660E+03 0.722E+03 -.325E+03   0.253E+01 0.334E+02 -.162E+02   0.352E-04 0.119E-04 0.238E-04
 -----------------------------------------------------------------------------------------------
   0.377E-02 -.452E-02 -.199E-02   0.000E+00 -.341E-12 0.114E-12   -.788E+01 0.229E+02 0.438E+01   0.583E-04 0.110E-03 -.186E-03
 
 
 POSITION                                       TOTAL-FORCE (eV/Angst)
 -----------------------------------------------------------------------------------
     -4.52388     -4.95096      3.79931        -0.715740      0.326266      0.062865
     -4.37821      6.43769      1.10882         0.387747     -0.227523     -1.112053
     -2.27140      7.33612      0.20906         0.520164     -0.290327     -0.275439
     -2.44692     -6.22910      4.12534        -0.563486     -0.505526     -0.886974
     -5.11592      6.03086      2.33290        -1.024467     -1.272483      2.518047
     -3.37431     -5.26237      4.53352         0.022451     -0.559093     -0.376073
     -3.08474      6.94685      1.27881         0.075317     -0.432098     -0.415442
     -6.67312     -0.89799      5.49428         0.470453     -2.334283     -2.067973
     -6.53791      1.55649      5.31338         0.119168     -0.294152      0.245225
     -1.25474     -6.43703      4.98854         2.502583     -0.566051      1.729629
     -6.68409      0.43821      6.14372         0.106834      0.365167      0.664037
     -6.50125      2.86783      5.80002         0.281993      0.591596     -0.554361
      7.57135     -1.12308      0.86055         0.084674     -0.856463     -0.081309
      7.75419      1.30655      0.51685         0.200626     -1.204926     -0.831265
      2.32484      8.18178      1.67203        -2.211353     -0.281082     -1.888233
      7.60801      0.18827      1.34718         0.168208     -0.540819     -0.407055
      7.74322      2.64274      1.16629        -0.066018      2.140046      1.464436
      4.15484     -5.20209      5.38176         0.207256     -0.424910      0.261333
      4.44441      7.00712      2.12704         0.269694     -0.287680      0.221398
      6.18602     -4.28611      4.32766         1.696437      0.466101     -1.873120
      3.51702      7.97385      2.53523         0.861941     -0.335683      0.718868
      3.34150     -5.59137      6.45151        -0.924881     -0.830990     -0.009246
      5.44831     -4.69294      5.55174        -0.115545     -0.613661      0.953721
      5.59398      6.69571      2.86125         1.007618     -1.163610     -0.227246
     -6.44726      1.39877      4.23973         0.125171     -0.278653      0.558835
     -3.19258     -4.72839      5.46491         0.003627     -0.692640     -0.655807
     -2.69330      7.04306      2.29033        -0.028347     -0.490557     -0.706543
      3.76340     -5.29830      4.37024         0.319209     -0.358277      0.547935
      4.26268      6.47315      1.19565         0.287175     -0.156105      0.497290
      7.51736      0.34598      2.42084         0.165549     -0.569916     -0.717386
     -6.31841      5.58472      2.19568         7.925468      2.503259      0.232793
     -5.36548     -4.00543      4.28416         3.568726     -4.024673     -3.559395
     -6.48288     -1.00634      4.24024        -1.063069     -2.383628      8.201313
     -1.03477      7.82012      0.48250        -0.617696     -0.788565     -0.296764
     -6.85236     -1.93768      6.23784         0.661110      0.923625     -1.777505
     -0.41602     -7.36024      4.65396        -5.688459      5.326850      1.383778
     -6.36144      3.88288      4.91321         0.406111     -3.879623      4.810958
     -4.56624      6.11546      3.47828        -5.538704     -2.105385     -6.465554
      2.14039      7.46364      0.63844        -1.134608      5.416138      6.104478
     -1.07029     -5.71889      6.02213         1.435235     -6.237715     -6.294015
      5.63634     -4.37071      3.18228         2.323051      0.014543      2.788926
      7.43154     -2.13813      1.74735         0.562070      0.425793     -0.322394
      1.48612      9.10500      2.00661         5.971799     -6.173095     -1.533564
      7.92246      3.68243      0.42272        -0.951026     -7.599736      3.901943
      2.10487     -6.07537      6.17806         4.710644      2.224170      2.645309
      7.55298      2.75109      2.42033         1.406689      1.569251     -8.404863
      6.43558      5.75019      2.37641        -3.464330      3.247478      3.102573
      7.38851     -3.83997      4.46489        -7.595201     -3.358073     -0.369762
     -7.67594      4.55003      3.44770       -19.012710    -43.766748      7.197536
      1.56621     -7.84999      5.22512        30.411820     31.848243     -8.766435
      7.62424      5.76929      0.68183       -39.601481     31.707864     -1.550076
     -6.55414     -4.02454      5.97873        23.448496    -33.165980     10.801164
     -0.49611      9.59474      1.43544        -0.227779      0.499588     -1.576634
      8.74604     -2.80527      3.21286        -2.170212     39.454754     -7.611907
 -----------------------------------------------------------------------------------
    total drift:                               -7.853126     22.913552      4.284402


--------------------------------------------------------------------------------------------------------



  FREE ENERGIE OF THE ION-ELECTRON SYSTEM (eV)
  ---------------------------------------------------
  free  energy   TOTEN  =      -858.14414649 eV

  energy  without entropy=     -858.14414649  energy(sigma->0) =     -858.14414649
 


--------------------------------------------------------------------------------------------------------


    POTLOK:  cpu time      1.5027: real time      1.5066


--------------------------------------------------------------------------------------------------------


 writing wavefunctions
     LOOP+:  cpu time    466.9891: real time    469.3473
    4ORBIT:  cpu time      0.0000: real time      0.0000



 total charge

# of ion       s       p       d       f       tot
--------------------------------------------------
    1        0.824   1.624   0.000   0.000   2.448
    2        0.833   1.725   0.000   0.000   2.558
    3        0.824   1.624   0.000   0.000   2.448
    4        0.833   1.725   0.000   0.000   2.558
    5        0.839   1.546   0.000   0.000   2.385
    6        0.846   1.715   0.000   0.000   2.561
    7        0.846   1.715   0.000   0.000   2.561
    8        0.839   1.545   0.000   0.000   2.385
    9        0.846   1.714   0.000   0.000   2.561
   10        0.839   1.545   0.000   0.000   2.385
   11        0.833   1.725   0.000   0.000   2.558
   12        0.824   1.624   0.000   0.000   2.448
   13        0.824   1.624   0.000   0.000   2.448
   14        0.833   1.725   0.000   0.000   2.558
   15        0.839   1.545   0.000   0.000   2.385
   16        0.846   1.714   0.000   0.000   2.561
   17        0.839   1.545   0.000   0.000   2.385
   18        0.846   1.715   0.000   0.000   2.561
   19        0.846   1.715   0.000   0.000   2.561
   20        0.839   1.546   0.000   0.000   2.385
   21        0.833   1.725   0.000   0.000   2.558
   22        0.824   1.624   0.000   0.000   2.448
   23        0.833   1.725   0.000   0.000   2.558
   24        0.824   1.624   0.000   0.000   2.448
   25        0.664   0.048   0.000   0.000   0.712
   26        0.664   0.048   0.000   0.000   0.712
   27        0.664   0.048   0.000   0.000   0.712
   28        0.664   0.048   0.000   0.000   0.712
   29        0.664   0.048   0.000   0.000   0.712
   30        0.664   0.048   0.000   0.000   0.712
   31        1.542   3.670   0.000   0.000   5.212
   32        1.525   3.648   0.000   0.000   5.172
   33        1.554   3.620   0.000   0.000   5.174
   34        1.525   3.646   0.000   0.000   5.171
   35        1.541   3.670   0.000   0.000   5.211
   36        1.541   3.670   0.000   0.000   5.211
   37        1.525   3.647   0.000   0.000   5.172
   38        1.554   3.620   0.000   0.000   5.174
   39        1.554   3.620   0.000   0.000   5.174
   40        1.554   3.620   0.000   0.000   5.174
   41        1.554   3.620   0.000   0.000   5.174
   42        1.525   3.647   0.000   0.000   5.172
   43        1.541   3.670   0.000   0.000   5.211
   44        1.541   3.670   0.000   0.000   5.211
   45        1.525   3.646   0.000   0.000   5.171
   46        1.554   3.620   0.000   0.000   5.174
   47        1.525   3.648   0.000   0.000   5.172
   48        1.542   3.670   0.000   0.000   5.212
   49        2.071   6.276   5.722   0.014  14.082
   50        2.071   6.275   5.722   0.014  14.082
   51        2.071   6.276   5.722   0.014  14.083
   52        2.071   6.276   5.722   0.014  14.083
   53        2.071   6.275   5.722   0.014  14.082
   54        2.071   6.276   5.722   0.014  14.082
--------------------------------------------------
tot         64.191 143.211  34.332   0.085 241.820
 

 total amount of memory used by VASP MPI-rank0  1380539. kBytes
=======================================================================

   base      :      30000. kBytes
   nonl-proj :      29854. kBytes
   fftplans  :      54046. kBytes
   grid      :     155461. kBytes
   one-center:       2178. kBytes
   HF        :       1344. kBytes
   nonlr-proj:       7143. kBytes
   wavefun   :      23158. kBytes
   fock_wrk  :    1077355. kBytes
 
  
  
 General timing and accounting informations for this job:
 ========================================================
  
                  Total CPU time used (sec):      482.047
                            User time (sec):      462.811
                          System time (sec):       19.236
                         Elapsed time (sec):      485.225
  
                   Maximum memory used (kb):     4648224.
                   Average memory used (kb):          N/A
  
                          Minor page faults:      1765395
                          Major page faults:            5
                 Voluntary context switches:         7157
