 vasp.6.2.1 16May21 (build Aug 03 2024 02:50:01) gamma-only                     
  
 executed on             LinuxIFC date 2024.10.28  13:14:59
 running on    8 total cores
 distrk:  each k-point on    8 cores,    1 groups
 distr:  one band on NCORE=   1 cores,    8 groups


--------------------------------------------------------------------------------------------------------


 INCAR:
   SYSTEM = MOFCO2
   ISMEAR = 0
   SIGMA = 0.1
   ENCUT = 420.
   PREC = Accurate
   ISYM = -1
   NELM = 1
   IBRION = -1
   NSW = 0
   ALGO = sub
   NBANDS = 1496
   NBANDSHIGH = 1496
   NBANDSLOW = 131
   TIME = 0.05
   LHFCALC = .TRUE.
   AEXX = 1
   LASPH = .TRUE.
   PRECFOCK = Normal
   LWAVE = .TRUE.
   LCHARG = .TRUE.
   NWRITE = 1
   LORBIT = 11

 POTCAR:    PAW_PBE C_GW 28Sep2005                
 POTCAR:    PAW_PBE H_GW 21Apr2008                
 POTCAR:    PAW_PBE O_GW 28Sep2005                
 POTCAR:    PAW_PBE Fe_sv_GW 05Dec2013            
 -----------------------------------------------------------------------------
|                                                                             |
|           W    W    AA    RRRRR   N    N  II  N    N   GGGG   !!!           |
|           W    W   A  A   R    R  NN   N  II  NN   N  G    G  !!!           |
|           W    W  A    A  R    R  N N  N  II  N N  N  G       !!!           |
|           W WW W  AAAAAA  RRRRR   N  N N  II  N  N N  G  GGG   !            |
|           WW  WW  A    A  R   R   N   NN  II  N   NN  G    G                |
|           W    W  A    A  R    R  N    N  II  N    N   GGGG   !!!           |
|                                                                             |
|     For optimal performance we recommend to set                             |
|       NCORE = 2 up to number-of-cores-per-socket                            |
|     NCORE specifies how many cores store one orbital (NPAR=cpu/NCORE).      |
|     This setting can greatly improve the performance of VASP for DFT.       |
|     The default, NCORE=1 might be grossly inefficient on modern             |
|     multi-core architectures or massively parallel machines. Do your        |
|     own testing! More info at https://www.vasp.at/wiki/index.php/NCORE      |
|     Unfortunately you need to use the default for GW and RPA                |
|     calculations (for HF NCORE is supported but not extensively tested      |
|     yet).                                                                   |
|                                                                             |
 -----------------------------------------------------------------------------

 POTCAR:    PAW_PBE C_GW 28Sep2005                
  local pseudopotential read in
  kinetic energy density of atom read in
  atomic valenz-charges read in
  non local Contribution for L=           0  read in
    real space projection operators read in
  non local Contribution for L=           0  read in
    real space projection operators read in
  non local Contribution for L=           1  read in
    real space projection operators read in
  non local Contribution for L=           1  read in
    real space projection operators read in
    PAW grid and wavefunctions read in
 
   number of l-projection  operators is LMAX  =           4
   number of lm-projection operators is LMMAX =           8
 
 POTCAR:    PAW_PBE H_GW 21Apr2008                
  local pseudopotential read in
  kinetic energy density of atom read in
  atomic valenz-charges read in
  non local Contribution for L=           0  read in
    real space projection operators read in
  non local Contribution for L=           0  read in
    real space projection operators read in
  non local Contribution for L=           1  read in
    real space projection operators read in
  non local Contribution for L=           1  read in
    real space projection operators read in
  non local Contribution for L=           2  read in
    real space projection operators read in
    PAW grid and wavefunctions read in
 
   number of l-projection  operators is LMAX  =           5
   number of lm-projection operators is LMMAX =          13
 
 POTCAR:    PAW_PBE O_GW 28Sep2005                
  local pseudopotential read in
  kinetic energy density of atom read in
  atomic valenz-charges read in
  non local Contribution for L=           0  read in
    real space projection operators read in
  non local Contribution for L=           0  read in
    real space projection operators read in
  non local Contribution for L=           1  read in
    real space projection operators read in
  non local Contribution for L=           1  read in
    real space projection operators read in
    PAW grid and wavefunctions read in
 
   number of l-projection  operators is LMAX  =           4
   number of lm-projection operators is LMMAX =           8
 
 POTCAR:    PAW_PBE Fe_sv_GW 05Dec2013            
  local pseudopotential read in
  partial core-charges read in
  partial kinetic energy density read in
  kinetic energy density of atom read in
  atomic valenz-charges read in
  non local Contribution for L=           0  read in
    real space projection operators read in
  non local Contribution for L=           0  read in
    real space projection operators read in
  non local Contribution for L=           0  read in
    real space projection operators read in
  non local Contribution for L=           1  read in
    real space projection operators read in
  non local Contribution for L=           1  read in
    real space projection operators read in
  non local Contribution for L=           1  read in
    real space projection operators read in
  non local Contribution for L=           2  read in
    real space projection operators read in
  non local Contribution for L=           2  read in
    real space projection operators read in
  non local Contribution for L=           2  read in
    real space projection operators read in
  non local Contribution for L=           3  read in
    real space projection operators read in
  non local Contribution for L=           3  read in
    real space projection operators read in
    PAW grid and wavefunctions read in
 
   number of l-projection  operators is LMAX  =          11
   number of lm-projection operators is LMMAX =          41
 
 -----------------------------------------------------------------------------
|                                                                             |
|               ----> ADVICE to this user running VASP <----                  |
|                                                                             |
|     You have a (more or less) 'large supercell' and for larger cells it     |
|     might be more efficient to use real-space projection operators.         |
|     Therefore, try LREAL= Auto in the INCAR file.                           |
|     Mind: For very accurate calculation, you might also keep the            |
|     reciprocal projection scheme (i.e. LREAL=.FALSE.).                      |
|                                                                             |
 -----------------------------------------------------------------------------

  PAW_PBE C_GW 28Sep2005                :
 energy of atom  1       EATOM= -147.1560
 kinetic energy error for atom=    0.0192 (will be added to EATOM!!)
  PAW_PBE H_GW 21Apr2008                :
 energy of atom  2       EATOM=  -12.4884
 kinetic energy error for atom=    0.0256 (will be added to EATOM!!)
  PAW_PBE O_GW 28Sep2005                :
 energy of atom  3       EATOM= -432.3788
 kinetic energy error for atom=    0.0724 (will be added to EATOM!!)
  PAW_PBE Fe_sv_GW 05Dec2013            :
 energy of atom  4       EATOM=-3376.4015
 kinetic energy error for atom=    0.1308 (will be added to EATOM!!)
 
 
 POSCAR:  C  H  O Fe
  positions in direct lattice
  No initial velocities read in
 exchange correlation table for  LEXCH =        8
   RHO(1)=    0.500       N(1)  =     2000
   RHO(2)=  100.500       N(2)  =     4000
 


--------------------------------------------------------------------------------------------------------


 ion  position               nearest neighbor table
   1  0.295  0.941  0.220-  32 1.17  33 1.18
   2  0.032  0.132  0.567-  35 1.36   7 1.40  22 1.43
   3  0.081  0.617  0.166-   8 1.40  23 1.43   6 1.49
   4  0.131  0.566  0.032-  37 1.36   8 1.40  24 1.43
   5  0.166  0.081  0.617-   7 1.40  25 1.43  11 1.49
   6  0.179  0.747  0.349-  41 1.27  34 1.29   3 1.49
   7  0.192  0.205  0.678-  27 1.09   2 1.40   5 1.40
   8  0.205  0.677  0.192-  28 1.09   4 1.40   3 1.40
   9  0.253  0.651  0.822-  36 1.27  38 1.29  12 1.49
  10  0.322  0.808  0.795-  26 1.09  13 1.40  12 1.40
  11  0.349  0.179  0.747-  43 1.27  39 1.29   5 1.49
  12  0.383  0.834  0.919-  10 1.40  14 1.43   9 1.49
  13  0.433  0.968  0.868-  40 1.36  10 1.40  15 1.43
  14  0.567  0.032  0.132-  45 1.36  17 1.40  12 1.43
  15  0.617  0.166  0.081-  17 1.40  13 1.43  18 1.49
  16  0.651  0.821  0.253-  42 1.27  46 1.29  22 1.49
  17  0.678  0.192  0.205-  31 1.09  14 1.40  15 1.40
  18  0.747  0.349  0.178-  49 1.27  47 1.29  15 1.49
  19  0.795  0.323  0.808-  29 1.09  23 1.40  24 1.40
  20  0.808  0.795  0.322-  30 1.09  25 1.40  22 1.40
  21  0.821  0.253  0.651-  44 1.27  51 1.29  24 1.49
  22  0.834  0.919  0.383-  20 1.40   2 1.43  16 1.49
  23  0.869  0.434  0.968-  48 1.36  19 1.40   3 1.43
  24  0.919  0.383  0.834-  19 1.40   4 1.43  21 1.49
  25  0.968  0.868  0.433-  50 1.36  20 1.40   5 1.43
  26  0.182  0.656  0.634-  10 1.09
  27  0.344  0.366  0.818-   7 1.09
  28  0.366  0.817  0.344-   8 1.09
  29  0.634  0.183  0.656-  19 1.09
  30  0.656  0.634  0.182-  20 1.09
  31  0.818  0.344  0.366-  17 1.09
  32  0.310  0.006  0.317-   1 1.17
  33  0.278  0.875  0.120-   1 1.18
  34  0.067  0.696  0.328-   6 1.29  54 2.11  52 2.12
  35  0.073  0.264  0.640-   2 1.36  57 2.06  55 2.07
  36  0.098  0.479  0.633-   9 1.27  57 2.07
  37  0.264  0.638  0.074-   4 1.36  55 2.05  56 2.09
  38  0.303  0.671  0.933-   9 1.29  56 2.10  55 2.12
  39  0.328  0.067  0.696-  11 1.29  52 2.10  53 2.12
  40  0.361  0.926  0.736-  13 1.36  53 2.06  52 2.08
  41  0.367  0.903  0.521-   6 1.27  53 2.07
  42  0.479  0.633  0.098-  16 1.27  55 2.07
  43  0.521  0.367  0.902-  11 1.27  54 2.07
  44  0.633  0.097  0.479-  21 1.27  56 2.07
  45  0.639  0.074  0.264-  14 1.36  56 2.06  57 2.08
  46  0.672  0.933  0.304-  16 1.29  57 2.10  56 2.12
  47  0.697  0.329  0.067-  18 1.29  53 2.10  54 2.12
  48  0.736  0.362  0.926-  23 1.36  54 2.05  53 2.09
  49  0.902  0.521  0.367-  18 1.27  52 2.07
  50  0.927  0.736  0.360-  25 1.36  52 2.06  54 2.07
  51  0.933  0.304  0.672-  21 1.29  55 2.11  57 2.12
  52  0.107  0.783  0.515-  50 2.06  49 2.07  40 2.08  39 2.10  34 2.12
  53  0.515  0.107  0.783-  40 2.06  41 2.07  48 2.09  47 2.10  39 2.12
  54  0.783  0.516  0.106-  48 2.05  50 2.07  43 2.07  34 2.11  47 2.12
  55  0.217  0.484  0.894-  37 2.05  35 2.07  42 2.07  51 2.11  38 2.12
  56  0.485  0.893  0.217-  45 2.06  44 2.07  37 2.09  38 2.10  46 2.12
  57  0.893  0.217  0.485-  35 2.06  36 2.07  45 2.08  46 2.10  51 2.12
 

IMPORTANT INFORMATION: All symmetrisations will be switched off!
NOSYMM: (Re-)initialisation of all symmetry stuff for point group C_1.


----------------------------------------------------------------------------------------

                                     Primitive cell                                     

  volume of cell :    1403.0148

  direct lattice vectors                    reciprocal lattice vectors
    15.439217752  0.004465832 -0.038376892     0.065085042  0.034326685  0.130688713
    -7.186282924 13.630928377 -0.001416099     0.000303919  0.073536393  0.130825479
    -7.182834812-11.890639092  6.700359279     0.000372844  0.000212151  0.150021909

  length of vectors
    15.439266094 15.409246337 15.423204220     0.149979744  0.150076646  0.150022522

  position of ions in fractional coordinates (direct lattice)
     0.295019501  0.941160170  0.219875959
     0.032140205  0.131596472  0.567243074
     0.080939400  0.617136620  0.166081282
     0.131311660  0.566131401  0.032072370
     0.166052468  0.080890174  0.616656951
     0.178934143  0.747136406  0.349358741
     0.192223384  0.205099135  0.677753253
     0.204817095  0.677208988  0.192172431
     0.252895436  0.650728993  0.821583851
     0.322307724  0.807597299  0.795016362
     0.349319458  0.178891109  0.746556755
     0.382922059  0.833947320  0.919292900
     0.433306216  0.967704379  0.868314174
     0.566693754  0.032295640  0.131685826
     0.617077941  0.166052695  0.080707123
     0.650680572  0.821108876  0.253443275
     0.677692276  0.192402701  0.204983653
     0.747104594  0.349271007  0.178416179
     0.795182905  0.322791042  0.807827584
     0.807776602  0.794900865  0.322246747
     0.821065842  0.252863594  0.650641229
     0.833947517  0.919109811  0.383343020
     0.868688340  0.433868599  0.967927620
     0.919060577  0.382863380  0.833918703
     0.967859819  0.868403528  0.432756926
     0.182479428  0.655565764  0.633945057
     0.344103209  0.366270524  0.817662957
     0.365791429  0.816735938  0.344089651
     0.634208571  0.183264047  0.655910379
     0.655896791  0.633729476  0.182337028
     0.817520572  0.344434206  0.366054943
     0.309634406  0.006275347  0.316899865
     0.277845133  0.874684412  0.119782242
     0.067421933  0.696011040  0.328229224
     0.073185170  0.264301200  0.639867354
     0.097668867  0.478758507  0.633498145
     0.264148327  0.637872795  0.073659183
     0.302715318  0.671496338  0.932846989
     0.328490557  0.067484104  0.696479021
     0.361353031  0.926373201  0.735541372
     0.367302190  0.903369468  0.521413749
     0.478945773  0.633023796  0.098161017
     0.521054227  0.366976174  0.901838960
     0.632697810  0.096630539  0.478586221
     0.638646969  0.073626784  0.264458628
     0.671509473  0.932515918  0.303521008
     0.697284712  0.328503632  0.067153018
     0.735851673  0.362127205  0.926340817
     0.902331148  0.521241523  0.366501884
     0.926814852  0.735698800  0.360132676
     0.932578089  0.303988990  0.671770806
     0.107174485  0.783307327  0.515334558
     0.515337162  0.106795323  0.782801462
     0.783372319  0.515771295  0.106356464
     0.216627696  0.484228705  0.893643529
     0.484662838  0.893204670  0.217198508
     0.892825508  0.216692673  0.484665412

  ion indices of the primitive-cell ions
   primitive index   ion index
                 1           1
                 2           2
                 3           3
                 4           4
                 5           5
                 6           6
                 7           7
                 8           8
                 9           9
                10          10
                11          11
                12          12
                13          13
                14          14
                15          15
                16          16
                17          17
                18          18
                19          19
                20          20
                21          21
                22          22
                23          23
                24          24
                25          25
                26          26
                27          27
                28          28
                29          29
                30          30
                31          31
                32          32
                33          33
                34          34
                35          35
                36          36
                37          37
                38          38
                39          39
                40          40
                41          41
                42          42
                43          43
                44          44
                45          45
                46          46
                47          47
                48          48
                49          49
                50          50
                51          51
                52          52
                53          53
                54          54
                55          55
                56          56
                57          57

----------------------------------------------------------------------------------------

 
 
 KPOINTS: KPOINTS                                 

Automatic generation of k-mesh.
 Grid dimensions read from file:
 generate k-points for:    1    1    1

 Generating k-lattice:

  Cartesian coordinates                     Fractional coordinates (reciprocal lattice)
     0.065085042  0.034326685  0.130688713     1.000000000  0.000000000 -0.000000000
     0.000303919  0.073536393  0.130825479     0.000000000  1.000000000  0.000000000
     0.000372844  0.000212151  0.150021909    -0.000000000  0.000000000  1.000000000

  Length of vectors
     0.149979744  0.150076646  0.150022522

  Shift w.r.t. Gamma in fractional coordinates (k-lattice)
     0.000000000  0.000000000  0.000000000

 
 Subroutine IBZKPT returns following result:
 ===========================================
 
 Found      1 irreducible k-points:
 
 Following reciprocal coordinates:
            Coordinates               Weight
  0.000000  0.000000  0.000000      1.000000
 
 Following cartesian coordinates:
            Coordinates               Weight
  0.000000  0.000000  0.000000      1.000000
 
 WARNING: full set of k-points will be restricted to regular points only.

 
 Subroutine IBZKPT_HF returns following result:
 ==============================================
 
 Found      1 k-points in 1st BZ
 the following      1 k-points will be used (e.g. in the exchange kernel)
 Following reciprocal coordinates:   # in IRBZ
  0.000000  0.000000  0.000000    1.00000000   1 t-inv F


--------------------------------------------------------------------------------------------------------




 Dimension of arrays:
   k-points           NKPTS =      1   k-points in BZ     NKDIM =      1   number of bands    NBANDS=   1496
   number of dos      NEDOS =    301   number of ions     NIONS =     57
   non local maximal  LDIM  =     11   non local SUM 2l+1 LMDIM =     41
   total plane-waves  NPLWV = ******
   max r-space proj   IRMAX =      1   max aug-charges    IRDMAX=  22306
   dimension x,y,z NGX =   108 NGY =  108 NGZ =  108
   dimension x,y,z NGXF=   216 NGYF=  216 NGZF=  216
   support grid    NGXF=   216 NGYF=  216 NGZF=  216
   ions per type =              25   6  20   6
   lowest and highest band optimized NBANDSLOW=     131 NBANDSHIGH=    1496
   NGX,Y,Z   is equivalent  to a cutoff of  11.63, 11.65, 11.64 a.u.
   NGXF,Y,Z  is equivalent  to a cutoff of  23.26, 23.30, 23.28 a.u.

 SYSTEM =  MOFCO2                                  
 POSCAR =   C  H  O Fe                             

 Startparameter for this run:
   NWRITE =      1    write-flag & timer
   PREC   = accura    normal or accurate (medium, high low for compatibility)
   ISTART =      1    job   : 0-new  1-cont  2-samecut
   ICHARG =      0    charge: 1-file 2-atom 10-const
   ISPIN  =      1    spin polarized calculation?
   LNONCOLLINEAR =      F non collinear calculations
   LSORBIT =      F    spin-orbit coupling
   INIWAV =      1    electr: 0-lowe 1-rand  2-diag
   LASPH  =      T    aspherical Exc in radial PAW
 Electronic Relaxation 1
   ENCUT  =  420.0 eV  30.87 Ry    5.56 a.u.  25.80 25.75 25.77*2*pi/ulx,y,z
   ENINI  =  420.0     initial cutoff
   ENAUG  =  963.7 eV  augmentation charge cutoff
   NELM   =      1;   NELMIN=  2; NELMDL=  0     # of ELM steps 
   EDIFF  = 0.1E-03   stopping-criterion for ELM
   LREAL  =      F    real-space projection
   NLSPLINE    = F    spline interpolate recip. space projectors
   LCOMPAT=      F    compatible to vasp.4.4
   GGA_COMPAT  = T    GGA compatible to vasp.4.4-vasp.4.6
   LMAXPAW     = -100 max onsite density
   LMAXMIX     =    2 max onsite mixed and CHGCAR
   VOSKOWN=      0    Vosko Wilk Nusair interpolation
   ROPT   =    0.00000   0.00000   0.00000   0.00000
 Ionic relaxation
   EDIFFG = 0.1E-02   stopping-criterion for IOM
   NSW    =      0    number of steps for IOM
   NBLOCK =      1;   KBLOCK =      1    inner block; outer block 
   IBRION =     -1    ionic relax: 0-MD 1-quasi-New 2-CG
   NFREE  =      0    steps in history (QN), initial steepest desc. (CG)
   ISIF   =      0    stress and relaxation
   IWAVPR =     10    prediction:  0-non 1-charg 2-wave 3-comb
   ISYM   =     -1    0-nonsym 1-usesym 2-fastsym
   LCORR  =      T    Harris-Foulkes like correction to forces

   POTIM  = 0.5000    time-step for ionic-motion
   TEIN   =    0.0    initial temperature
   TEBEG  =    0.0;   TEEND  =   0.0 temperature during run
   SMASS  =  -3.00    Nose mass-parameter (am)
   estimated Nose-frequenzy (Omega)   =  0.10E-29 period in steps = 0.13E+47 mass=  -0.545E-26a.u.
   SCALEE = 1.0000    scale energy and forces
   NPACO  =    256;   APACO  = 16.0  distance and # of slots for P.C.
   PSTRESS=    0.0 pullay stress

  Mass of Ions in am
   POMASS =  12.01  1.00 16.00 55.85
  Ionic Valenz
   ZVAL   =   4.00  1.00  6.00 16.00
  Atomic Wigner-Seitz radii
   RWIGS  =  -1.00 -1.00 -1.00 -1.00
  virtual crystal weights 
   VCA    =   1.00  1.00  1.00  1.00
   NELECT =     322.0000    total number of electrons
   NUPDOWN=      -1.0000    fix difference up-down

 DOS related values:
   EMIN   =  10.00;   EMAX   =-10.00  energy-range for DOS
   EFERMI =   0.00
   ISMEAR =     0;   SIGMA  =   0.10  broadening in eV -4-tet -1-fermi 0-gaus

 Electronic relaxation 2 (details)
   IALGO  =      4    algorithm
   LDIAG  =      T    sub-space diagonalisation (order eigenvalues)
   LSUBROT=      F    optimize rotation matrix (better conditioning)
   TURBO    =      0    0=normal 1=particle mesh
   IRESTART =      0    0=no restart 2=restart with 2 vectors
   NREBOOT  =      0    no. of reboots
   NMIN     =      0    reboot dimension
   EREF     =   0.00    reference energy to select bands
   IMIX   =      1    mixing-type and parameters
     AMIX     =   0.40;   BMIX     =  1.00
     AMIX_MAG =   1.60;   BMIX_MAG =  1.00
     AMIN     =   0.10
     WC   =   100.;   INIMIX=   1;  MIXPRE=   1;  MAXMIX= -45

 Intra band minimization:
   WEIMIN = 0.0000     energy-eigenvalue tresh-hold
   EBREAK =  0.17E-07  absolut break condition
   DEPER  =   0.30     relativ break condition  

   TIME   =   0.05     timestep for ELM

  volume/ion in A,a.u.               =      24.61       166.11
  Fermi-wavevector in a.u.,A,eV,Ry     =   1.002319  1.894109 13.669007  1.004644
  Thomas-Fermi vector in A             =   2.134799
 
 Write flags
   LWAVE        =      T    write WAVECAR
   LDOWNSAMPLE  =      F    k-point downsampling of WAVECAR
   LCHARG       =      T    write CHGCAR
   LVTOT        =      F    write LOCPOT, total local potential
   LVHAR        =      F    write LOCPOT, Hartree potential only
   LELF         =      F    write electronic localiz. function (ELF)
   LORBIT       =     11    0 simple, 1 ext, 2 COOP (PROOUT), +10 PAW based schemes


 Dipole corrections
   LMONO  =      F    monopole corrections only (constant potential shift)
   LDIPOL =      F    correct potential (dipole corrections)
   IDIPOL =      0    1-x, 2-y, 3-z, 4-all directions 
   EPSILON=  1.0000000 bulk dielectric constant

 Exchange correlation treatment:
   GGA     =    --    GGA type
   LEXCH   =     8    internal setting for exchange type
   VOSKOWN=      0    Vosko Wilk Nusair interpolation
   EXXOEP  =     0    0=HF, 1=EXX-LHF (local Hartree Fock) 2=EXX OEP
   LHFCALC =     T    Hartree Fock is set to
   LSYMGRAD=     F    symmetrize gradient (conserves proper symmetry)
   PRECFOCK=normal    Normal, Fast or Accurate (Low or Medium for compatibility)
   LRHFCALC=     F    long range Hartree Fock
   LRSCOR  =     F    long range correlation only (use DFT for short range part)
   LTHOMAS =     F    Thomas Fermi screening in HF
   LMODELHF=     F    short range full HF, long range fraction AEXX
   LFOCKACE=     T    use Adeptively-Compressed-Exchange operator
   ENCUT4O =  -1.0   cutoff for four orbital integrals eV
   LMAXFOCK=     4    L truncation for augmentation on plane wave grid
   LMAXFOCKAE=  -1    L truncation for all-electron charge restoration on plane wave grid
   NMAXFOCKAE=   1    number of basis functions for all-electron charge restoration
   LFOCKAEDFT=     F  apply the AE augmentation even for DFT
   NKREDX  =     1    reduce k-point grid by
   NKREDY  =     1    reduce k-point grid by
   NKREDZ  =     1    reduce k-point grid by
   SHIFTRED=     F    shift reduced grid of Gamma
   HFKIDENT=     F    idential grid for each k-point
   ODDONLY =     F    use only odd q-grid points
   EVENONLY=     F    use only even q-grid points
   HFALPHA =   -1.0000 decay constant for conv. correction
   MCALPHA =    0.0000 extent of test-charge in conv. correction in multipole expansion
   AEXX    =    1.0000 exact exchange contribution
   HFSCREEN=    0.0000 screening length (either q_TF or 0.3 A-1)
   HFSCREENC=   0.0000 screening length for correlation (either q_TF or 0.3 A-1)
   HFRCUT  =    0.0000 spherical cutoff for potential kernel
   ALDAX   =    0.0000 LDA exchange part
   AGGAX   =    0.0000 GGA exchange part
   ALDAC   =    0.0000 LDA correlation
   AGGAC   =    0.0000 GGA correlation
   ENCUTFOCK=  -1.0 apply spherical cutoff to Coloumb kernel
   NBANDSGWLOW=     1    first orbital included in HF term
   NBLOCK_FOCK=    64    blocking factor in FOCK_ACC
 Linear response parameters
   LEPSILON=     F    determine dielectric tensor
   LRPA    =     F    only Hartree local field effects (RPA)
   LNABLA  =     F    use nabla operator in PAW spheres
   LVEL    =     F    velocity operator in full k-point grid
   CSHIFT  =0.1000    complex shift for real part using Kramers Kronig
   OMEGAMAX=  -1.0    maximum frequency
   DEG_THRESHOLD= 0.2000000E-02 threshold for treating states as degnerate
   RTIME   =   -0.100 relaxation time in fs
  (WPLASMAI=    0.000 imaginary part of plasma frequency in eV, 0.658/RTIME)
   DFIELD  = 0.0000000 0.0000000 0.0000000 field for delta impulse in time
 
  Optional k-point grid parameters
   LKPOINTS_OPT  =     F    use optional k-point grid
   KPOINTS_OPT_MODE=     1    mode for optional k-point grid
 
 Orbital magnetization related:
   ORBITALMAG=     F  switch on orbital magnetization
   LCHIMAG   =     F  perturbation theory with respect to B field
   DQ        =  0.001000  dq finite difference perturbation B field
   LLRAUG    =     F  two centre corrections for induced B field



--------------------------------------------------------------------------------------------------------


 Static calculation
 charge density and potential will be updated during run
 non-spin polarized calculation
 Subrot: only subspace diagonalization (rotation)
    band-by band algorithm
 perform sub-space diagonalisation
    before iterative eigenvector-optimisation
 Kerker-like  mixing scheme
 using additional bands         1335
 reciprocal scheme for non local part
 use partial core corrections
 calculate Harris-corrections to forces 
   (improved forces if not selfconsistent)
 use gradient corrections 
 use of overlap-Matrix (Vanderbilt PP)
 Gauss-broadening in eV      SIGMA  =   0.10


--------------------------------------------------------------------------------------------------------


  energy-cutoff  :      420.00
  volume of cell :     1403.01
      direct lattice vectors                 reciprocal lattice vectors
    15.439217752  0.004465832 -0.038376892     0.065085042  0.034326685  0.130688713
    -7.186282924 13.630928377 -0.001416099     0.000303919  0.073536393  0.130825479
    -7.182834812-11.890639092  6.700359279     0.000372844  0.000212151  0.150021909

  length of vectors
    15.439266094 15.409246337 15.423204220     0.149979744  0.150076646  0.150022522


 
 old parameters found on file WAVECAR:
  energy-cutoff  :      420.00
  volume of cell :     1403.01
      direct lattice vectors                 reciprocal lattice vectors
    15.439217752  0.004465832 -0.038376892     0.065085042  0.034326685  0.130688713
    -7.186282924 13.630928377 -0.001416099     0.000303919  0.073536393  0.130825479
    -7.182834812-11.890639092  6.700359279     0.000372844  0.000212151  0.150021909

  length of vectors

 
 k-points in units of 2pi/SCALE and weight: KPOINTS                                 
   0.00000000  0.00000000  0.00000000       1.000
 
 k-points in reciprocal lattice and weights: KPOINTS                                 
   0.00000000  0.00000000  0.00000000       1.000
 
 position of ions in fractional coordinates (direct lattice) 
   0.29501950  0.94116017  0.21987596
   0.03214020  0.13159647  0.56724307
   0.08093940  0.61713662  0.16608128
   0.13131166  0.56613140  0.03207237
   0.16605247  0.08089017  0.61665695
   0.17893414  0.74713641  0.34935874
   0.19222338  0.20509913  0.67775325
   0.20481709  0.67720899  0.19217243
   0.25289544  0.65072899  0.82158385
   0.32230772  0.80759730  0.79501636
   0.34931946  0.17889111  0.74655676
   0.38292206  0.83394732  0.91929290
   0.43330622  0.96770438  0.86831417
   0.56669375  0.03229564  0.13168583
   0.61707794  0.16605269  0.08070712
   0.65068057  0.82110888  0.25344327
   0.67769228  0.19240270  0.20498365
   0.74710459  0.34927101  0.17841618
   0.79518291  0.32279104  0.80782758
   0.80777660  0.79490087  0.32224675
   0.82106584  0.25286359  0.65064123
   0.83394752  0.91910981  0.38334302
   0.86868834  0.43386860  0.96792762
   0.91906058  0.38286338  0.83391870
   0.96785982  0.86840353  0.43275693
   0.18247943  0.65556576  0.63394506
   0.34410321  0.36627052  0.81766296
   0.36579143  0.81673594  0.34408965
   0.63420857  0.18326405  0.65591038
   0.65589679  0.63372948  0.18233703
   0.81752057  0.34443421  0.36605494
   0.30963441  0.00627535  0.31689987
   0.27784513  0.87468441  0.11978224
   0.06742193  0.69601104  0.32822922
   0.07318517  0.26430120  0.63986735
   0.09766887  0.47875851  0.63349814
   0.26414833  0.63787280  0.07365918
   0.30271532  0.67149634  0.93284699
   0.32849056  0.06748410  0.69647902
   0.36135303  0.92637320  0.73554137
   0.36730219  0.90336947  0.52141375
   0.47894577  0.63302380  0.09816102
   0.52105423  0.36697617  0.90183896
   0.63269781  0.09663054  0.47858622
   0.63864697  0.07362678  0.26445863
   0.67150947  0.93251592  0.30352101
   0.69728471  0.32850363  0.06715302
   0.73585167  0.36212720  0.92634082
   0.90233115  0.52124152  0.36650188
   0.92681485  0.73569880  0.36013268
   0.93257809  0.30398899  0.67177081
   0.10717448  0.78330733  0.51533456
   0.51533716  0.10679532  0.78280146
   0.78337232  0.51577130  0.10635646
   0.21662770  0.48422870  0.89364353
   0.48466284  0.89320467  0.21719851
   0.89282551  0.21669267  0.48466541
 
 position of ions in cartesian coordinates  (Angst):
  -3.78790563 10.21573870  1.46059321
  -4.52388317 -4.95095705  3.79931260
  -4.37821175  6.43769394  1.10882413
  -2.27140164  7.33612202  0.20905537
  -2.44692449 -6.22909552  4.12533600
  -5.11591652  6.03086322  2.33290413
  -3.37431139 -5.26236927  4.53352292
  -3.08474249  6.94684887  1.27880509
  -6.67311603 -0.89798737  5.49428014
  -6.53791475  1.55648768  5.31338245
  -1.25473680 -6.43702504  4.98853936
  -6.68409337  0.43820617  6.14371640
  -6.50124571  2.86783369  5.80001762
   7.57134513 -1.12307831  0.86054867
   7.75419311  1.30654888  0.51685004
   2.32483717  8.18177960  1.67202713
   7.60801466  0.18826726  1.34718394
   7.74321629  2.64274213  1.16628635
   4.15484218 -5.20209353  5.38176130
   4.44441119  7.00712439  2.12704337
   6.18601652 -4.28610774  4.32766196
   3.51702459  7.97385078  2.53523010
   3.34150173 -5.59136678  6.45151085
   5.44831152 -4.69293864  5.55174206
   5.59398355  6.69571217  2.86125369
  -6.44726406  1.39877301  4.23972831
  -3.19257720 -4.72839114  5.46491130
  -2.69330113  7.04305679  2.29032977
   3.76340103 -5.29830223  4.37023672
   4.26267732  6.47314643  1.19565489
   7.51736429  0.34598169  2.42083798
   2.45917722 -3.68122035  2.11145126
  -2.85639420 10.49971397  0.79068259
  -6.31840665  5.58472248  2.19568066
  -5.36548293 -4.00543421  4.28415826
  -6.48287571 -1.00633871  4.24023897
  -1.03477259  7.82012327  0.48250251
  -6.85236078 -1.93767650  6.23784180
  -0.41601639 -7.36024271  4.65395766
  -6.36144396  3.88288350  4.91321202
  -4.56623892  6.11546212  3.47828427
   2.14038562  7.46364369  0.63843721
  -1.07028522 -5.71888870  6.02212893
   5.63633910 -4.37070655  3.18228181
   7.43154408 -2.13812859  1.74735427
   1.48611650  9.10499778  2.00660882
   7.92246143  3.68243113  0.42272453
   2.10487260 -6.07536816  6.17806378
   7.55297553  2.75109390  2.42032751
   6.43558307  5.75018897  2.37640822
   7.38850658 -3.83996731  4.46488582
  -7.67594086  4.55002746  3.44770442
   1.56620766 -7.84998885  5.22512277
   7.62423645  5.76929366  0.68183275
  -6.55413615 -4.02453846  5.97873350
  -0.49610738  9.59474423  1.43544332
   8.74604099 -2.80527198  3.21286166
 


--------------------------------------------------------------------------------------------------------


 use serial FFT for orbitals x direction half grid
 k-point   1 :   0.0000 0.0000 0.0000  plane waves:   13714

 maximum and minimum number of plane-waves per node :     13714    13714

 maximum number of plane-waves:     13714
 maximum index in each direction: 
   IXMAX=   25   IYMAX=   22   IZMAX=   22
   IXMIN=    0   IYMIN=  -25   IZMIN=  -25


 serial   3D FFT for wavefunctions
 parallel 3D FFT for charge:
    minimum data exchange during FFTs selected (reduces bandwidth)


 FFT grid for exact exchange (Hartree Fock) 
  NGX = 80; NGY = 80; NGZ = 80

 use serial FFT for orbitals x direction half grid
 
 Radii for the augmentation spheres in the non-local exchange
 for species   1 augmentation radius   0.874 (default was   0.699)
       energy cutoff for augmentation   1680.0
 for species   2 augmentation radius   0.735 (default was   0.588)
       energy cutoff for augmentation   1680.0
 for species   3 augmentation radius   0.902 (default was   0.722)
       energy cutoff for augmentation   1680.0
 for species   4 augmentation radius   1.117 (default was   0.893)
       energy cutoff for augmentation   1680.0
 Maximum index for augmentation-charges in exchange         2121
  SETUP_FOCK is finished

 total amount of memory used by VASP MPI-rank0   303322. kBytes
=======================================================================

   base      :      30000. kBytes
   nonl-proj :      30513. kBytes
   fftplans  :      47759. kBytes
   grid      :     141927. kBytes
   one-center:       2299. kBytes
   HF        :       1344. kBytes
   nonlr-proj:       7401. kBytes
   wavefun   :      42079. kBytes
 
     INWAV:  cpu time      0.7502: real time      0.7555
 charge density for first step will be calculated from the start-wavefunctions


--------------------------------------------------------------------------------------------------------


 Maximum index for augmentation-charges         2705 (set IRDMAX)


--------------------------------------------------------------------------------------------------------


 initial charge from wavefunction
    FEWALD:  cpu time      0.0043: real time      0.0043


--------------------------------------- Iteration      1(   1)  ---------------------------------------


    POTLOK:  cpu time      0.6531: real time      0.6654
    SETDIJ:  cpu time      0.7106: real time      0.7123
    EDDIAG:  cpu time    768.7167: real time    770.7801
       DOS:  cpu time      0.0005: real time      0.0005
    --------------------------------------------
      LOOP:  cpu time    770.0809: real time    772.1583

 eigenvalue-minimisations  :     0
 total energy-change (2. order) :-0.9077352E+03  ( 0.0000000E+00)
 number of electron     321.9999974 magnetization 
 augmentation part       50.9123299 magnetization 

 Free energy of the ion-electron system (eV)
  ---------------------------------------------------
  alpha Z        PSCENC =       379.72439301
  Ewald energy   TEWEN  =     18509.04670523
  -Hartree energ DENC   =    -47242.98312442
  -exchange      EXHF   =      4567.28354152
  -V(xc)+E(xc)   XCENC  =         0.00000000
  PAW double counting   =     32033.94060285   -32278.68469462
  entropy T*S    EENTRO =        -0.00000000
  eigenvalues    EBANDS =     -8561.68974888
  atomic energy  EATOM  =     31685.62717035
  Solvation  Ediel_sol  =         0.00000000
  ---------------------------------------------------
  free energy    TOTEN  =      -907.73515495 eV

  energy without entropy =     -907.73515495  energy(sigma->0) =     -907.73515495
  exchange ACFDT corr.  =     -2097.35947877  see jH, gK, PRB 81, 115126


--------------------------------------------------------------------------------------------------------




 average (electrostatic) potential at core
  the test charge radii are     0.6991  0.5883  0.7215  0.8933
  (the norm of the test charge is              1.0000)
       1 -45.3610       2 -40.4847       3 -39.3256       4 -40.5740       5 -39.2264
       6 -43.0846       7 -38.6955       8 -38.7679       9 -42.9486      10 -38.6451
      11 -43.0341      12 -39.1609      13 -40.4463      14 -40.4226      15 -39.1803
      16 -43.0161      17 -38.6432      18 -43.0126      19 -38.8157      20 -38.6955
      21 -43.1184      22 -39.2227      23 -40.5744      24 -39.3099      25 -40.4888
      26 -18.6401      27 -18.6851      28 -18.8022      29 -18.7989      30 -18.6878
      31 -18.6382      32 -53.0216      33 -53.0834      34 -50.5521      35 -49.4468
      36 -50.1399      37 -49.4396      38 -50.4027      39 -50.5161      40 -49.4389
      41 -50.2646      42 -50.2052      43 -50.2201      44 -50.3201      45 -49.3499
      46 -50.4845      47 -50.5069      48 -49.5043      49 -50.1960      50 -49.4622
      51 -50.5600      52 -57.0575      53 -57.0838      54 -57.0714      55 -57.0400
      56 -56.9066      57 -57.0191
 
 
 
 E-fermi :  -6.8760     XC(G=0):   0.0000     alpha+bet : -3.7365

 Fermi energy:        -6.8760105668

 k-point     1 :       0.0000    0.0000    0.0000
  band No.  band energies     occupation 
      1     -96.0556      2.00000
      2     -93.2380      2.00000
      3     -93.1873      2.00000
      4     -92.9004      2.00000
      5     -92.4457      2.00000
      6     -87.3122      2.00000
      7     -86.8795      2.00000
      8     -84.9013      2.00000
      9     -84.2610      2.00000
     10     -81.7176      2.00000
     11     -74.3248      2.00000
     12     -73.5780      2.00000
     13     -73.3757      2.00000
     14     -72.5210      2.00000
     15     -71.7891      2.00000
     16     -71.3788      2.00000
     17     -71.3507      2.00000
     18     -71.0811      2.00000
     19     -70.9753      2.00000
     20     -70.7477      2.00000
     21     -31.3759      2.00000
     22     -31.3670      2.00000
     23     -31.3533      2.00000
     24     -31.3158      2.00000
     25     -31.2590      2.00000
     26     -31.1858      2.00000
     27     -31.1780      2.00000
     28     -31.1071      2.00000
     29     -31.0974      2.00000
     30     -31.0688      2.00000
     31     -27.7716      2.00000
     32     -27.7342      2.00000
     33     -27.7225      2.00000
     34     -27.7221      2.00000
     35     -19.9524      2.00000
     36     -19.9496      2.00000
     37     -19.8455      2.00000
     38     -19.8438      2.00000
     39     -19.7969      2.00000
     40     -19.7815      2.00000
     41     -19.6740      2.00000
     42     -19.6710      2.00000
     43     -19.6585      2.00000
     44     -19.6486      2.00000
     45     -19.6454      2.00000
     46     -19.6414      2.00000
     47     -19.5662      2.00000
     48     -19.5645      2.00000
     49     -19.5633      2.00000
     50     -19.5570      2.00000
     51     -19.5514      2.00000
     52     -19.5473      2.00000
     53     -19.5470      2.00000
     54     -19.5173      2.00000
     55     -19.5055      2.00000
     56     -19.5045      2.00000
     57     -19.4995      2.00000
     58     -19.4737      2.00000
     59     -17.4586      2.00000
     60     -17.4562      2.00000
     61     -17.4525      2.00000
     62     -17.4164      2.00000
     63     -17.3369      2.00000
     64     -17.0654      2.00000
     65     -17.0377      2.00000
     66     -17.0281      2.00000
     67     -16.9871      2.00000
     68     -16.9516      2.00000
     69     -16.8460      2.00000
     70     -16.8421      2.00000
     71     -16.8060      2.00000
     72     -16.6663      2.00000
     73     -15.8788      2.00000
     74     -15.8728      2.00000
     75     -15.6967      2.00000
     76     -15.6279      2.00000
     77     -15.5774      2.00000
     78     -15.5322      2.00000
     79     -15.5290      2.00000
     80     -15.4109      2.00000
     81     -15.4086      2.00000
     82     -15.3626      2.00000
     83     -15.3605      2.00000
     84     -14.9375      2.00000
     85     -14.6742      2.00000
     86     -14.5511      2.00000
     87     -14.4841      2.00000
     88     -13.4109      2.00000
     89     -13.3043      2.00000
     90     -13.2780      2.00000
     91     -13.2772      2.00000
     92     -13.2553      2.00000
     93     -12.2719      2.00000
     94     -12.2415      2.00000
     95     -12.2406      2.00000
     96     -12.2211      2.00000
     97     -12.2131      2.00000
     98     -12.1934      2.00000
     99     -12.1931      2.00000
    100     -12.1692      2.00000
    101     -12.1443      2.00000
    102     -12.1330      2.00000
    103     -12.0771      2.00000
    104     -12.0682      2.00000
    105     -12.0471      2.00000
    106     -12.0091      2.00000
    107     -11.9855      2.00000
    108     -11.9852      2.00000
    109     -11.9846      2.00000
    110     -11.9588      2.00000
    111     -11.9516      2.00000
    112     -11.9397      2.00000
    113     -11.6869      2.00000
    114     -11.6411      2.00000
    115     -11.6176      2.00000
    116     -11.6051      2.00000
    117     -11.5649      2.00000
    118     -10.9680      2.00000
    119     -10.9614      2.00000
    120     -10.8909      2.00000
    121     -10.6980      2.00000
    122      -8.8425      2.00000
    123      -8.6527      2.00000
    124      -8.5867      2.00000
    125      -8.5782      2.00000
    126      -8.5707      2.00000
    127      -8.5412      2.00000
    128      -7.8369      2.00000
    129      -7.6850      2.00000
    130      -7.6239      2.00000
    131    -111.2593      2.00000
    132     -70.9524      2.00000
    133     -70.9259      2.00000
    134     -70.9163      2.00000
    135     -38.8283      2.00000
    136     -37.4039      2.00000
    137     -34.3270      2.00000
    138     -34.2579      2.00000
    139     -32.5263      2.00000
    140     -32.4097      2.00000
    141     -19.1398      2.00000
    142     -17.4331      2.00000
    143     -17.2880      2.00000
    144     -16.9461      2.00000
    145     -16.5818      2.00000
    146     -16.1819      2.00000
    147     -15.5352      2.00000
    148     -15.4187      2.00000
    149     -12.9383      2.00000
    150     -12.5392      2.00000
    151     -12.3564      2.00000
    152     -12.2730      2.00000
    153     -12.0398      2.00000
    154     -11.9103      2.00000
    155     -11.7170      2.00000
    156     -11.2682      2.00000
    157     -10.9884      2.00000
    158     -10.8358      2.00000
    159     -10.7525      2.00000
    160      -9.9772      2.00000
    161      -9.7716      2.00000
    162       4.9374      0.00000
    163       5.2589      0.00000
    164       6.6410      0.00000
    165       7.4195      0.00000
    166       7.8852      0.00000
    167       8.0812      0.00000
    168       8.2257      0.00000
    169       8.4130      0.00000
    170       9.0282      0.00000
    171       9.1574      0.00000
    172       9.5646      0.00000
    173       9.7165      0.00000
    174       9.9295      0.00000
    175      10.0138      0.00000
    176      10.3795      0.00000
    177      10.5666      0.00000
    178      10.8252      0.00000
    179      10.9997      0.00000
    180      11.2248      0.00000
    181      11.3265      0.00000
    182      11.4148      0.00000
    183      11.7878      0.00000
    184      12.0787      0.00000
    185      12.2520      0.00000
    186      12.3688      0.00000
    187      12.4594      0.00000
    188      12.7668      0.00000
    189      12.9554      0.00000
    190      13.3619      0.00000
    191      13.5424      0.00000
    192      13.7283      0.00000
    193      14.2651      0.00000
    194      14.4736      0.00000
    195      14.6566      0.00000
    196      14.8054      0.00000
    197      15.0999      0.00000
    198      15.1403      0.00000
    199      15.3365      0.00000
    200      15.6234      0.00000
    201      15.7845      0.00000
    202      15.9056      0.00000
    203      15.9550      0.00000
    204      16.5075      0.00000
    205      16.6275      0.00000
    206      16.7826      0.00000
    207      16.9109      0.00000
    208      17.2294      0.00000
    209      17.6346      0.00000
    210      17.9813      0.00000
    211      18.2379      0.00000
    212      18.3259      0.00000
    213      18.5314      0.00000
    214      18.8544      0.00000
    215      19.0432      0.00000
    216      19.1868      0.00000
    217      19.4227      0.00000
    218      19.7708      0.00000
    219      20.1146      0.00000
    220      20.3308      0.00000
    221      20.8041      0.00000
    222      21.0946      0.00000
    223      21.1847      0.00000
    224      21.2776      0.00000
    225      21.6363      0.00000
    226      21.9081      0.00000
    227      22.0169      0.00000
    228      22.3267      0.00000
    229      22.4902      0.00000
    230      22.6050      0.00000
    231      22.7879      0.00000
    232      23.0313      0.00000
    233      23.1693      0.00000
    234      23.3898      0.00000
    235      23.7491      0.00000
    236      24.0363      0.00000
    237      24.1636      0.00000
    238      24.3702      0.00000
    239      24.5252      0.00000
    240      24.7170      0.00000
    241      25.1456      0.00000
    242      25.3376      0.00000
    243      25.8038      0.00000
    244      26.1065      0.00000
    245      26.3516      0.00000
    246      26.8157      0.00000
    247      26.8522      0.00000
    248      27.1806      0.00000
    249      27.3375      0.00000
    250      27.4973      0.00000
    251      27.5850      0.00000
    252      27.7170      0.00000
    253      27.8805      0.00000
    254      28.1515      0.00000
    255      28.3395      0.00000
    256      28.5435      0.00000
    257      28.8349      0.00000
    258      28.8855      0.00000
    259      29.1723      0.00000
    260      29.3237      0.00000
    261      29.5341      0.00000
    262      29.8314      0.00000
    263      30.0452      0.00000
    264      30.0591      0.00000
    265      30.1684      0.00000
    266      30.5938      0.00000
    267      30.7729      0.00000
    268      30.9341      0.00000
    269      31.1667      0.00000
    270      31.3695      0.00000
    271      31.5085      0.00000
    272      31.7292      0.00000
    273      31.8836      0.00000
    274      32.1779      0.00000
    275      32.2928      0.00000
    276      32.6196      0.00000
    277      32.8986      0.00000
    278      33.0426      0.00000
    279      33.1333      0.00000
    280      33.3515      0.00000
    281      33.5246      0.00000
    282      33.6196      0.00000
    283      33.8681      0.00000
    284      33.9746      0.00000
    285      34.2275      0.00000
    286      34.3811      0.00000
    287      34.5056      0.00000
    288      34.8922      0.00000
    289      34.9927      0.00000
    290      35.0798      0.00000
    291      35.4026      0.00000
    292      35.5304      0.00000
    293      35.6970      0.00000
    294      35.9914      0.00000
    295      36.2417      0.00000
    296      36.5127      0.00000
    297      36.5935      0.00000
    298      36.8983      0.00000
    299      36.9533      0.00000
    300      37.5121      0.00000
    301      37.7006      0.00000
    302      37.8414      0.00000
    303      38.1611      0.00000
    304      38.4038      0.00000
    305      38.4788      0.00000
    306      38.7393      0.00000
    307      38.9954      0.00000
    308      39.2166      0.00000
    309      39.5723      0.00000
    310      39.7565      0.00000
    311      39.8949      0.00000
    312      40.0535      0.00000
    313      40.1914      0.00000
    314      40.3496      0.00000
    315      40.6575      0.00000
    316      40.8093      0.00000
    317      41.0956      0.00000
    318      41.5045      0.00000
    319      41.7215      0.00000
    320      41.9079      0.00000
    321      41.9655      0.00000
    322      42.5384      0.00000
    323      42.6386      0.00000
    324      42.8582      0.00000
    325      42.9564      0.00000
    326      43.2501      0.00000
    327      43.5013      0.00000
    328      43.6353      0.00000
    329      43.7854      0.00000
    330      44.0529      0.00000
    331      44.2660      0.00000
    332      44.4145      0.00000
    333      44.7143      0.00000
    334      44.7860      0.00000
    335      45.3141      0.00000
    336      45.4872      0.00000
    337      45.7160      0.00000
    338      45.8615      0.00000
    339      46.2307      0.00000
    340      46.3643      0.00000
    341      46.7822      0.00000
    342      46.8178      0.00000
    343      47.1584      0.00000
    344      47.3007      0.00000
    345      47.5433      0.00000
    346      48.0234      0.00000
    347      48.0808      0.00000
    348      48.1807      0.00000
    349      48.4243      0.00000
    350      48.5981      0.00000
    351      48.9959      0.00000
    352      49.1842      0.00000
    353      49.3611      0.00000
    354      49.6347      0.00000
    355      49.7009      0.00000
    356      49.8438      0.00000
    357      50.3356      0.00000
    358      50.6897      0.00000
    359      50.9060      0.00000
    360      51.0615      0.00000
    361      51.2755      0.00000
    362      51.4118      0.00000
    363      51.7181      0.00000
    364      51.8581      0.00000
    365      52.0564      0.00000
    366      52.2044      0.00000
    367      52.2604      0.00000
    368      52.4623      0.00000
    369      52.5316      0.00000
    370      53.0632      0.00000
    371      53.2549      0.00000
    372      53.5562      0.00000
    373      53.6900      0.00000
    374      53.9020      0.00000
    375      54.0498      0.00000
    376      54.1831      0.00000
    377      54.4588      0.00000
    378      54.6762      0.00000
    379      54.9622      0.00000
    380      55.4487      0.00000
    381      55.7140      0.00000
    382      55.7650      0.00000
    383      56.0247      0.00000
    384      56.2552      0.00000
    385      56.3317      0.00000
    386      56.5868      0.00000
    387      56.7359      0.00000
    388      57.1551      0.00000
    389      57.2235      0.00000
    390      57.5747      0.00000
    391      57.7886      0.00000
    392      57.8767      0.00000
    393      58.4438      0.00000
    394      58.6182      0.00000
    395      58.8824      0.00000
    396      58.9625      0.00000
    397      59.1878      0.00000
    398      59.3969      0.00000
    399      59.6278      0.00000
    400      59.9819      0.00000
    401      60.2196      0.00000
    402      60.4747      0.00000
    403      60.6352      0.00000
    404      60.9596      0.00000
    405      61.1119      0.00000
    406      61.2657      0.00000
    407      61.3797      0.00000
    408      61.6231      0.00000
    409      61.7515      0.00000
    410      61.9256      0.00000
    411      62.4663      0.00000
    412      62.7272      0.00000
    413      63.0527      0.00000
    414      63.0970      0.00000
    415      63.2558      0.00000
    416      63.3361      0.00000
    417      63.8036      0.00000
    418      63.8328      0.00000
    419      64.1835      0.00000
    420      64.5999      0.00000
    421      64.7081      0.00000
    422      64.9289      0.00000
    423      65.1234      0.00000
    424      65.4221      0.00000
    425      65.6953      0.00000
    426      65.9128      0.00000
    427      66.1115      0.00000
    428      66.3355      0.00000
    429      66.4744      0.00000
    430      66.6696      0.00000
    431      66.7420      0.00000
    432      67.1384      0.00000
    433      67.3115      0.00000
    434      67.5764      0.00000
    435      67.5932      0.00000
    436      67.8675      0.00000
    437      68.1595      0.00000
    438      68.3782      0.00000
    439      68.6153      0.00000
    440      68.7973      0.00000
    441      69.0489      0.00000
    442      69.3688      0.00000
    443      69.4966      0.00000
    444      69.7142      0.00000
    445      69.8352      0.00000
    446      70.0254      0.00000
    447      70.1749      0.00000
    448      70.4259      0.00000
    449      70.6365      0.00000
    450      70.8192      0.00000
    451      71.0384      0.00000
    452      71.3994      0.00000
    453      71.4602      0.00000
    454      71.5652      0.00000
    455      71.8742      0.00000
    456      72.1691      0.00000
    457      72.4668      0.00000
    458      72.5363      0.00000
    459      72.6463      0.00000
    460      72.8135      0.00000
    461      72.8675      0.00000
    462      73.0714      0.00000
    463      73.4028      0.00000
    464      73.7213      0.00000
    465      73.8181      0.00000
    466      73.9547      0.00000
    467      74.1637      0.00000
    468      74.4632      0.00000
    469      74.5745      0.00000
    470      74.8275      0.00000
    471      75.2184      0.00000
    472      75.2574      0.00000
    473      75.4548      0.00000
    474      75.6865      0.00000
    475      76.1064      0.00000
    476      76.1782      0.00000
    477      76.3311      0.00000
    478      76.4955      0.00000
    479      76.5838      0.00000
    480      76.7718      0.00000
    481      76.8093      0.00000
    482      77.0340      0.00000
    483      77.1911      0.00000
    484      77.5734      0.00000
    485      77.5924      0.00000
    486      77.7431      0.00000
    487      77.9378      0.00000
    488      78.1257      0.00000
    489      78.4275      0.00000
    490      78.5440      0.00000
    491      78.8127      0.00000
    492      79.1734      0.00000
    493      79.2947      0.00000
    494      79.6587      0.00000
    495      79.8914      0.00000
    496      80.0875      0.00000
    497      80.3092      0.00000
    498      80.5341      0.00000
    499      80.8202      0.00000
    500      80.9496      0.00000
    501      81.0354      0.00000
    502      81.2377      0.00000
    503      81.3319      0.00000
    504      81.6050      0.00000
    505      81.9604      0.00000
    506      82.1184      0.00000
    507      82.3260      0.00000
    508      82.3862      0.00000
    509      82.8900      0.00000
    510      83.1693      0.00000
    511      83.2458      0.00000
    512      83.5389      0.00000
    513      83.6625      0.00000
    514      83.7880      0.00000
    515      84.1331      0.00000
    516      84.2206      0.00000
    517      84.5997      0.00000
    518      84.7835      0.00000
    519      84.9781      0.00000
    520      85.0898      0.00000
    521      85.3294      0.00000
    522      85.6188      0.00000
    523      85.7658      0.00000
    524      86.1538      0.00000
    525      86.3198      0.00000
    526      86.4326      0.00000
    527      86.7119      0.00000
    528      86.8046      0.00000
    529      86.8734      0.00000
    530      87.0907      0.00000
    531      87.2882      0.00000
    532      87.9725      0.00000
    533      88.1756      0.00000
    534      88.3949      0.00000
    535      88.5361      0.00000
    536      88.7571      0.00000
    537      88.8620      0.00000
    538      89.3251      0.00000
    539      89.4726      0.00000
    540      89.7984      0.00000
    541      89.8327      0.00000
    542      90.2396      0.00000
    543      90.5042      0.00000
    544      90.5542      0.00000
    545      90.8282      0.00000
    546      91.1963      0.00000
    547      91.2869      0.00000
    548      91.5378      0.00000
    549      91.7833      0.00000
    550      92.2007      0.00000
    551      92.2887      0.00000
    552      92.6281      0.00000
    553      93.2590      0.00000
    554      93.3959      0.00000
    555      93.6057      0.00000
    556      93.7563      0.00000
    557      93.9834      0.00000
    558      94.0329      0.00000
    559      94.4411      0.00000
    560      94.8122      0.00000
    561      95.0671      0.00000
    562      95.2340      0.00000
    563      95.3911      0.00000
    564      95.6632      0.00000
    565      95.7909      0.00000
    566      96.2621      0.00000
    567      96.4805      0.00000
    568      96.6083      0.00000
    569      96.7266      0.00000
    570      97.1378      0.00000
    571      97.3807      0.00000
    572      98.0183      0.00000
    573      98.0597      0.00000
    574      98.3186      0.00000
    575      98.4284      0.00000
    576      98.7509      0.00000
    577      98.9895      0.00000
    578      99.4942      0.00000
    579      99.6658      0.00000
    580      99.7496      0.00000
    581     100.0375      0.00000
    582     100.1790      0.00000
    583     100.5817      0.00000
    584     100.8546      0.00000
    585     101.0372      0.00000
    586     101.2476      0.00000
    587     101.3869      0.00000
    588     101.5249      0.00000
    589     101.6469      0.00000
    590     101.9580      0.00000
    591     102.3770      0.00000
    592     102.5238      0.00000
    593     102.7393      0.00000
    594     103.0168      0.00000
    595     103.1593      0.00000
    596     103.3214      0.00000
    597     103.8683      0.00000
    598     104.0034      0.00000
    599     104.3164      0.00000
    600     104.6235      0.00000
    601     104.9946      0.00000
    602     105.3522      0.00000
    603     105.5255      0.00000
    604     105.6261      0.00000
    605     105.9031      0.00000
    606     106.0901      0.00000
    607     106.4406      0.00000
    608     106.6877      0.00000
    609     107.0904      0.00000
    610     107.2372      0.00000
    611     107.3469      0.00000
    612     107.7611      0.00000
    613     107.9555      0.00000
    614     108.1508      0.00000
    615     108.4563      0.00000
    616     108.5045      0.00000
    617     108.7323      0.00000
    618     108.9099      0.00000
    619     109.1670      0.00000
    620     109.3297      0.00000
    621     109.6620      0.00000
    622     110.2011      0.00000
    623     110.4156      0.00000
    624     110.5944      0.00000
    625     110.9330      0.00000
    626     110.9702      0.00000
    627     111.2069      0.00000
    628     111.3622      0.00000
    629     111.6311      0.00000
    630     111.9250      0.00000
    631     112.0608      0.00000
    632     112.2396      0.00000
    633     112.7502      0.00000
    634     112.8983      0.00000
    635     113.2338      0.00000
    636     113.3953      0.00000
    637     113.6709      0.00000
    638     113.9858      0.00000
    639     114.2419      0.00000
    640     114.3389      0.00000
    641     114.8321      0.00000
    642     115.0143      0.00000
    643     115.3268      0.00000
    644     115.6191      0.00000
    645     115.9129      0.00000
    646     116.1713      0.00000
    647     116.4118      0.00000
    648     116.5607      0.00000
    649     116.8166      0.00000
    650     116.9297      0.00000
    651     117.2764      0.00000
    652     117.5916      0.00000
    653     117.9350      0.00000
    654     118.2124      0.00000
    655     118.3860      0.00000
    656     118.6454      0.00000
    657     118.7325      0.00000
    658     119.0703      0.00000
    659     119.5740      0.00000
    660     119.6610      0.00000
    661     119.9859      0.00000
    662     120.1687      0.00000
    663     120.3907      0.00000
    664     120.4720      0.00000
    665     120.8267      0.00000
    666     121.2346      0.00000
    667     121.5277      0.00000
    668     121.7587      0.00000
    669     122.0798      0.00000
    670     122.4429      0.00000
    671     122.5462      0.00000
    672     122.7216      0.00000
    673     122.7600      0.00000
    674     123.0380      0.00000
    675     123.2933      0.00000
    676     123.7397      0.00000
    677     123.7550      0.00000
    678     124.3748      0.00000
    679     124.4511      0.00000
    680     124.7791      0.00000
    681     125.0243      0.00000
    682     125.3319      0.00000
    683     125.4687      0.00000
    684     125.7479      0.00000
    685     125.8740      0.00000
    686     126.1315      0.00000
    687     126.3192      0.00000
    688     126.5373      0.00000
    689     126.5727      0.00000
    690     126.9895      0.00000
    691     127.2103      0.00000
    692     127.5012      0.00000
    693     127.5880      0.00000
    694     128.0624      0.00000
    695     128.2327      0.00000
    696     128.4509      0.00000
    697     128.7987      0.00000
    698     129.0793      0.00000
    699     129.4301      0.00000
    700     129.6220      0.00000
    701     129.7022      0.00000
    702     129.9935      0.00000
    703     130.1283      0.00000
    704     130.5963      0.00000
    705     130.7503      0.00000
    706     130.9215      0.00000
    707     131.1376      0.00000
    708     131.1932      0.00000
    709     131.4446      0.00000
    710     131.7738      0.00000
    711     131.9884      0.00000
    712     132.0895      0.00000
    713     132.2078      0.00000
    714     132.7767      0.00000
    715     133.0684      0.00000
    716     133.1152      0.00000
    717     133.2350      0.00000
    718     133.3602      0.00000
    719     134.0080      0.00000
    720     134.1864      0.00000
    721     134.4732      0.00000
    722     134.6163      0.00000
    723     134.8253      0.00000
    724     135.2736      0.00000
    725     135.2839      0.00000
    726     135.4316      0.00000
    727     135.5579      0.00000
    728     135.7636      0.00000
    729     135.9658      0.00000
    730     136.1891      0.00000
    731     136.5036      0.00000
    732     136.7095      0.00000
    733     136.8296      0.00000
    734     137.1799      0.00000
    735     137.3575      0.00000
    736     137.5276      0.00000
    737     137.9614      0.00000
    738     138.3085      0.00000
    739     138.5057      0.00000
    740     138.5547      0.00000
    741     138.7432      0.00000
    742     138.9100      0.00000
    743     138.9585      0.00000
    744     139.1636      0.00000
    745     139.3193      0.00000
    746     139.3842      0.00000
    747     139.7321      0.00000
    748     139.8826      0.00000
    749     139.9166      0.00000
    750     140.2513      0.00000
    751     140.3261      0.00000
    752     140.6571      0.00000
    753     140.8758      0.00000
    754     141.1165      0.00000
    755     141.1444      0.00000
    756     141.5428      0.00000
    757     141.6059      0.00000
    758     141.7218      0.00000
    759     142.1523      0.00000
    760     142.3899      0.00000
    761     142.5472      0.00000
    762     142.7441      0.00000
    763     142.8633      0.00000
    764     143.2850      0.00000
    765     143.3083      0.00000
    766     143.5464      0.00000
    767     143.7472      0.00000
    768     143.8602      0.00000
    769     144.1466      0.00000
    770     144.4550      0.00000
    771     144.5873      0.00000
    772     144.5972      0.00000
    773     144.8647      0.00000
    774     145.1062      0.00000
    775     145.2529      0.00000
    776     145.4723      0.00000
    777     145.7715      0.00000
    778     145.8667      0.00000
    779     145.9524      0.00000
    780     146.1856      0.00000
    781     146.3817      0.00000
    782     146.7296      0.00000
    783     147.0708      0.00000
    784     147.2233      0.00000
    785     147.2547      0.00000
    786     147.6415      0.00000
    787     147.8488      0.00000
    788     148.0233      0.00000
    789     148.0840      0.00000
    790     148.3356      0.00000
    791     148.4059      0.00000
    792     148.6929      0.00000
    793     148.8985      0.00000
    794     149.1206      0.00000
    795     149.2331      0.00000
    796     149.6696      0.00000
    797     149.9575      0.00000
    798     150.2302      0.00000
    799     150.3518      0.00000
    800     150.6986      0.00000
    801     150.8660      0.00000
    802     151.0518      0.00000
    803     151.1446      0.00000
    804     151.6316      0.00000
    805     151.7028      0.00000
    806     152.0897      0.00000
    807     152.2558      0.00000
    808     152.5025      0.00000
    809     152.5599      0.00000
    810     152.8992      0.00000
    811     153.0624      0.00000
    812     153.1777      0.00000
    813     153.6019      0.00000
    814     153.6313      0.00000
    815     154.0389      0.00000
    816     154.3002      0.00000
    817     154.4126      0.00000
    818     154.6555      0.00000
    819     154.9731      0.00000
    820     155.1531      0.00000
    821     155.4405      0.00000
    822     155.4834      0.00000
    823     155.7863      0.00000
    824     155.9610      0.00000
    825     156.3238      0.00000
    826     156.6599      0.00000
    827     156.9623      0.00000
    828     157.0919      0.00000
    829     157.1247      0.00000
    830     157.3700      0.00000
    831     157.4624      0.00000
    832     157.8726      0.00000
    833     158.2301      0.00000
    834     158.3250      0.00000
    835     158.4576      0.00000
    836     158.6688      0.00000
    837     158.8465      0.00000
    838     159.0814      0.00000
    839     159.2477      0.00000
    840     159.7180      0.00000
    841     160.0011      0.00000
    842     160.3366      0.00000
    843     160.4283      0.00000
    844     160.5356      0.00000
    845     160.8245      0.00000
    846     161.1298      0.00000
    847     161.3635      0.00000
    848     161.5357      0.00000
    849     161.8922      0.00000
    850     162.0682      0.00000
    851     162.3622      0.00000
    852     162.6618      0.00000
    853     162.7187      0.00000
    854     163.2223      0.00000
    855     163.3499      0.00000
    856     163.4470      0.00000
    857     163.6665      0.00000
    858     163.8707      0.00000
    859     164.3775      0.00000
    860     164.7552      0.00000
    861     164.8657      0.00000
    862     165.1870      0.00000
    863     165.5908      0.00000
    864     165.8188      0.00000
    865     165.9393      0.00000
    866     166.2182      0.00000
    867     166.3350      0.00000
    868     166.8508      0.00000
    869     166.8689      0.00000
    870     167.2776      0.00000
    871     167.4113      0.00000
    872     167.5612      0.00000
    873     167.8310      0.00000
    874     168.2409      0.00000
    875     168.4286      0.00000
    876     168.5942      0.00000
    877     168.7639      0.00000
    878     169.1236      0.00000
    879     169.4740      0.00000
    880     169.6377      0.00000
    881     169.7635      0.00000
    882     170.3926      0.00000
    883     170.9988      0.00000
    884     171.0991      0.00000
    885     171.3326      0.00000
    886     171.5928      0.00000
    887     171.9263      0.00000
    888     172.0352      0.00000
    889     172.1769      0.00000
    890     172.3347      0.00000
    891     172.5923      0.00000
    892     172.9803      0.00000
    893     173.2990      0.00000
    894     173.8713      0.00000
    895     174.0685      0.00000
    896     175.1029      0.00000
    897     175.2496      0.00000
    898     175.4499      0.00000
    899     175.6533      0.00000
    900     175.9858      0.00000
    901     176.5201      0.00000
    902     176.5945      0.00000
    903     176.6469      0.00000
    904     177.1239      0.00000
    905     177.6939      0.00000
    906     177.9965      0.00000
    907     178.2974      0.00000
    908     178.4019      0.00000
    909     178.6548      0.00000
    910     179.0606      0.00000
    911     179.4359      0.00000
    912     180.1355      0.00000
    913     180.3833      0.00000
    914     180.5354      0.00000
    915     180.9889      0.00000
    916     181.3065      0.00000
    917     182.0203      0.00000
    918     182.3324      0.00000
    919     182.7222      0.00000
    920     182.8445      0.00000
    921     183.5034      0.00000
    922     183.8483      0.00000
    923     184.1839      0.00000
    924     184.5096      0.00000
    925     185.1636      0.00000
    926     185.5622      0.00000
    927     185.8855      0.00000
    928     186.1505      0.00000
    929     186.4890      0.00000
    930     187.0511      0.00000
    931     187.1115      0.00000
    932     187.6330      0.00000
    933     187.9028      0.00000
    934     188.3560      0.00000
    935     188.5885      0.00000
    936     188.8939      0.00000
    937     189.1906      0.00000
    938     189.6539      0.00000
    939     189.8328      0.00000
    940     190.3176      0.00000
    941     190.7400      0.00000
    942     190.9191      0.00000
    943     191.3765      0.00000
    944     191.5903      0.00000
    945     192.1761      0.00000
    946     192.3412      0.00000
    947     192.6708      0.00000
    948     192.7909      0.00000
    949     193.3227      0.00000
    950     193.7212      0.00000
    951     193.8842      0.00000
    952     194.4890      0.00000
    953     194.7742      0.00000
    954     195.4231      0.00000
    955     195.8674      0.00000
    956     196.1537      0.00000
    957     196.5021      0.00000
    958     196.6985      0.00000
    959     197.1682      0.00000
    960     197.3937      0.00000
    961     197.5439      0.00000
    962     197.8241      0.00000
    963     198.2596      0.00000
    964     198.3453      0.00000
    965     198.8892      0.00000
    966     199.1813      0.00000
    967     199.4183      0.00000
    968     199.4986      0.00000
    969     200.0821      0.00000
    970     200.2409      0.00000
    971     200.5315      0.00000
    972     200.6701      0.00000
    973     201.0251      0.00000
    974     201.5225      0.00000
    975     201.6314      0.00000
    976     201.8794      0.00000
    977     202.0218      0.00000
    978     202.3644      0.00000
    979     202.5778      0.00000
    980     202.7418      0.00000
    981     203.0434      0.00000
    982     203.1090      0.00000
    983     203.2039      0.00000
    984     203.5065      0.00000
    985     203.8686      0.00000
    986     204.0730      0.00000
    987     204.2850      0.00000
    988     204.4731      0.00000
    989     204.9002      0.00000
    990     204.9964      0.00000
    991     205.0823      0.00000
    992     205.1260      0.00000
    993     205.3402      0.00000
    994     205.6355      0.00000
    995     205.6845      0.00000
    996     205.8127      0.00000
    997     206.2532      0.00000
    998     206.5621      0.00000
    999     206.7694      0.00000
   1000     206.8951      0.00000
   1001     207.2750      0.00000
   1002     207.4854      0.00000
   1003     207.8732      0.00000
   1004     208.0057      0.00000
   1005     208.2129      0.00000
   1006     208.4548      0.00000
   1007     208.5474      0.00000
   1008     208.7503      0.00000
   1009     209.0961      0.00000
   1010     209.4148      0.00000
   1011     209.5297      0.00000
   1012     209.8097      0.00000
   1013     210.0466      0.00000
   1014     210.2152      0.00000
   1015     210.4324      0.00000
   1016     210.5172      0.00000
   1017     210.8799      0.00000
   1018     211.0545      0.00000
   1019     211.2983      0.00000
   1020     211.4945      0.00000
   1021     211.7479      0.00000
   1022     211.9374      0.00000
   1023     212.2676      0.00000
   1024     212.4878      0.00000
   1025     212.6292      0.00000
   1026     213.0681      0.00000
   1027     213.0974      0.00000
   1028     213.1284      0.00000
   1029     213.4972      0.00000
   1030     213.9727      0.00000
   1031     214.2016      0.00000
   1032     214.5420      0.00000
   1033     214.6191      0.00000
   1034     215.0293      0.00000
   1035     215.2864      0.00000
   1036     215.4710      0.00000
   1037     215.6334      0.00000
   1038     215.9120      0.00000
   1039     216.0980      0.00000
   1040     216.2328      0.00000
   1041     216.6074      0.00000
   1042     216.7618      0.00000
   1043     216.9847      0.00000
   1044     217.2946      0.00000
   1045     217.5967      0.00000
   1046     217.9069      0.00000
   1047     218.1908      0.00000
   1048     218.5882      0.00000
   1049     218.8060      0.00000
   1050     218.9479      0.00000
   1051     219.2831      0.00000
   1052     219.5530      0.00000
   1053     219.8314      0.00000
   1054     220.2823      0.00000
   1055     220.7821      0.00000
   1056     220.8714      0.00000
   1057     220.9496      0.00000
   1058     221.1584      0.00000
   1059     221.4294      0.00000
   1060     221.8289      0.00000
   1061     221.9803      0.00000
   1062     222.2258      0.00000
   1063     222.5109      0.00000
   1064     222.9562      0.00000
   1065     223.3371      0.00000
   1066     223.6517      0.00000
   1067     223.8797      0.00000
   1068     224.1496      0.00000
   1069     224.5003      0.00000
   1070     224.7463      0.00000
   1071     224.9118      0.00000
   1072     225.2068      0.00000
   1073     225.4611      0.00000
   1074     225.7500      0.00000
   1075     225.8186      0.00000
   1076     226.3824      0.00000
   1077     226.5435      0.00000
   1078     227.2616      0.00000
   1079     227.5584      0.00000
   1080     227.7660      0.00000
   1081     227.9580      0.00000
   1082     228.2088      0.00000
   1083     228.2891      0.00000
   1084     228.8566      0.00000
   1085     228.8978      0.00000
   1086     229.1804      0.00000
   1087     229.2983      0.00000
   1088     229.5446      0.00000
   1089     229.7325      0.00000
   1090     230.1597      0.00000
   1091     230.3031      0.00000
   1092     230.3878      0.00000
   1093     230.6054      0.00000
   1094     230.8707      0.00000
   1095     231.0504      0.00000
   1096     231.4928      0.00000
   1097     231.6046      0.00000
   1098     231.8706      0.00000
   1099     232.0808      0.00000
   1100     232.3457      0.00000
   1101     232.5143      0.00000
   1102     232.6825      0.00000
   1103     232.8647      0.00000
   1104     233.1476      0.00000
   1105     233.4445      0.00000
   1106     233.6644      0.00000
   1107     234.0389      0.00000
   1108     234.1453      0.00000
   1109     234.2263      0.00000
   1110     234.5484      0.00000
   1111     235.0054      0.00000
   1112     235.1335      0.00000
   1113     235.2699      0.00000
   1114     235.7625      0.00000
   1115     236.0612      0.00000
   1116     236.2699      0.00000
   1117     236.4493      0.00000
   1118     236.8717      0.00000
   1119     237.0277      0.00000
   1120     237.2998      0.00000
   1121     237.7103      0.00000
   1122     237.7740      0.00000
   1123     237.8340      0.00000
   1124     238.0084      0.00000
   1125     238.3947      0.00000
   1126     238.4697      0.00000
   1127     238.8826      0.00000
   1128     239.2578      0.00000
   1129     239.4286      0.00000
   1130     239.5629      0.00000
   1131     239.7198      0.00000
   1132     239.9754      0.00000
   1133     240.1579      0.00000
   1134     240.3195      0.00000
   1135     240.5926      0.00000
   1136     240.9596      0.00000
   1137     240.9686      0.00000
   1138     241.0121      0.00000
   1139     241.2615      0.00000
   1140     241.3739      0.00000
   1141     241.8018      0.00000
   1142     242.1253      0.00000
   1143     242.4590      0.00000
   1144     242.5526      0.00000
   1145     242.7524      0.00000
   1146     242.9777      0.00000
   1147     243.1996      0.00000
   1148     243.4989      0.00000
   1149     243.7364      0.00000
   1150     244.0770      0.00000
   1151     244.2835      0.00000
   1152     244.4993      0.00000
   1153     244.6612      0.00000
   1154     245.1317      0.00000
   1155     245.1605      0.00000
   1156     245.4333      0.00000
   1157     245.6773      0.00000
   1158     245.7914      0.00000
   1159     245.9570      0.00000
   1160     246.4720      0.00000
   1161     246.6119      0.00000
   1162     246.8974      0.00000
   1163     247.0912      0.00000
   1164     247.2123      0.00000
   1165     247.5700      0.00000
   1166     247.8178      0.00000
   1167     247.8694      0.00000
   1168     248.2080      0.00000
   1169     248.4650      0.00000
   1170     248.7318      0.00000
   1171     248.8100      0.00000
   1172     249.0163      0.00000
   1173     249.2026      0.00000
   1174     249.4615      0.00000
   1175     249.7123      0.00000
   1176     250.1808      0.00000
   1177     250.3099      0.00000
   1178     250.6654      0.00000
   1179     250.7369      0.00000
   1180     251.1607      0.00000
   1181     251.2626      0.00000
   1182     251.4222      0.00000
   1183     251.7508      0.00000
   1184     251.9572      0.00000
   1185     252.1538      0.00000
   1186     252.4184      0.00000
   1187     252.6422      0.00000
   1188     252.9019      0.00000
   1189     253.1329      0.00000
   1190     253.4157      0.00000
   1191     253.8629      0.00000
   1192     253.9190      0.00000
   1193     254.1897      0.00000
   1194     254.4126      0.00000
   1195     254.4356      0.00000
   1196     254.7195      0.00000
   1197     254.8570      0.00000
   1198     254.9874      0.00000
   1199     255.2955      0.00000
   1200     255.4492      0.00000
   1201     255.6249      0.00000
   1202     255.8904      0.00000
   1203     256.2039      0.00000
   1204     256.2669      0.00000
   1205     256.5413      0.00000
   1206     256.6291      0.00000
   1207     256.7943      0.00000
   1208     257.0077      0.00000
   1209     257.1814      0.00000
   1210     257.3445      0.00000
   1211     257.7148      0.00000
   1212     257.7774      0.00000
   1213     257.8836      0.00000
   1214     257.9772      0.00000
   1215     258.2709      0.00000
   1216     258.5145      0.00000
   1217     258.7687      0.00000
   1218     258.9587      0.00000
   1219     259.3374      0.00000
   1220     259.4315      0.00000
   1221     259.6624      0.00000
   1222     259.8590      0.00000
   1223     259.9609      0.00000
   1224     260.1109      0.00000
   1225     260.3601      0.00000
   1226     260.4938      0.00000
   1227     260.8100      0.00000
   1228     260.9847      0.00000
   1229     261.0891      0.00000
   1230     261.4104      0.00000
   1231     261.7954      0.00000
   1232     262.0070      0.00000
   1233     262.0134      0.00000
   1234     262.4064      0.00000
   1235     262.4487      0.00000
   1236     262.5587      0.00000
   1237     262.8602      0.00000
   1238     262.9614      0.00000
   1239     263.1298      0.00000
   1240     263.1694      0.00000
   1241     263.5184      0.00000
   1242     263.6647      0.00000
   1243     263.7619      0.00000
   1244     263.8446      0.00000
   1245     263.9321      0.00000
   1246     264.2547      0.00000
   1247     264.3718      0.00000
   1248     264.6071      0.00000
   1249     264.7309      0.00000
   1250     265.0251      0.00000
   1251     265.1161      0.00000
   1252     265.2538      0.00000
   1253     265.3640      0.00000
   1254     265.5382      0.00000
   1255     265.8796      0.00000
   1256     265.9344      0.00000
   1257     266.0853      0.00000
   1258     266.4882      0.00000
   1259     266.4921      0.00000
   1260     266.7117      0.00000
   1261     266.8416      0.00000
   1262     267.0020      0.00000
   1263     267.0486      0.00000
   1264     267.2064      0.00000
   1265     267.3115      0.00000
   1266     267.5774      0.00000
   1267     267.8998      0.00000
   1268     268.1228      0.00000
   1269     268.3991      0.00000
   1270     268.4951      0.00000
   1271     268.9112      0.00000
   1272     269.0033      0.00000
   1273     269.1162      0.00000
   1274     269.5154      0.00000
   1275     269.5981      0.00000
   1276     269.6747      0.00000
   1277     269.9920      0.00000
   1278     270.1603      0.00000
   1279     270.2264      0.00000
   1280     270.3063      0.00000
   1281     270.5703      0.00000
   1282     270.7050      0.00000
   1283     270.9826      0.00000
   1284     271.2200      0.00000
   1285     271.2788      0.00000
   1286     271.3893      0.00000
   1287     271.6309      0.00000
   1288     271.7269      0.00000
   1289     271.7733      0.00000
   1290     272.0198      0.00000
   1291     272.1404      0.00000
   1292     272.3789      0.00000
   1293     272.5970      0.00000
   1294     272.7685      0.00000
   1295     272.9706      0.00000
   1296     273.0214      0.00000
   1297     273.2175      0.00000
   1298     273.5162      0.00000
   1299     273.7906      0.00000
   1300     273.8840      0.00000
   1301     273.9507      0.00000
   1302     274.4159      0.00000
   1303     274.5916      0.00000
   1304     274.6687      0.00000
   1305     274.7401      0.00000
   1306     274.7955      0.00000
   1307     274.9612      0.00000
   1308     275.1844      0.00000
   1309     275.2323      0.00000
   1310     275.6228      0.00000
   1311     275.7033      0.00000
   1312     275.7359      0.00000
   1313     276.1600      0.00000
   1314     276.2928      0.00000
   1315     276.4032      0.00000
   1316     276.6958      0.00000
   1317     276.7743      0.00000
   1318     276.9393      0.00000
   1319     277.1049      0.00000
   1320     277.2442      0.00000
   1321     277.3940      0.00000
   1322     277.5737      0.00000
   1323     277.8328      0.00000
   1324     278.1191      0.00000
   1325     278.1512      0.00000
   1326     278.4059      0.00000
   1327     278.7238      0.00000
   1328     279.1184      0.00000
   1329     279.2681      0.00000
   1330     279.3796      0.00000
   1331     279.5192      0.00000
   1332     279.6999      0.00000
   1333     279.8195      0.00000
   1334     280.0605      0.00000
   1335     280.3191      0.00000
   1336     280.4860      0.00000
   1337     280.5401      0.00000
   1338     280.7518      0.00000
   1339     281.0835      0.00000
   1340     281.3345      0.00000
   1341     281.5753      0.00000
   1342     281.8011      0.00000
   1343     281.8957      0.00000
   1344     282.1184      0.00000
   1345     282.2120      0.00000
   1346     282.4419      0.00000
   1347     282.7859      0.00000
   1348     282.9597      0.00000
   1349     283.2540      0.00000
   1350     283.5693      0.00000
   1351     283.8549      0.00000
   1352     283.9606      0.00000
   1353     284.5155      0.00000
   1354     284.8454      0.00000
   1355     285.2016      0.00000
   1356     285.3770      0.00000
   1357     285.7773      0.00000
   1358     285.9310      0.00000
   1359     286.3488      0.00000
   1360     286.6207      0.00000
   1361     286.7838      0.00000
   1362     287.0951      0.00000
   1363     287.1810      0.00000
   1364     287.3329      0.00000
   1365     287.5711      0.00000
   1366     287.8359      0.00000
   1367     288.0122      0.00000
   1368     288.2662      0.00000
   1369     288.6069      0.00000
   1370     288.9997      0.00000
   1371     289.2253      0.00000
   1372     289.3836      0.00000
   1373     289.4512      0.00000
   1374     289.7688      0.00000
   1375     290.0329      0.00000
   1376     290.5956      0.00000
   1377     290.6288      0.00000
   1378     290.9851      0.00000
   1379     291.4554      0.00000
   1380     292.0155      0.00000
   1381     292.2389      0.00000
   1382     292.4061      0.00000
   1383     292.6570      0.00000
   1384     293.0407      0.00000
   1385     293.7084      0.00000
   1386     293.8844      0.00000
   1387     294.4697      0.00000
   1388     294.9131      0.00000
   1389     295.1400      0.00000
   1390     295.6925      0.00000
   1391     295.7392      0.00000
   1392     296.1124      0.00000
   1393     296.7096      0.00000
   1394     296.9430      0.00000
   1395     297.3836      0.00000
   1396     297.7624      0.00000
   1397     297.7802      0.00000
   1398     298.2442      0.00000
   1399     299.0133      0.00000
   1400     299.3365      0.00000
   1401     299.4962      0.00000
   1402     299.8589      0.00000
   1403     300.6256      0.00000
   1404     300.8250      0.00000
   1405     301.0951      0.00000
   1406     301.3288      0.00000
   1407     301.8948      0.00000
   1408     302.2187      0.00000
   1409     302.5330      0.00000
   1410     302.6681      0.00000
   1411     302.9427      0.00000
   1412     303.4112      0.00000
   1413     303.7174      0.00000
   1414     304.2117      0.00000
   1415     304.6343      0.00000
   1416     304.9811      0.00000
   1417     305.0722      0.00000
   1418     305.6170      0.00000
   1419     305.7584      0.00000
   1420     305.9642      0.00000
   1421     306.1946      0.00000
   1422     306.4711      0.00000
   1423     307.0322      0.00000
   1424     307.4784      0.00000
   1425     307.9542      0.00000
   1426     308.2280      0.00000
   1427     308.6410      0.00000
   1428     308.9164      0.00000
   1429     309.0466      0.00000
   1430     309.4736      0.00000
   1431     309.9222      0.00000
   1432     310.0771      0.00000
   1433     310.2357      0.00000
   1434     311.2491      0.00000
   1435     311.5837      0.00000
   1436     312.2480      0.00000
   1437     312.5447      0.00000
   1438     312.8041      0.00000
   1439     313.1732      0.00000
   1440     313.8380      0.00000
   1441     314.0599      0.00000
   1442     314.7116      0.00000
   1443     314.8675      0.00000
   1444     315.0551      0.00000
   1445     315.4151      0.00000
   1446     316.2332      0.00000
   1447     316.5980      0.00000
   1448     317.0405      0.00000
   1449     317.4192      0.00000
   1450     317.5975      0.00000
   1451     318.1149      0.00000
   1452     318.9529      0.00000
   1453     319.1794      0.00000
   1454     320.1428      0.00000
   1455     320.4156      0.00000
   1456     320.9236      0.00000
   1457     321.4628      0.00000
   1458     321.8036      0.00000
   1459     322.4999      0.00000
   1460     322.7877      0.00000
   1461     323.4380      0.00000
   1462     323.9588      0.00000
   1463     324.6740      0.00000
   1464     325.4264      0.00000
   1465     325.7202      0.00000
   1466     326.9239      0.00000
   1467     328.0347      0.00000
   1468     328.8111      0.00000
   1469     330.2179      0.00000
   1470     330.5729      0.00000
   1471     331.7380      0.00000
   1472     332.5042      0.00000
   1473     333.8994      0.00000
   1474     334.9404      0.00000
   1475     335.4466      0.00000
   1476     335.5397      0.00000
   1477     335.8995      0.00000
   1478     335.9707      0.00000
   1479     336.5574      0.00000
   1480     337.5248      0.00000
   1481     339.0848      0.00000
   1482     340.3286      0.00000
   1483     340.5528      0.00000
   1484     343.0841      0.00000
   1485     344.5368      0.00000
   1486     345.0122      0.00000
   1487     345.5865      0.00000
   1488     346.6180      0.00000
   1489     346.9570      0.00000
   1490     347.3580      0.00000
   1491     348.1413      0.00000
   1492     349.9045      0.00000
   1493     352.1903      0.00000
   1494     360.3715      0.00000
   1495     360.8750      0.00000
   1496     364.2912      0.00000


--------------------------------------------------------------------------------------------------------


 soft charge-density along one line, spin component           1
         0         1         2         3         4         5         6         7         8         9
 total charge-density along one line
 
 pseudopotential strength for first ion, spin component:           1
  9.401 -14.475   0.000  -0.001   0.001   0.002  -0.004   0.005
-14.475  25.174  -0.000   0.001  -0.001  -0.003   0.007  -0.009
  0.000  -0.000  -3.729  -0.003   0.005  -0.072   0.011  -0.019
 -0.001   0.001  -0.003  -3.722  -0.011   0.011  -0.096   0.043
  0.001  -0.001   0.005  -0.011  -3.714  -0.019   0.043  -0.129
  0.002  -0.003  -0.072   0.011  -0.019  50.291  -0.036   0.056
 -0.004   0.007   0.011  -0.096   0.043  -0.036  50.366  -0.133
  0.005  -0.009  -0.019   0.043  -0.129   0.056  -0.133  50.465
 total augmentation occupancy for first ion, spin component:           1
  1.762   0.062  -0.001   0.007  -0.015   0.000   0.000  -0.002
  0.062   0.003   0.000  -0.000  -0.001   0.000  -0.000  -0.000
 -0.001   0.000   0.880  -0.131   0.195   0.048  -0.012   0.018
  0.007  -0.000  -0.131   1.147  -0.467  -0.012   0.072  -0.042
 -0.015  -0.001   0.195  -0.467   1.488   0.017  -0.042   0.102
  0.000   0.000   0.048  -0.012   0.017   0.003  -0.001   0.002
  0.000  -0.000  -0.012   0.072  -0.042  -0.001   0.005  -0.004
 -0.002  -0.000   0.018  -0.042   0.102   0.002  -0.004   0.009


------------------------ aborting loop because EDIFF is reached ----------------------------------------





 total charge

# of ion       s       p       d       f       tot
--------------------------------------------------
    1        0.905   1.610   0.000   0.000   2.515
    2        0.824   1.624   0.000   0.000   2.448
    3        0.834   1.724   0.000   0.000   2.558
    4        0.824   1.623   0.000   0.000   2.447
    5        0.833   1.725   0.000   0.000   2.558
    6        0.839   1.546   0.000   0.000   2.385
    7        0.846   1.715   0.000   0.000   2.561
    8        0.846   1.719   0.000   0.000   2.565
    9        0.839   1.545   0.000   0.000   2.384
   10        0.846   1.715   0.000   0.000   2.561
   11        0.839   1.545   0.000   0.000   2.384
   12        0.833   1.725   0.000   0.000   2.558
   13        0.824   1.624   0.000   0.000   2.448
   14        0.824   1.623   0.000   0.000   2.447
   15        0.833   1.725   0.000   0.000   2.559
   16        0.839   1.546   0.000   0.000   2.385
   17        0.846   1.715   0.000   0.000   2.561
   18        0.839   1.545   0.000   0.000   2.385
   19        0.847   1.714   0.000   0.000   2.561
   20        0.846   1.715   0.000   0.000   2.561
   21        0.839   1.546   0.000   0.000   2.385
   22        0.833   1.725   0.000   0.000   2.558
   23        0.824   1.624   0.000   0.000   2.448
   24        0.833   1.726   0.000   0.000   2.559
   25        0.824   1.624   0.000   0.000   2.448
   26        0.664   0.048   0.000   0.000   0.712
   27        0.664   0.048   0.000   0.000   0.712
   28        0.664   0.048   0.000   0.000   0.712
   29        0.664   0.048   0.000   0.000   0.712
   30        0.664   0.048   0.000   0.000   0.712
   31        0.664   0.048   0.000   0.000   0.712
   32        1.591   3.559   0.000   0.000   5.150
   33        1.582   3.584   0.000   0.000   5.166
   34        1.542   3.669   0.000   0.000   5.211
   35        1.525   3.647   0.000   0.000   5.172
   36        1.554   3.621   0.000   0.000   5.175
   37        1.525   3.646   0.000   0.000   5.172
   38        1.541   3.670   0.000   0.000   5.211
   39        1.541   3.670   0.000   0.000   5.211
   40        1.525   3.647   0.000   0.000   5.172
   41        1.554   3.620   0.000   0.000   5.174
   42        1.554   3.620   0.000   0.000   5.174
   43        1.554   3.620   0.000   0.000   5.174
   44        1.554   3.626   0.000   0.000   5.180
   45        1.525   3.647   0.000   0.000   5.172
   46        1.542   3.669   0.000   0.000   5.211
   47        1.541   3.670   0.000   0.000   5.212
   48        1.525   3.646   0.000   0.000   5.171
   49        1.554   3.620   0.000   0.000   5.174
   50        1.525   3.648   0.000   0.000   5.173
   51        1.542   3.668   0.000   0.000   5.210
   52        2.071   6.276   5.722   0.014  14.082
   53        2.071   6.275   5.722   0.014  14.082
   54        2.071   6.276   5.722   0.014  14.083
   55        2.071   6.276   5.722   0.014  14.083
   56        2.070   6.276   5.721   0.014  14.081
   57        2.071   6.276   5.722   0.014  14.082
--------------------------------------------------
tot         68.269 151.973  34.332   0.085 254.660
 
    CHARGE:  cpu time      0.3601: real time      0.3610
    FORLOC:  cpu time      0.3134: real time      0.3143
    FORHF :  cpu time     53.6311: real time     53.7700
    FORNL :  cpu time     10.4184: real time     10.4451
    FORCOR:  cpu time      1.3043: real time      1.3076
    FORHAR:  cpu time      0.4378: real time      0.4391
    MIXING:  cpu time      0.0094: real time      0.0094
    OFIELD:  cpu time      0.0000: real time      0.0000

 VOLUME and BASIS-vectors are now :
 -----------------------------------------------------------------------------
  energy-cutoff  :      420.00
  volume of cell :     1403.01
      direct lattice vectors                 reciprocal lattice vectors
    15.439217752  0.004465832 -0.038376892     0.065085042  0.034326685  0.130688713
    -7.186282924 13.630928377 -0.001416099     0.000303919  0.073536393  0.130825479
    -7.182834812-11.890639092  6.700359279     0.000372844  0.000212151  0.150021909

  length of vectors
    15.439266094 15.409246337 15.423204220     0.149979744  0.150076646  0.150022522


 FORCES acting on ions
    electron-ion (+dipol)            ewald-force                    non-local-force                 convergence-correction
 -----------------------------------------------------------------------------------------------
   0.274E+03 -.251E+03 0.274E+02   -.274E+03 0.251E+03 -.270E+02   -.208E+00 0.157E+00 -.121E+00   -.821E-04 -.115E-04 0.481E-04
   -.193E+03 0.756E+02 0.239E+02   0.196E+03 -.789E+02 -.251E+02   -.366E+01 0.355E+01 0.127E+01   0.971E-06 0.262E-06 -.337E-05
   -.119E+03 0.121E+02 -.426E+01   0.120E+03 -.116E+02 0.199E+01   -.969E+00 -.232E+00 0.916E+00   -.150E-05 -.191E-06 0.169E-05
   0.118E+03 0.193E+03 -.365E+02   -.122E+03 -.194E+03 0.362E+02   0.406E+01 0.163E+01 0.222E+00   -.134E-04 -.281E-04 0.802E-05
   0.103E+03 -.851E+02 -.274E+02   -.105E+03 0.857E+02 0.257E+02   0.110E+01 -.556E+00 0.713E+00   0.143E-05 0.108E-05 -.844E-06
   -.249E+03 -.339E+02 0.988E+02   0.252E+03 0.354E+02 -.101E+03   -.390E+01 -.217E+01 0.511E+01   -.107E-05 0.247E-05 -.394E-06
   -.694E+02 -.762E+02 -.699E+02   0.697E+02 0.780E+02 0.716E+02   -.354E+00 -.173E+01 -.188E+01   0.204E-05 0.378E-06 -.119E-05
   -.549E+02 0.130E+03 -.113E+03   0.565E+02 -.130E+03 0.115E+03   -.140E+01 0.129E+00 -.215E+01   -.995E-06 -.790E-05 0.554E-07
   -.878E+02 -.293E+03 0.494E+02   0.880E+02 0.297E+03 -.487E+02   0.186E+00 -.579E+01 -.273E+01   0.821E-05 -.135E-04 0.103E-04
   -.837E+02 0.368E+02 0.106E+03   0.844E+02 -.367E+02 -.108E+03   -.669E+00 0.819E-01 0.247E+01   0.261E-05 0.593E-05 0.103E-05
   0.241E+03 -.164E+03 0.502E+02   -.245E+03 0.166E+03 -.518E+02   0.576E+01 -.143E+01 0.341E+01   0.121E-05 0.154E-05 -.910E-06
   -.470E+02 -.130E+03 0.759E+02   0.472E+02 0.133E+03 -.747E+02   -.175E+00 -.131E+01 -.371E+00   0.707E-05 0.152E-04 0.989E-05
   -.539E+02 0.184E+03 -.524E+02   0.534E+02 -.188E+03 0.551E+02   0.539E+00 0.441E+01 -.285E+01   0.895E-06 0.187E-05 0.109E-05
   0.755E+01 -.212E+03 0.627E+02   -.713E+01 0.216E+03 -.653E+02   -.433E+00 -.376E+01 0.237E+01   0.108E-04 -.769E-05 0.260E-04
   0.491E+01 0.103E+03 -.613E+02   -.516E+01 -.105E+03 0.601E+02   0.234E+00 0.141E+01 0.346E+00   0.768E-06 -.100E-05 0.195E-05
   -.241E+03 0.181E+03 -.564E+02   0.245E+03 -.183E+03 0.580E+02   -.573E+01 0.142E+01 -.341E+01   -.462E-05 0.432E-05 0.179E-05
   0.453E+02 -.675E+02 -.934E+02   -.461E+02 0.673E+02 0.958E+02   0.677E+00 0.224E-02 -.248E+01   0.398E-05 -.509E-05 0.218E-05
   0.481E+02 0.281E+03 -.349E+02   -.483E+02 -.285E+03 0.343E+02   -.662E-01 0.650E+01 0.228E+01   0.696E-06 0.447E-06 -.322E-06
   0.301E+02 -.110E+02 0.955E+02   -.315E+02 0.110E+02 -.975E+02   0.137E+01 0.208E-01 0.217E+01   -.481E-05 -.573E-05 0.377E-05
   0.789E+02 0.846E+02 0.661E+02   -.791E+02 -.864E+02 -.678E+02   0.362E+00 0.172E+01 0.189E+01   0.459E-06 0.113E-05 -.335E-06
   0.219E+03 0.106E+03 -.117E+03   -.222E+03 -.108E+03 0.120E+03   0.427E+01 0.220E+01 -.435E+01   -.218E-06 -.685E-05 -.305E-04
   -.956E+02 0.958E+02 0.228E+02   0.977E+02 -.965E+02 -.211E+02   -.108E+01 0.543E+00 -.710E+00   -.101E-05 0.143E-05 -.120E-05
   -.143E+03 -.850E+02 0.387E+02   0.147E+03 0.867E+02 -.383E+02   -.482E+01 -.187E+01 -.319E+00   -.249E-05 -.124E-05 0.224E-05
   0.988E+02 0.928E+02 0.183E+01   -.100E+03 -.934E+02 0.420E+00   0.899E+00 0.280E+00 -.975E+00   -.503E-05 -.141E-04 0.596E-05
   0.199E+03 -.657E+02 -.273E+02   -.203E+03 0.690E+02 0.285E+02   0.367E+01 -.355E+01 -.128E+01   0.100E-05 0.128E-05 -.576E-06
   -.396E+02 0.155E+02 0.583E+02   0.401E+02 -.163E+02 -.638E+02   -.468E+00 0.843E+00 0.567E+01   0.463E-06 0.117E-05 -.796E-06
   -.313E+02 -.475E+02 -.382E+02   0.323E+02 0.503E+02 0.431E+02   -.962E+00 -.281E+01 -.493E+01   0.617E-06 0.156E-06 -.895E-07
   -.340E+02 0.432E+02 -.619E+02   0.361E+02 -.428E+02 0.672E+02   -.206E+01 -.500E+00 -.535E+01   0.222E-06 -.104E-05 0.248E-06
   0.253E+02 -.131E+02 0.482E+02   -.274E+02 0.126E+02 -.534E+02   0.207E+01 0.523E+00 0.535E+01   -.185E-05 -.113E-05 -.206E-07
   0.335E+02 0.494E+02 0.374E+02   -.344E+02 -.522E+02 -.422E+02   0.963E+00 0.281E+01 0.493E+01   0.184E-06 0.279E-06 0.413E-07
   0.308E+02 -.226E+02 -.553E+02   -.313E+02 0.234E+02 0.609E+02   0.467E+00 -.838E+00 -.568E+01   0.909E-06 -.101E-05 -.167E-05
   0.476E+03 -.358E+03 -.776E+02   -.530E+03 0.342E+03 0.116E+03   0.291E+02 0.838E+01 -.203E+02   -.148E-03 -.160E-04 0.914E-04
   0.374E+03 -.442E+03 0.201E+03   -.325E+03 0.459E+03 -.239E+03   -.265E+02 -.918E+01 0.205E+02   0.399E-04 0.508E-04 -.516E-04
   -.257E+03 -.638E+02 0.527E+02   0.223E+03 0.503E+02 -.575E+02   0.242E+02 0.950E+01 0.232E+01   0.138E-06 0.361E-05 -.443E-06
   -.506E+03 0.402E+02 0.274E+02   0.492E+03 -.152E+02 -.144E+02   0.101E+02 -.155E+02 -.967E+01   0.286E-05 0.410E-05 -.176E-04
   -.280E+03 -.457E+03 0.223E+03   0.289E+03 0.464E+03 -.268E+03   -.509E+01 -.458E+01 0.294E+02   0.730E-05 -.789E-05 -.424E-04
   0.179E+03 0.450E+03 -.179E+03   -.150E+03 -.443E+03 0.191E+03   -.144E+02 -.384E+01 -.575E+01   0.914E-04 0.528E-04 -.412E-04
   -.993E+02 -.280E+03 0.113E+03   0.944E+02 0.250E+03 -.911E+02   0.277E+01 0.156E+02 -.119E+02   0.357E-04 -.641E-04 -.135E-04
   0.258E+03 -.166E+03 -.124E+02   -.234E+03 0.140E+03 0.202E+01   -.175E+02 0.181E+02 0.621E+01   0.108E-05 0.292E-05 -.132E-05
   -.222E+03 0.443E+03 -.348E+02   0.229E+03 -.423E+03 0.109E+02   -.318E+01 -.126E+02 0.163E+02   0.832E-06 0.265E-05 -.514E-06
   -.539E+03 0.391E+02 0.167E+02   0.568E+03 -.328E+02 0.191E+02   -.186E+02 -.436E+01 -.234E+02   -.240E-05 0.200E-05 -.140E-05
   -.301E+03 0.482E+03 -.214E+02   0.304E+03 -.514E+03 -.128E+02   -.176E+01 0.203E+02 0.224E+02   0.575E-05 0.490E-05 0.123E-04
   0.306E+03 -.456E+03 0.128E+02   -.309E+03 0.488E+03 0.214E+02   0.178E+01 -.203E+02 -.224E+02   0.171E-05 0.198E-05 -.105E-05
   0.448E+03 0.805E+02 -.947E+02   -.476E+03 -.867E+02 0.588E+02   0.147E+02 0.309E+01 0.199E+02   0.267E-05 -.624E-04 -.221E-04
   0.139E+03 -.462E+03 0.347E+02   -.147E+03 0.442E+03 -.109E+02   0.398E+01 0.101E+02 -.116E+02   0.460E-04 0.367E-05 -.686E-04
   -.281E+03 0.198E+03 0.215E+01   0.257E+03 -.172E+03 0.809E+01   0.176E+02 -.180E+02 -.605E+01   -.148E-04 0.566E-05 0.685E-05
   0.304E+02 0.295E+03 -.953E+02   -.259E+02 -.265E+03 0.737E+02   -.318E+01 -.215E+02 0.142E+02   0.623E-06 0.181E-05 -.408E-06
   -.229E+03 -.334E+03 0.172E+03   0.200E+03 0.327E+03 -.183E+03   0.183E+02 0.593E+01 0.808E+01   -.184E-05 0.162E-05 0.223E-06
   0.235E+03 0.437E+03 -.207E+03   -.243E+03 -.444E+03 0.252E+03   0.517E+01 0.466E+01 -.294E+02   0.106E-05 0.146E-05 -.185E-05
   0.501E+03 -.226E+02 -.300E+02   -.487E+03 -.243E+01 0.169E+02   -.103E+02 0.155E+02 0.940E+01   0.127E-05 0.245E-05 -.702E-06
   0.218E+03 0.130E+03 -.581E+02   -.184E+03 -.116E+03 0.630E+02   -.242E+02 -.955E+01 -.238E+01   0.690E-05 0.368E-05 -.335E-04
   0.679E+03 0.744E+03 -.334E+03   -.675E+03 -.740E+03 0.330E+03   0.226E+01 -.336E+02 0.883E+01   0.206E-05 0.724E-05 -.269E-05
   -.985E+03 0.294E+03 0.412E+02   0.978E+03 -.293E+03 -.421E+02   0.382E+02 0.236E+02 0.413E+01   -.107E-05 0.585E-05 -.203E-05
   0.397E+03 -.904E+03 0.148E+03   -.395E+03 0.897E+03 -.148E+03   -.306E+02 0.222E+02 0.611E+01   0.217E-05 0.714E-05 -.832E-06
   -.444E+03 0.103E+04 -.154E+03   0.443E+03 -.102E+04 0.154E+03   0.324E+02 -.109E+02 -.381E+01   0.909E-04 0.399E-05 -.419E-04
   0.663E+03 -.116E+03 -.990E+02   -.658E+03 0.116E+03 0.987E+02   -.188E+01 0.709E+01 -.135E+02   0.119E-03 -.401E-03 0.252E-03
   -.781E+03 -.723E+03 0.338E+03   0.777E+03 0.719E+03 -.335E+03   0.146E+02 0.276E+02 -.819E+01   -.988E-04 0.200E-04 -.891E-04
 -----------------------------------------------------------------------------------------------
   -.670E+01 0.272E+01 -.118E+01   0.000E+00 -.341E-12 0.114E-12   0.576E+02 0.294E+02 -.113E+01   0.118E-03 -.428E-03 0.108E-04
 
 
 POSITION                                       TOTAL-FORCE (eV/Angst)
 -----------------------------------------------------------------------------------
     -3.78791     10.21574      1.46059        -1.467345     -0.560229      0.279563
     -4.52388     -4.95096      3.79931        -1.850986      0.257644      0.145046
     -4.37821      6.43769      1.10882        -0.759636     -0.338572     -1.080653
     -2.27140      7.33612      0.20906        -0.399501     -0.364564     -0.133421
     -2.44692     -6.22910      4.12534        -1.689443     -0.582384     -0.802799
     -5.11592      6.03086      2.33290        -2.232192     -1.367330      2.655738
     -3.37431     -5.26237      4.53352        -1.101721     -0.636502     -0.293048
     -3.08474      6.94685      1.27881        -1.012310     -0.552111     -0.368889
     -6.67312     -0.89799      5.49428        -0.703797     -2.482468     -1.904831
     -6.53791      1.55649      5.31338        -1.006338     -0.372957      0.336554
     -1.25474     -6.43703      4.98854         1.373664     -0.634415      1.802886
     -6.68409      0.43821      6.14372        -1.017213      0.302099      0.746999
     -6.50125      2.86783      5.80002        -0.849240      0.486968     -0.449239
      7.57135     -1.12308      0.86055        -1.060931     -0.996229      0.035584
      7.75419      1.30655      0.51685        -0.926254     -1.260355     -0.750688
      2.32484      8.18178      1.67203        -3.360166     -0.320848     -1.793900
      7.60801      0.18827      1.34718        -0.960109     -0.616974     -0.324324
      7.74322      2.64274      1.16629        -1.196635      2.012514      1.542341
      4.15484     -5.20209      5.38176        -0.856641     -0.475578      0.314821
      4.44441      7.00712      2.12704        -0.853518     -0.364694      0.306541
      6.18602     -4.28611      4.32766         0.729880      0.423778     -1.652406
      3.51702      7.97385      2.53523        -0.262476     -0.413296      0.800161
      3.34150     -5.59137      6.45151        -2.129003     -0.949045      0.139924
      5.44831     -4.69294      5.55174        -1.276317     -0.708557      0.993709
      5.59398      6.69571      2.86125        -0.124634     -1.233009     -0.144213
     -6.44726      1.39877      4.23973        -1.002661     -0.355246      0.639920
     -3.19258     -4.72839      5.46491        -1.123697     -0.767375     -0.574279
     -2.69330      7.04306      2.29033        -1.145432     -0.586228     -0.615836
      3.76340     -5.29830      4.37024        -0.822267     -0.449812      0.655387
      4.26268      6.47315      1.19565        -0.839684     -0.230511      0.578322
      7.51736      0.34598      2.42084        -0.959215     -0.646483     -0.634179
      2.45918     -3.68122      2.11145         2.822091      0.669753     -2.639560
     -2.85639     10.49971      0.79068        -4.158730     -1.578118      2.435510
     -6.31841      5.58472      2.19568         6.841497      2.454218      0.282326
     -5.36548     -4.00543      4.28416         2.445041     -4.125658     -3.422934
     -6.48288     -1.00634      4.24024        -2.174934     -2.416939      8.278041
     -1.03477      7.82012      0.48250        -1.824146     -1.052818     -0.260863
     -6.85236     -1.93768      6.23784        -0.377754      0.873459     -1.747561
     -0.41602     -7.36024      4.65396        -6.813032      5.243804      1.453214
     -6.36144      3.88288      4.91321        -0.738297     -3.905573      4.851147
     -4.56624      6.11546      3.47828        -6.654272     -2.199587     -6.372740
      2.14039      7.46364      0.63844        -2.256293      5.328955      6.187149
     -1.07029     -5.71889      6.02213         0.305820     -6.317428     -6.211627
      5.63634     -4.37071      3.18228         1.135678     -0.085334      2.933587
      7.43154     -2.13813      1.74735        -0.489420      0.413312     -0.240094
      1.48612      9.10500      2.00661         4.943674     -6.226848     -1.319683
      7.92246      3.68243      0.42272        -2.069845     -7.664811      3.978192
      2.10487     -6.07537      6.17806         3.695024      2.181920      2.553937
      7.55298      2.75109      2.42033         0.281061      1.492029     -8.330425
      6.43558      5.75019      2.37641        -4.556183      3.160096      3.161948
      7.38851     -3.83997      4.46489        -8.817431     -3.482040     -0.325008
     -7.67594      4.55003      3.44770         6.131051    -40.537745      0.137739
      1.56621     -7.84999      5.22512        36.198496     28.092706     -6.855205
      7.62424      5.76929      0.68183       -39.665795     16.428440     -1.252007
     -6.55414     -4.02454      5.97873        39.550103     -6.239335      3.479318
     -0.49611      9.59474      1.43544        -1.655714      0.750800     -1.792261
      8.74604     -2.80527      3.21286         8.788128     33.525511      0.587069
 -----------------------------------------------------------------------------------
    total drift:                               55.948813     28.475468     -0.143645


--------------------------------------------------------------------------------------------------------



  FREE ENERGIE OF THE ION-ELECTRON SYSTEM (eV)
  ---------------------------------------------------
  free  energy   TOTEN  =      -907.73515495 eV

  energy  without entropy=     -907.73515495  energy(sigma->0) =     -907.73515495
 


--------------------------------------------------------------------------------------------------------


    POTLOK:  cpu time      1.3537: real time      1.3571


--------------------------------------------------------------------------------------------------------


 writing wavefunctions
     LOOP+:  cpu time    847.1066: real time    850.0251
    4ORBIT:  cpu time      0.0000: real time      0.0000



 total charge

# of ion       s       p       d       f       tot
--------------------------------------------------
    1        0.905   1.610   0.000   0.000   2.515
    2        0.824   1.624   0.000   0.000   2.448
    3        0.834   1.724   0.000   0.000   2.558
    4        0.824   1.623   0.000   0.000   2.447
    5        0.833   1.725   0.000   0.000   2.558
    6        0.839   1.546   0.000   0.000   2.385
    7        0.846   1.715   0.000   0.000   2.561
    8        0.846   1.719   0.000   0.000   2.565
    9        0.839   1.545   0.000   0.000   2.384
   10        0.846   1.715   0.000   0.000   2.561
   11        0.839   1.545   0.000   0.000   2.384
   12        0.833   1.725   0.000   0.000   2.558
   13        0.824   1.624   0.000   0.000   2.448
   14        0.824   1.623   0.000   0.000   2.447
   15        0.833   1.725   0.000   0.000   2.559
   16        0.839   1.546   0.000   0.000   2.385
   17        0.846   1.715   0.000   0.000   2.561
   18        0.839   1.545   0.000   0.000   2.385
   19        0.847   1.714   0.000   0.000   2.561
   20        0.846   1.715   0.000   0.000   2.561
   21        0.839   1.546   0.000   0.000   2.385
   22        0.833   1.725   0.000   0.000   2.558
   23        0.824   1.624   0.000   0.000   2.448
   24        0.833   1.726   0.000   0.000   2.559
   25        0.824   1.624   0.000   0.000   2.448
   26        0.664   0.048   0.000   0.000   0.712
   27        0.664   0.048   0.000   0.000   0.712
   28        0.664   0.048   0.000   0.000   0.712
   29        0.664   0.048   0.000   0.000   0.712
   30        0.664   0.048   0.000   0.000   0.712
   31        0.664   0.048   0.000   0.000   0.712
   32        1.591   3.559   0.000   0.000   5.150
   33        1.582   3.584   0.000   0.000   5.166
   34        1.542   3.669   0.000   0.000   5.211
   35        1.525   3.647   0.000   0.000   5.172
   36        1.554   3.621   0.000   0.000   5.175
   37        1.525   3.646   0.000   0.000   5.172
   38        1.541   3.670   0.000   0.000   5.211
   39        1.541   3.670   0.000   0.000   5.211
   40        1.525   3.647   0.000   0.000   5.172
   41        1.554   3.620   0.000   0.000   5.174
   42        1.554   3.620   0.000   0.000   5.174
   43        1.554   3.620   0.000   0.000   5.174
   44        1.554   3.626   0.000   0.000   5.180
   45        1.525   3.647   0.000   0.000   5.172
   46        1.542   3.669   0.000   0.000   5.211
   47        1.541   3.670   0.000   0.000   5.212
   48        1.525   3.646   0.000   0.000   5.171
   49        1.554   3.620   0.000   0.000   5.174
   50        1.525   3.648   0.000   0.000   5.173
   51        1.542   3.668   0.000   0.000   5.210
   52        2.071   6.276   5.722   0.014  14.082
   53        2.071   6.275   5.722   0.014  14.082
   54        2.071   6.276   5.722   0.014  14.083
   55        2.071   6.276   5.722   0.014  14.083
   56        2.070   6.276   5.721   0.014  14.081
   57        2.071   6.276   5.722   0.014  14.082
--------------------------------------------------
tot         68.269 151.973  34.332   0.085 254.660
 

 total amount of memory used by VASP MPI-rank0  1380701. kBytes
=======================================================================

   base      :      30000. kBytes
   nonl-proj :      30513. kBytes
   fftplans  :      47759. kBytes
   grid      :     141927. kBytes
   one-center:       2299. kBytes
   HF        :       1344. kBytes
   nonlr-proj:       7401. kBytes
   wavefun   :      42079. kBytes
   fock_wrk  :    1077379. kBytes
 
  
  
 General timing and accounting informations for this job:
 ========================================================
  
                  Total CPU time used (sec):      864.281
                            User time (sec):      840.440
                          System time (sec):       23.841
                         Elapsed time (sec):      868.465
  
                   Maximum memory used (kb):     4478516.
                   Average memory used (kb):          N/A
  
                          Minor page faults:      2712903
                          Major page faults:            4
                 Voluntary context switches:        11429
