 vasp.6.3.2 27Jun22 (build Jul 28 2023 19:28:36) gamma-only                     
  
 executed on             LinuxIFC date 2024.06.16  02:21:49
 running on   40 total cores
 distrk:  each k-point on   40 cores,    1 groups
 distr:  one band on NCORE=   1 cores,   40 groups


--------------------------------------------------------------------------------------------------------


 INCAR:
   SYSTEM = MOFCO2
   ISTART = 0
   ICHARG = 2
   ISMEAR = 0
   SIGMA = 0.1
   PREC = Accurate
   EDIFF = 1E-5
   NELM = 500
   IBRION = -1
   NSW = 0
   ALGO = All
   TIME = 0.05
   LREAL = Auto
   LHFCALC = .TRUE.
   GGA = PE
   HFSCREEN = 0.2
   LASPH = .TRUE.
   PRECFOCK = Normal
   IVDW = 11
   VDW_S8 = 2.310
   VDW_A1 = 0.383
   VDW_A2 = 5.685
   LWAVE = .TRUE.
   LCHARG = .TRUE.
   NWRITE = 1

 POTCAR:    PAW_PBE C 08Apr2002                   
 POTCAR:    PAW_PBE H 15Jun2001                   
 POTCAR:    PAW_PBE O 08Apr2002                   
 POTCAR:    PAW_PBE Mg 13Apr2007                  
 -----------------------------------------------------------------------------
|                                                                             |
|           W    W    AA    RRRRR   N    N  II  N    N   GGGG   !!!           |
|           W    W   A  A   R    R  NN   N  II  NN   N  G    G  !!!           |
|           W    W  A    A  R    R  N N  N  II  N N  N  G       !!!           |
|           W WW W  AAAAAA  RRRRR   N  N N  II  N  N N  G  GGG   !            |
|           WW  WW  A    A  R   R   N   NN  II  N   NN  G    G                |
|           W    W  A    A  R    R  N    N  II  N    N   GGGG   !!!           |
|                                                                             |
|     For optimal performance we recommend to set                             |
|       NCORE = 2 up to number-of-cores-per-socket                            |
|     NCORE specifies how many cores store one orbital (NPAR=cpu/NCORE).      |
|     This setting can greatly improve the performance of VASP for DFT.       |
|     The default, NCORE=1 might be grossly inefficient on modern             |
|     multi-core architectures or massively parallel machines. Do your        |
|     own testing! More info at https://www.vasp.at/wiki/index.php/NCORE      |
|     Unfortunately you need to use the default for GW and RPA                |
|     calculations (for HF NCORE is supported but not extensively tested      |
|     yet).                                                                   |
|                                                                             |
 -----------------------------------------------------------------------------

 POTCAR:    PAW_PBE C 08Apr2002                   
  local pseudopotential read in
  partial core-charges read in
  partial kinetic energy density read in
  atomic valenz-charges read in
  non local Contribution for L=           0  read in
    real space projection operators read in
  non local Contribution for L=           0  read in
    real space projection operators read in
  non local Contribution for L=           1  read in
    real space projection operators read in
  non local Contribution for L=           1  read in
    real space projection operators read in
    PAW grid and wavefunctions read in
 
   number of l-projection  operators is LMAX  =           4
   number of lm-projection operators is LMMAX =           8
 
 POTCAR:    PAW_PBE H 15Jun2001                   
  local pseudopotential read in
  atomic valenz-charges read in
  non local Contribution for L=           0  read in
    real space projection operators read in
  non local Contribution for L=           0  read in
    real space projection operators read in
  non local Contribution for L=           1  read in
    real space projection operators read in
    PAW grid and wavefunctions read in
 
   number of l-projection  operators is LMAX  =           3
   number of lm-projection operators is LMMAX =           5
 
 POTCAR:    PAW_PBE O 08Apr2002                   
  local pseudopotential read in
  partial core-charges read in
  partial kinetic energy density read in
  kinetic energy density of atom read in
  atomic valenz-charges read in
  non local Contribution for L=           0  read in
    real space projection operators read in
  non local Contribution for L=           0  read in
    real space projection operators read in
  non local Contribution for L=           1  read in
    real space projection operators read in
  non local Contribution for L=           1  read in
    real space projection operators read in
    PAW grid and wavefunctions read in
 
   number of l-projection  operators is LMAX  =           4
   number of lm-projection operators is LMMAX =           8
 
 POTCAR:    PAW_PBE Mg 13Apr2007                  
  local pseudopotential read in
  partial core-charges read in
  partial kinetic energy density read in
  atomic valenz-charges read in
  non local Contribution for L=           0  read in
    real space projection operators read in
  non local Contribution for L=           0  read in
    real space projection operators read in
  non local Contribution for L=           1  read in
    real space projection operators read in
  non local Contribution for L=           1  read in
    real space projection operators read in
  non local Contribution for L=           2  read in
    real space projection operators read in
    PAW grid and wavefunctions read in
 
   number of l-projection  operators is LMAX  =           5
   number of lm-projection operators is LMMAX =          13
 
 Optimization of the real space projectors (new method)

 maximal supplied QI-value         = 25.13
 optimisation between [QCUT,QGAM] = [ 10.05, 20.36] = [ 28.30,116.06] Ry 
 Optimized for a Real-space Cutoff    1.51 Angstroem

   l    n(q)    QCUT    max X(q) W(low)/X(q) W(high)/X(q)  e(spline) 
   0      9    10.053   115.676    0.19E-03    0.21E-03    0.38E-06
   0      9    10.053    87.132    0.19E-03    0.21E-03    0.38E-06
   1      9    10.053     4.429    0.87E-04    0.11E-03    0.39E-06
   1      9    10.053     2.733    0.59E-04    0.62E-04    0.43E-06
 Optimization of the real space projectors (new method)

 maximal supplied QI-value         = 34.20
 optimisation between [QCUT,QGAM] = [  9.92, 20.18] = [ 27.55,114.04] Ry 
 Optimized for a Real-space Cutoff    1.34 Angstroem

   l    n(q)    QCUT    max X(q) W(low)/X(q) W(high)/X(q)  e(spline) 
   0      8     9.919    19.460    0.16E-03    0.20E-03    0.36E-06
   0      8     9.919    12.209    0.16E-03    0.20E-03    0.35E-06
   1      8     9.919     4.655    0.19E-03    0.46E-03    0.40E-06
 Optimization of the real space projectors (new method)

 maximal supplied QI-value         = 24.76
 optimisation between [QCUT,QGAM] = [ 10.15, 20.30] = [ 28.85,115.39] Ry 
 Optimized for a Real-space Cutoff    1.51 Angstroem

   l    n(q)    QCUT    max X(q) W(low)/X(q) W(high)/X(q)  e(spline) 
   0      9    10.150    20.381    0.17E-03    0.18E-03    0.41E-06
   0      9    10.150    15.268    0.18E-03    0.20E-03    0.43E-06
   1      9    10.150     5.964    0.16E-03    0.20E-03    0.36E-06
   1      9    10.150     5.382    0.13E-03    0.16E-03    0.33E-06
 Optimization of the real space projectors (new method)

 maximal supplied QI-value         = 18.90
 optimisation between [QCUT,QGAM] = [ 10.20, 20.41] = [ 29.16,116.64] Ry 
 Optimized for a Real-space Cutoff    1.30 Angstroem

   l    n(q)    QCUT    max X(q) W(low)/X(q) W(high)/X(q)  e(spline) 
   0      8    10.205    28.265    0.22E-03    0.17E-03    0.53E-07
   0      8    10.205    10.429    0.17E-03    0.15E-03    0.43E-07
   1      7    10.205    13.073    0.71E-04    0.41E-03    0.76E-07
   1      7    10.205     9.625    0.71E-04    0.33E-03    0.63E-07
   2      7    10.205     4.652    0.24E-03    0.41E-03    0.55E-07
  PAW_PBE C 08Apr2002                   :
 energy of atom  1       EATOM= -147.1560
 kinetic energy error for atom=    0.0288 (will be added to EATOM!!)
  PAW_PBE H 15Jun2001                   :
 energy of atom  2       EATOM=  -12.4884
 kinetic energy error for atom=    0.0098 (will be added to EATOM!!)
  PAW_PBE O 08Apr2002                   :
 energy of atom  3       EATOM= -432.3788
 kinetic energy error for atom=    0.1156 (will be added to EATOM!!)
  PAW_PBE Mg 13Apr2007                  :
 energy of atom  4       EATOM=  -23.0369
 kinetic energy error for atom=    0.0001 (will be added to EATOM!!)
 
 
 POSCAR:  C  H  O Mg
  positions in direct lattice
  No initial velocities read in
 exchange correlation table for  LEXCH =        8
   RHO(1)=    0.500       N(1)  =     2000
   RHO(2)=  100.500       N(2)  =     4000
 


--------------------------------------------------------------------------------------------------------


 ion  position               nearest neighbor table
   1  0.285  0.924  0.194-  33 1.17  32 1.18
   2  0.742  0.349  0.176-  35 1.27  34 1.29   3 1.49
   3  0.615  0.166  0.079-  17 1.40   4 1.43   2 1.49
   4  0.432  0.967  0.866-  36 1.35   5 1.40   3 1.43
   5  0.323  0.808  0.795-  26 1.09   4 1.40  15 1.40
   6  0.176  0.742  0.349-  38 1.27  37 1.29   7 1.49
   7  0.079  0.615  0.166-  21 1.40   8 1.43   6 1.49
   8  0.866  0.432  0.967-  39 1.35   9 1.40   7 1.43
   9  0.795  0.323  0.808-  27 1.09   8 1.40  19 1.40
  10  0.349  0.176  0.742-  41 1.27  40 1.29  11 1.49
  11  0.166  0.079  0.615-  25 1.40  12 1.43  10 1.49
  12  0.967  0.866  0.432-  42 1.35  13 1.40  11 1.43
  13  0.808  0.795  0.323-  28 1.09  12 1.40  23 1.40
  14  0.258  0.651  0.824-  44 1.27  43 1.29  15 1.49
  15  0.385  0.834  0.921-   5 1.40  16 1.43  14 1.49
  16  0.568  0.033  0.134-  45 1.35  17 1.40  15 1.43
  17  0.677  0.193  0.205-  29 1.09  16 1.40   3 1.40
  18  0.824  0.258  0.651-  47 1.27  46 1.29  19 1.49
  19  0.921  0.385  0.834-   9 1.40  20 1.43  18 1.49
  20  0.134  0.568  0.033-  48 1.35  21 1.40  19 1.43
  21  0.205  0.677  0.192-  30 1.09  20 1.40   7 1.40
  22  0.651  0.824  0.258-  50 1.27  49 1.29  23 1.49
  23  0.834  0.921  0.385-  13 1.40  24 1.43  22 1.49
  24  0.033  0.134  0.568-  51 1.35  25 1.40  23 1.43
  25  0.192  0.205  0.677-  31 1.09  24 1.40  11 1.40
  26  0.184  0.655  0.634-   5 1.09
  27  0.634  0.184  0.655-   9 1.09
  28  0.655  0.634  0.184-  13 1.09
  29  0.816  0.345  0.366-  17 1.09
  30  0.366  0.816  0.345-  21 1.09
  31  0.345  0.366  0.816-  25 1.09
  32  0.289  0.868  0.113-   1 1.18  55 2.39
  33  0.278  0.978  0.271-   1 1.17
  34  0.690  0.327  0.062-   2 1.29  53 2.02  52 2.08
  35  0.897  0.522  0.364-   2 1.27  54 2.04
  36  0.360  0.927  0.734-   4 1.35  54 2.02  52 2.04
  37  0.062  0.690  0.327-   6 1.29  54 2.02  53 2.08
  38  0.364  0.897  0.522-   6 1.27  52 2.04
  39  0.734  0.360  0.927-   8 1.35  52 2.02  53 2.04
  40  0.327  0.062  0.690-  10 1.29  52 2.02  54 2.08
  41  0.522  0.364  0.897-  10 1.27  53 2.04
  42  0.927  0.734  0.360-  12 1.35  53 2.02  54 2.04
  43  0.310  0.673  0.938-  14 1.29  56 2.02  55 2.08
  44  0.103  0.478  0.636-  14 1.27  57 2.04
  45  0.640  0.073  0.266-  16 1.35  57 2.02  55 2.04
  46  0.938  0.310  0.673-  18 1.29  57 2.02  56 2.08
  47  0.637  0.103  0.478-  18 1.27  55 2.04
  48  0.266  0.640  0.073-  20 1.35  55 2.02  56 2.04
  49  0.673  0.938  0.310-  22 1.29  55 2.02  57 2.08
  50  0.478  0.636  0.103-  22 1.27  56 2.04
  51  0.073  0.266  0.640-  24 1.35  56 2.02  57 2.04
  52  0.514  0.109  0.782-  40 2.02  39 2.02  36 2.04  38 2.04  34 2.08  53 2.94  54 2.94
  53  0.782  0.514  0.108-  34 2.02  42 2.02  39 2.04  41 2.04  37 2.08  52 2.94  54 2.94
  54  0.108  0.782  0.514-  37 2.02  36 2.02  42 2.04  35 2.04  40 2.08  52 2.94  53 2.94
  55  0.486  0.892  0.218-  49 2.02  48 2.02  45 2.04  47 2.04  43 2.08  32 2.39  57 2.94  56 2.94

  56  0.218  0.486  0.892-  43 2.02  51 2.02  48 2.04  50 2.04  46 2.08  57 2.94  55 2.94
  57  0.892  0.218  0.486-  46 2.02  45 2.02  51 2.04  44 2.04  49 2.08  55 2.94  56 2.94
 
  LATTYP: Found a trigonal (rhomboedric) cell.
 ALAT       =    15.2580629150
 COS(alpha) =    -0.4652854440
  
  Lattice vectors:
  
 A1 = (  15.2580133847,   0.0063748139,   0.0245793813)
 A2 = (  -7.1051429847,  13.5027912564,   0.0244990776)
 A3 = (  -7.1050972695, -11.7730711972,   6.6121759879)


Analysis of symmetry for initial positions (statically):
=====================================================================
 Subroutine PRICEL returns:
 Original cell was already a primitive cell.
 

 Routine SETGRP: Setting up the symmetry group for a 
 trigonal (rhombohedral) supercell.


 Subroutine GETGRP returns: Found  1 space group operations
 (whereof  1 operations were pure point group operations)
 out of a pool of 12 trial point group operations.


The static configuration has the point symmetry C_1 .


Analysis of symmetry for dynamics (positions and initial velocities):
=====================================================================
 Subroutine PRICEL returns:
 Original cell was already a primitive cell.
 

 Routine SETGRP: Setting up the symmetry group for a 
 trigonal (rhombohedral) supercell.


 Subroutine GETGRP returns: Found  1 space group operations
 (whereof  1 operations were pure point group operations)
 out of a pool of 12 trial point group operations.


The dynamic configuration has the point symmetry C_1 .


 Subroutine INISYM returns: Found  1 space group operations
 (whereof  1 operations are pure point group operations),
 and found     1 'primitive' translations


----------------------------------------------------------------------------------------

                                     Primitive cell                                     

  volume of cell :    1371.3921

  direct lattice vectors                    reciprocal lattice vectors
    15.258013385  0.006374814  0.024579381     0.065314117  0.034130566  0.130953070
    -7.105142985 13.502791256  0.024499078    -0.000241744  0.073693958  0.130953351
    -7.105097270-11.773071197  6.612175988    -0.000241896 -0.000399920  0.150264152

  length of vectors
    15.258034514 15.258080769 15.258062915     0.150264886  0.150265226  0.150264879

  position of ions in fractional coordinates (direct lattice)
     0.285016706  0.923921231  0.193952621
     0.742014629  0.348856862  0.175631722
     0.614737524  0.165760157  0.079266010
     0.431866833  0.967146544  0.866357394
     0.323426239  0.807528718  0.795039545
     0.175643119  0.742030584  0.348836056
     0.079288672  0.614759186  0.165750997
     0.866378386  0.431887658  0.967136793
     0.795050085  0.323434695  0.807507662
     0.348844082  0.175654491  0.742009552
     0.165757245  0.079294396  0.614737504
     0.967146759  0.866386509  0.431869766
     0.807527866  0.795064117  0.323426635
     0.257997242  0.651177639  0.824359558
     0.385278725  0.834271091  0.920721278
     0.568151099  0.032884201  0.133630597
     0.676588120  0.192500595  0.204950051
     0.824378159  0.258021185  0.651163243
     0.920727875  0.385284889  0.834247949
     0.133651182  0.568172843  0.032877126
     0.204967516  0.676607365  0.192491024
     0.651166334  0.824380287  0.257996396
     0.834264817  0.920745497  0.385273715
     0.032884585  0.133658688  0.568147370
     0.192498695  0.204973580  0.676584145
     0.184346186  0.655111609  0.633967985
     0.633990768  0.184365023  0.655100302
     0.655100725  0.633992740  0.184340173
     0.815660221  0.344921385  0.366012712
     0.366025548  0.815668040  0.344893598
     0.344905088  0.366036147  0.815648698
     0.289232368  0.868085903  0.113061372
     0.277903362  0.978317722  0.270697466
     0.690035352  0.327096246  0.062389255
     0.897468252  0.521719207  0.363522843
     0.359899457  0.926825036  0.733650689
     0.062416671  0.690061449  0.327089376
     0.363540124  0.897494510  0.521700504
     0.733667396  0.359921155  0.926810583
     0.327098709  0.062430124  0.690049476
     0.521703281  0.363537920  0.897455141
     0.926814389  0.733676598  0.359892517
     0.309969235  0.672930044  0.937593791
     0.102540517  0.478317794  0.636472783
     0.640118158  0.073204996  0.266331859
     0.937620652  0.309979890  0.672925434
     0.636500080  0.102595403  0.478308979
     0.266360937  0.640148723  0.073196549
     0.672927425  0.937623414  0.309972911
     0.478307570  0.636484145  0.102544947
     0.073202609  0.266366054  0.640108405
     0.514132669  0.108518374  0.782412062
     0.782415681  0.514143460  0.108492112
     0.108499851  0.782421723  0.514119197
     0.485895590  0.891540695  0.217600628
     0.217613719  0.485909109  0.891517919
     0.891519652  0.217610760  0.485881812

  ion indices of the primitive-cell ions
   primitive index   ion index
                 1           1
                 2           2
                 3           3
                 4           4
                 5           5
                 6           6
                 7           7
                 8           8
                 9           9
                10          10
                11          11
                12          12
                13          13
                14          14
                15          15
                16          16
                17          17
                18          18
                19          19
                20          20
                21          21
                22          22
                23          23
                24          24
                25          25
                26          26
                27          27
                28          28
                29          29
                30          30
                31          31
                32          32
                33          33
                34          34
                35          35
                36          36
                37          37
                38          38
                39          39
                40          40
                41          41
                42          42
                43          43
                44          44
                45          45
                46          46
                47          47
                48          48
                49          49
                50          50
                51          51
                52          52
                53          53
                54          54
                55          55
                56          56
                57          57

----------------------------------------------------------------------------------------

 
 
 KPOINTS: KPOINTS                                 

Automatic generation of k-mesh.
 Grid dimensions read from file:
 generate k-points for:    1    1    1

 Generating k-lattice:

  Cartesian coordinates                     Fractional coordinates (reciprocal lattice)
     0.065314117  0.034130566  0.130953070     1.000000000  0.000000000  0.000000000
    -0.000241744  0.073693958  0.130953351     0.000000000  1.000000000  0.000000000
    -0.000241896 -0.000399920  0.150264152     0.000000000 -0.000000000  1.000000000

  Length of vectors
     0.150264886  0.150265226  0.150264879

  Shift w.r.t. Gamma in fractional coordinates (k-lattice)
     0.000000000  0.000000000  0.000000000

 
 Subroutine IBZKPT returns following result:
 ===========================================
 
 Found      1 irreducible k-points:
 
 Following reciprocal coordinates:
            Coordinates               Weight
  0.000000  0.000000  0.000000      1.000000
 
 Following cartesian coordinates:
            Coordinates               Weight
  0.000000  0.000000  0.000000      1.000000
 
 
 Subroutine IBZKPT_HF returns following result:
 ==============================================
 
 Found      1 k-points in 1st BZ
 the following      1 k-points will be used (e.g. in the exchange kernel)
 Following reciprocal coordinates:   # in IRBZ
  0.000000  0.000000  0.000000    1.00000000   1 t-inv F


--------------------------------------------------------------------------------------------------------




 Dimension of arrays:
   k-points           NKPTS =      1   k-points in BZ     NKDIM =      1   number of bands    NBANDS=    160
   number of dos      NEDOS =    301   number of ions     NIONS =     57
   non local maximal  LDIM  =      5   non local SUM 2l+1 LMDIM =     13
   total plane-waves  NPLWV = ******
   max r-space proj   IRMAX =  10535   max aug-charges    IRDMAX=  31172
   dimension x,y,z NGX =   100 NGY =  100 NGZ =  100
   dimension x,y,z NGXF=   200 NGYF=  200 NGZF=  200
   support grid    NGXF=   200 NGYF=  200 NGZF=  200
   ions per type =              25   6  20   6
   NGX,Y,Z   is equivalent  to a cutoff of  10.90, 10.90, 10.90 a.u.
   NGXF,Y,Z  is equivalent  to a cutoff of  21.79, 21.79, 21.79 a.u.

 SYSTEM =  MOFCO2                                  
 POSCAR =   C  H  O Mg                             

 Startparameter for this run:
   NWRITE =      1    write-flag & timer
   PREC   = accura    normal or accurate (medium, high low for compatibility)
   ISTART =      0    job   : 0-new  1-cont  2-samecut
   ICHARG =      2    charge: 1-file 2-atom 10-const
   ISPIN  =      1    spin polarized calculation?
   LNONCOLLINEAR =      F non collinear calculations
   LSORBIT =      F    spin-orbit coupling
   INIWAV =      1    electr: 0-lowe 1-rand  2-diag
   LASPH  =      T    aspherical Exc in radial PAW
 Electronic Relaxation 1
   ENCUT  =  400.0 eV  29.40 Ry    5.42 a.u.  24.88 24.88 24.88*2*pi/ulx,y,z
   ENINI  =  400.0     initial cutoff
   ENAUG  =  644.9 eV  augmentation charge cutoff
   NELM   =    500;   NELMIN=  2; NELMDL= -5     # of ELM steps 
   EDIFF  = 0.1E-04   stopping-criterion for ELM
   LREAL  =      T    real-space projection
   NLSPLINE    = F    spline interpolate recip. space projectors
   LCOMPAT=      F    compatible to vasp.4.4
   GGA_COMPAT  = T    GGA compatible to vasp.4.4-vasp.4.6
   LMAXPAW     = -100 max onsite density
   LMAXMIX     =    2 max onsite mixed and CHGCAR
   VOSKOWN=      0    Vosko Wilk Nusair interpolation
   ROPT   =   -0.00025  -0.00025  -0.00025  -0.00025
 Ionic relaxation
   EDIFFG = 0.1E-03   stopping-criterion for IOM
   NSW    =      0    number of steps for IOM
   NBLOCK =      1;   KBLOCK =      1    inner block; outer block 
   IBRION =     -1    ionic relax: 0-MD 1-quasi-New 2-CG
   NFREE  =      0    steps in history (QN), initial steepest desc. (CG)
   ISIF   =      0    stress and relaxation
   IWAVPR =     10    prediction:  0-non 1-charg 2-wave 3-comb
   ISYM   =      3    0-nonsym 1-usesym 2-fastsym
   LCORR  =      T    Harris-Foulkes like correction to forces

   POTIM  = 0.5000    time-step for ionic-motion
   TEIN   =    0.0    initial temperature
   TEBEG  =    0.0;   TEEND  =   0.0 temperature during run
   SMASS  =  -3.00    Nose mass-parameter (am)
   estimated Nose-frequenzy (Omega)   =  0.10E-29 period in steps = 0.13E+47 mass=  -0.532E-26a.u.
   SCALEE = 1.0000    scale energy and forces
   NPACO  =    256;   APACO  = 10.0  distance and # of slots for P.C.
   PSTRESS=    0.0 pullay stress

  Mass of Ions in am
   POMASS =  12.01  1.00 16.00 24.30
  Ionic Valenz
   ZVAL   =   4.00  1.00  6.00  2.00
  Atomic Wigner-Seitz radii
   RWIGS  =  -1.00 -1.00 -1.00 -1.00
  virtual crystal weights 
   VCA    =   1.00  1.00  1.00  1.00
   NELECT =     238.0000    total number of electrons
   NUPDOWN=      -1.0000    fix difference up-down

 DOS related values:
   EMIN   =  10.00;   EMAX   =-10.00  energy-range for DOS
   EFERMI =   0.00
   ISMEAR =     0;   SIGMA  =   0.10  broadening in eV -4-tet -1-fermi 0-gaus

 Electronic relaxation 2 (details)
   IALGO  =     58    algorithm
   LDIAG  =      T    sub-space diagonalisation (order eigenvalues)
   LSUBROT=      F    optimize rotation matrix (better conditioning)
   TURBO    =      0    0=normal 1=particle mesh
   IRESTART =      0    0=no restart 2=restart with 2 vectors
   NREBOOT  =      0    no. of reboots
   NMIN     =      0    reboot dimension
   EREF     =   0.00    reference energy to select bands
   IMIX   =      4    mixing-type and parameters
     AMIX     =   0.40;   BMIX     =  1.00
     AMIX_MAG =   1.60;   BMIX_MAG =  1.00
     AMIN     =   0.10
     WC   =   100.;   INIMIX=   1;  MIXPRE=   1;  MAXMIX= -45

 Intra band minimization:
   WEIMIN = 0.0000     energy-eigenvalue tresh-hold
   EBREAK =  0.16E-07  absolut break condition
   DEPER  =   0.30     relativ break condition  

   TIME   =   0.05     timestep for ELM

  volume/ion in A,a.u.               =      24.06       162.36
  Fermi-wavevector in a.u.,A,eV,Ry     =   0.913159  1.725621 11.345356  0.833860
  Thomas-Fermi vector in A             =   2.037639
 
 Write flags
   LWAVE        =      T    write WAVECAR
   LDOWNSAMPLE  =      F    k-point downsampling of WAVECAR
   LCHARG       =      T    write CHGCAR
   LVTOT        =      F    write LOCPOT, total local potential
   LVHAR        =      F    write LOCPOT, Hartree potential only
   LELF         =      F    write electronic localiz. function (ELF)
   LORBIT       =      0    0 simple, 1 ext, 2 COOP (PROOUT), +10 PAW based schemes


 Dipole corrections
   LMONO  =      F    monopole corrections only (constant potential shift)
   LDIPOL =      F    correct potential (dipole corrections)
   IDIPOL =      0    1-x, 2-y, 3-z, 4-all directions 
   EPSILON=  1.0000000 bulk dielectric constant

 Exchange correlation treatment:
   GGA     =    PE    GGA type
   LEXCH   =     8    internal setting for exchange type
   LIBXC   =     F    Libxc                    
   VOSKOWN =     0    Vosko Wilk Nusair interpolation
   EXXOEP  =     0    0=HF, 1=EXX-LHF (local Hartree Fock) 2=EXX OEP
   LHFCALC =     T    Hartree Fock is set to
   LSYMGRAD=     F    symmetrize gradient (conserves proper symmetry)
   PRECFOCK=normal    Normal, Fast or Accurate (Low or Medium for compatibility)
   LRHFCALC=     F    long range Hartree Fock
   LRSCOR  =     F    long range correlation only (use DFT for short range part)
   LTHOMAS =     F    Thomas Fermi screening in HF
   LMODELHF=     F    short range full HF, long range fraction AEXX
   FOCKCORR=     1    mode to apply convergence corrections
   LFOCKACE=     T    use Adeptively-Compressed-Exchange operator
   ENCUT4O =  -1.0   cutoff for four orbital integrals eV
   LMAXFOCK=     4    L truncation for augmentation on plane wave grid
   LMAXFOCKAE=  -1    L truncation for all-electron charge restoration on plane wave grid
   NMAXFOCKAE=   1    number of basis functions for all-electron charge restoration
   LFOCKAEDFT=     F  apply the AE augmentation even for DFT
   NKREDX  =     1    reduce k-point grid by
   NKREDY  =     1    reduce k-point grid by
   NKREDZ  =     1    reduce k-point grid by
   SHIFTRED=     F    shift reduced grid of Gamma
   HFKIDENT=     F    idential grid for each k-point
   ODDONLY =     F    use only odd q-grid points
   EVENONLY=     F    use only even q-grid points
   HFALPHA =   -1.0000 decay constant for conv. correction
   MCALPHA =    0.0000 extent of test-charge in conv. correction in multipole expansion
   AEXX    =    0.2500 exact exchange contribution
   HFSCREEN=    0.2000 screening length (either q_TF or 0.3 A-1)
   HFSCREENC=   0.2000 screening length for correlation (either q_TF or 0.3 A-1)
   HFRCUT  =    0.0000 spherical cutoff for potential kernel
   ALDAX   =    0.7500 LDA exchange part
   AGGAX   =    0.7500 GGA exchange part
   ALDAC   =    1.0000 LDA correlation
   AGGAC   =    1.0000 GGA correlation
   ENCUTFOCK=  -1.0 apply spherical cutoff to Coloumb kernel
   NBANDSGWLOW=     1    first orbital included in HF term
   NBLOCK_FOCK=    64    blocking factor in FOCK_ACC

 Linear response parameters
   LEPSILON=     F    determine dielectric tensor
   LRPA    =     F    only Hartree local field effects (RPA)
   LNABLA  =     F    use nabla operator in PAW spheres
   LVEL    =     F    velocity operator in full k-point grid
   CSHIFT  =0.1000    complex shift for real part using Kramers Kronig
   OMEGAMAX=  -1.0    maximum frequency
   DEG_THRESHOLD= 0.2000000E-02 threshold for treating states as degnerate
   RTIME   =   -0.100 relaxation time in fs
  (WPLASMAI=    0.000 imaginary part of plasma frequency in eV, 0.658/RTIME)
   DFIELD  = 0.0000000 0.0000000 0.0000000 field for delta impulse in time
 
  Optional k-point grid parameters
   LKPOINTS_OPT  =     F    use optional k-point grid
   KPOINTS_OPT_MODE=     1    mode for optional k-point grid
 
 Orbital magnetization related:
   ORBITALMAG=     F  switch on orbital magnetization
   LCHIMAG   =     F  perturbation theory with respect to B field
   DQ        =  0.001000  dq finite difference perturbation B field
   LLRAUG    =     F  two centre corrections for induced B field



--------------------------------------------------------------------------------------------------------


 Static calculation
 charge density and potential will be updated during run
 non-spin polarized calculation
 Conjugate gradient for all bands (Freysoldt, et al. PRB 79, 241103 (2009))
 preconditioned conjugated gradient                                        
 perform sub-space diagonalisation
    before iterative eigenvector-optimisation
 modified Broyden-mixing scheme, WC =      100.0
 initial mixing is a Kerker type mixing with AMIX =  0.4000 and BMIX =      1.0000
 Hartree-type preconditioning will be used
 using additional bands           41
 real space projection scheme for non local part
 use partial core corrections
 no Harris-corrections to forces 
 use gradient corrections 
 use of overlap-Matrix (Vanderbilt PP)
 Gauss-broadening in eV      SIGMA  =   0.10


--------------------------------------------------------------------------------------------------------


  energy-cutoff  :      400.00
  volume of cell :     1371.39
      direct lattice vectors                 reciprocal lattice vectors
    15.258013385  0.006374814  0.024579381     0.065314117  0.034130566  0.130953070
    -7.105142985 13.502791256  0.024499078    -0.000241744  0.073693958  0.130953351
    -7.105097270-11.773071197  6.612175988    -0.000241896 -0.000399920  0.150264152

  length of vectors
    15.258034514 15.258080769 15.258062915     0.150264886  0.150265226  0.150264879


 
 k-points in units of 2pi/SCALE and weight: KPOINTS                                 
   0.00000000  0.00000000  0.00000000       1.000
 
 k-points in reciprocal lattice and weights: KPOINTS                                 
   0.00000000  0.00000000  0.00000000       1.000
 
 position of ions in fractional coordinates (direct lattice) 
   0.28501671  0.92392123  0.19395262
   0.74201463  0.34885686  0.17563172
   0.61473752  0.16576016  0.07926601
   0.43186683  0.96714654  0.86635739
   0.32342624  0.80752872  0.79503954
   0.17564312  0.74203058  0.34883606
   0.07928867  0.61475919  0.16575100
   0.86637839  0.43188766  0.96713679
   0.79505009  0.32343470  0.80750766
   0.34884408  0.17565449  0.74200955
   0.16575725  0.07929440  0.61473750
   0.96714676  0.86638651  0.43186977
   0.80752787  0.79506412  0.32342664
   0.25799724  0.65117764  0.82435956
   0.38527872  0.83427109  0.92072128
   0.56815110  0.03288420  0.13363060
   0.67658812  0.19250060  0.20495005
   0.82437816  0.25802118  0.65116324
   0.92072788  0.38528489  0.83424795
   0.13365118  0.56817284  0.03287713
   0.20496752  0.67660737  0.19249102
   0.65116633  0.82438029  0.25799640
   0.83426482  0.92074550  0.38527371
   0.03288459  0.13365869  0.56814737
   0.19249870  0.20497358  0.67658414
   0.18434619  0.65511161  0.63396798
   0.63399077  0.18436502  0.65510030
   0.65510072  0.63399274  0.18434017
   0.81566022  0.34492138  0.36601271
   0.36602555  0.81566804  0.34489360
   0.34490509  0.36603615  0.81564870
   0.28923237  0.86808590  0.11306137
   0.27790336  0.97831772  0.27069747
   0.69003535  0.32709625  0.06238926
   0.89746825  0.52171921  0.36352284
   0.35989946  0.92682504  0.73365069
   0.06241667  0.69006145  0.32708938
   0.36354012  0.89749451  0.52170050
   0.73366740  0.35992116  0.92681058
   0.32709871  0.06243012  0.69004948
   0.52170328  0.36353792  0.89745514
   0.92681439  0.73367660  0.35989252
   0.30996923  0.67293004  0.93759379
   0.10254052  0.47831779  0.63647278
   0.64011816  0.07320500  0.26633186
   0.93762065  0.30997989  0.67292543
   0.63650008  0.10259540  0.47830898
   0.26636094  0.64014872  0.07319655
   0.67292743  0.93762341  0.30997291
   0.47830757  0.63648415  0.10254495
   0.07320261  0.26636605  0.64010841
   0.51413267  0.10851837  0.78241206
   0.78241568  0.51414346  0.10849211
   0.10849985  0.78242172  0.51411920
   0.48589559  0.89154069  0.21760063
   0.21761372  0.48590911  0.89151792
   0.89151965  0.21761076  0.48588181
 
 position of ions in cartesian coordinates  (Angst):
  -3.59385598 10.19391444  1.31208961
   7.59511078  2.64754683  1.18809279
   7.63873105  1.30893925  0.54329165
  -6.43783813  2.86224369  5.76281678
  -6.45159843  1.54589633  5.28467471
  -5.07078245  5.91373205  2.32906165
  -4.33584125  6.35007213  1.11298466
   3.27898846 -5.54895842  6.42675457
   4.09541460 -5.13450572  5.36684846
  -1.19743264 -6.36168155  4.91917549
  -2.40204151 -6.16559605  4.07076941
   5.53246148  6.62036805  2.90059644
   4.37424905  6.93300785  2.17788070
  -6.54733970 -0.91088336  5.47310514
  -6.59084169  0.42772732  6.11787991
   7.48575173 -1.12559217  0.89835946
   7.49945629  0.19071693  1.37651201
   6.11851738 -4.17692977  4.33218995
   5.38356119 -4.61336960  5.54826430
  -2.23129294  7.28570654  0.23459412
  -3.04766241  6.87118412  1.29439876
   2.24507534  8.09817606  1.74211940
   3.44978811  7.90209766  2.59056074
  -4.48465298 -4.88386445  3.76077320
  -3.32641508 -5.19653070  4.48344660
  -6.34630927  1.38326026  4.21248863
   3.70894842 -5.21905851  4.35173836
   4.18117170  6.39459778  1.25052387
   7.39408289  0.35350742  2.44863915
  -2.66111790  6.95567174  2.30947696
  -3.13343604 -4.65798180  5.41065783
  -2.55807517 10.39234695  0.77595815
  -4.63416591 10.02485103  1.82069786
   7.76122131  3.68659803  0.43750293
   7.40382788  2.77060643  2.43851787
  -6.30653318  3.87969749  4.88257993
  -6.27463269  5.46730709  2.18121255
  -4.53665957  5.97898135  3.48049893
   2.05193633 -6.04678976  6.15508551
  -0.35556713 -7.27893549  4.57229794
  -0.99933933 -5.65370086  5.95586082
   6.37139789  5.67555000  2.42042758
  -6.71344453 -1.94994854  6.22364017
  -6.35615277 -1.03396038  4.22270878
   7.35448569 -2.14299152  1.77856029
   7.32257635 -3.73082814  4.48014175
   5.58433991 -4.24178379  3.18082142
  -1.00427807  7.78374439  0.50621851
   1.40319956  9.01548987  2.08910649
   2.04712062  7.39009271  0.70539501
  -5.32367499 -3.93888995  4.24083442
   1.51449077 -7.74281446  5.18874191
   7.51419913  5.67007421  0.74919627
  -7.55659294  4.51280695  3.42128208
  -0.46679633  9.47955771  1.47259858
  -6.46642219 -3.93338742  5.91212651
   8.60442569 -2.77628522  3.23998031
 


--------------------------------------------------------------------------------------------------------


 use serial FFT for orbitals x direction half grid
 k-point   1 :   0.0000 0.0000 0.0000  plane waves:   12430

 maximum and minimum number of plane-waves per node :     12430    12430

 maximum number of plane-waves:     12430
 maximum index in each direction: 
   IXMAX=   24   IYMAX=   22   IZMAX=   21
   IXMIN=    0   IYMIN=  -24   IZMIN=  -24


 serial   3D FFT for wavefunctions
 parallel 3D FFT for charge:
    minimum data exchange during FFTs selected (reduces bandwidth)


 FFT grid for exact exchange (Hartree Fock) 
  NGX = 80; NGY = 80; NGZ = 80

 use serial FFT for orbitals x direction half grid
 
 Radii for the augmentation spheres in the non-local exchange
 for species   1 augmentation radius   0.874 (default was   0.699)
       energy cutoff for augmentation   1600.0
 for species   2 augmentation radius   0.650 (default was   0.520)
       energy cutoff for augmentation   1600.0
 for species   3 augmentation radius   0.902 (default was   0.722)
       energy cutoff for augmentation   1600.0
 for species   4 augmentation radius   1.339 (default was   1.071)
       energy cutoff for augmentation   1600.0
 Maximum index for augmentation-charges in exchange         3769
  SETUP_FOCK is finished

 total amount of memory used by VASP MPI-rank0   146009. kBytes
=======================================================================

   base      :      30000. kBytes
   nonlr-proj:      47625. kBytes
   fftplans  :      10913. kBytes
   grid      :      54672. kBytes
   one-center:        231. kBytes
   HF        :        135. kBytes
   wavefun   :       2433. kBytes
 
     INWAV:  cpu time      0.0001: real time      0.0002
 Broyden mixing: mesh for mixing (old mesh)
   NGX = 49   NGY = 49   NGZ = 49
  (NGX  =200   NGY  =200   NGZ  =200)
  gives a total of 117649 points

 initial charge density was supplied:
 charge density of overlapping atoms calculated
 number of electron     238.0000000 magnetization 
 keeping initial charge density in first step


--------------------------------------------------------------------------------------------------------


 Maximum index for non-local projection operator        10208
 Maximum index for augmentation-charges          858 (set IRDMAX)


--------------------------------------------------------------------------------------------------------


 First call to EWALD:  gamma=   0.160
 Maximum number of real-space cells 4x 4x 4
 Maximum number of reciprocal cells 4x 4x 4

    FEWALD:  cpu time      0.0027: real time      0.0027


--------------------------------------- Iteration      1(   1)  ---------------------------------------


    POTLOK:  cpu time      0.1820: real time      0.1866
    SETDIJ:  cpu time      0.1817: real time      0.1823
    TRIAL :  cpu time      1.1281: real time      1.2234
    CORREC:  cpu time      0.0001: real time      0.0001
    --------------------------------------------
      LOOP:  cpu time      1.4943: real time      1.5965

 eigenvalue-minimisations  :   320
 total energy-change (2. order) : 0.5469348E+03  (-0.1076099E+05)
 number of electron     238.0000000 magnetization 
 augmentation part      238.0000000 magnetization 

 Free energy of the ion-electron system (eV)
  ---------------------------------------------------
  alpha Z        PSCENC =       195.45349252
  Ewald energy   TEWEN  =      9593.36728307
  -Hartree energ DENC   =    -20262.05755912
  -exchange      EXHF   =         0.00000000
  -V(xc)+E(xc)   XCENC  =       604.46593229
  PAW double counting   =     10048.68503353   -11578.62885328
  entropy T*S    EENTRO =        -0.02760133
  eigenvalues    EBANDS =      -484.95212569
  atomic energy  EATOM  =     12430.62916133
  ---------------------------------------------------
  free energy    TOTEN  =       546.93476333 eV

  energy without entropy =      546.96236466  energy(sigma->0) =      546.94856399
  exchange ACFDT corr.  =         0.00000000  see jH, gK, PRB 81, 115126


--------------------------------------------------------------------------------------------------------




--------------------------------------- Iteration      1(   2)  ---------------------------------------


    TRIAL :  cpu time      1.6397: real time      1.6459
    CORREC:  cpu time      0.0001: real time      0.0001
    --------------------------------------------
      LOOP:  cpu time      1.6422: real time      1.6517

 eigenvalue-minimisations  :   560
 total energy-change (2. order) :-0.2591837E+04  (-0.2494140E+04)
 number of electron     238.0000000 magnetization 
 augmentation part      238.0000000 magnetization 

 Free energy of the ion-electron system (eV)
  ---------------------------------------------------
  alpha Z        PSCENC =       195.45349252
  Ewald energy   TEWEN  =      9593.36728307
  -Hartree energ DENC   =    -20262.05755912
  -exchange      EXHF   =         0.00000000
  -V(xc)+E(xc)   XCENC  =       604.46593229
  PAW double counting   =     10048.68503353   -11578.62885328
  entropy T*S    EENTRO =        -0.00000000
  eigenvalues    EBANDS =     -3076.81719814
  atomic energy  EATOM  =     12430.62916133
  ---------------------------------------------------
  free energy    TOTEN  =     -2044.90270779 eV

  energy without entropy =    -2044.90270779  energy(sigma->0) =    -2044.90270779
  exchange ACFDT corr.  =         0.00000000  see jH, gK, PRB 81, 115126


--------------------------------------------------------------------------------------------------------




--------------------------------------- Iteration      1(   3)  ---------------------------------------


    TRIAL :  cpu time      1.2376: real time      1.2418
    CORREC:  cpu time      0.0001: real time      0.0001
    --------------------------------------------
      LOOP:  cpu time      1.2380: real time      1.2471

 eigenvalue-minimisations  :   400
 total energy-change (2. order) :-0.3718338E+03  (-0.3689831E+03)
 number of electron     238.0000000 magnetization 
 augmentation part      238.0000000 magnetization 

 Free energy of the ion-electron system (eV)
  ---------------------------------------------------
  alpha Z        PSCENC =       195.45349252
  Ewald energy   TEWEN  =      9593.36728307
  -Hartree energ DENC   =    -20262.05755912
  -exchange      EXHF   =         0.00000000
  -V(xc)+E(xc)   XCENC  =       604.46593229
  PAW double counting   =     10048.68503353   -11578.62885328
  entropy T*S    EENTRO =        -0.00000000
  eigenvalues    EBANDS =     -3448.65094918
  atomic energy  EATOM  =     12430.62916133
  ---------------------------------------------------
  free energy    TOTEN  =     -2416.73645883 eV

  energy without entropy =    -2416.73645883  energy(sigma->0) =    -2416.73645883
  exchange ACFDT corr.  =         0.00000000  see jH, gK, PRB 81, 115126


--------------------------------------------------------------------------------------------------------




--------------------------------------- Iteration      1(   4)  ---------------------------------------


    TRIAL :  cpu time      1.2551: real time      1.2594
    CORREC:  cpu time      0.0001: real time      0.0001
    --------------------------------------------
      LOOP:  cpu time      1.2560: real time      1.2648

 eigenvalue-minimisations  :   400
 total energy-change (2. order) :-0.9452293E+01  (-0.9418517E+01)
 number of electron     238.0000000 magnetization 
 augmentation part      238.0000000 magnetization 

 Free energy of the ion-electron system (eV)
  ---------------------------------------------------
  alpha Z        PSCENC =       195.45349252
  Ewald energy   TEWEN  =      9593.36728307
  -Hartree energ DENC   =    -20262.05755912
  -exchange      EXHF   =         0.00000000
  -V(xc)+E(xc)   XCENC  =       604.46593229
  PAW double counting   =     10048.68503353   -11578.62885328
  entropy T*S    EENTRO =        -0.00000000
  eigenvalues    EBANDS =     -3458.10324191
  atomic energy  EATOM  =     12430.62916133
  ---------------------------------------------------
  free energy    TOTEN  =     -2426.18875156 eV

  energy without entropy =    -2426.18875156  energy(sigma->0) =    -2426.18875156
  exchange ACFDT corr.  =         0.00000000  see jH, gK, PRB 81, 115126


--------------------------------------------------------------------------------------------------------




--------------------------------------- Iteration      1(   5)  ---------------------------------------


    POTLOK:  cpu time      0.3209: real time      0.3218
    SETDIJ:  cpu time      0.4809: real time      0.4826
    TRIAL :  cpu time     17.9663: real time     18.0318
    CORREC:  cpu time      0.0001: real time      0.0001
    CHARGE:  cpu time      0.1265: real time      0.1269
    --------------------------------------------
      LOOP:  cpu time     18.8952: real time     18.9688

 eigenvalue-minimisations  :   360
 total energy-change (2. order) : 0.1883228E+04  (-0.2617800E+01)
 number of electron     237.9999987 magnetization 
 augmentation part       17.8462844 magnetization 

 Free energy of the ion-electron system (eV)
  ---------------------------------------------------
  alpha Z        PSCENC =       195.45349252
  Ewald energy   TEWEN  =      9593.36728307
  -Hartree energ DENC   =    -20262.05755912
  -exchange      EXHF   =       670.42609030
  -V(xc)+E(xc)   XCENC  =       458.25394926
  PAW double counting   =     10169.88533916    -9953.89000951
  entropy T*S    EENTRO =        -0.00000000
  eigenvalues    EBANDS =     -3845.02810120
  atomic energy  EATOM  =     12430.62916133
  ---------------------------------------------------
  free energy    TOTEN  =      -542.96035418 eV

  energy without entropy =     -542.96035418  energy(sigma->0) =     -542.96035418
  exchange ACFDT corr.  =        -0.00000000  see jH, gK, PRB 81, 115126


--------------------------------------------------------------------------------------------------------




--------------------------------------- Iteration      1(   6)  ---------------------------------------


    POTLOK:  cpu time      0.3212: real time      0.3220
    SETDIJ:  cpu time      0.4854: real time      0.4874
    TRIAL :  cpu time     17.7397: real time     18.1372
    CORREC:  cpu time     71.2702: real time     72.2689
    CHARGE:  cpu time      0.1220: real time      0.1291
    --------------------------------------------
      LOOP:  cpu time     89.9440: real time     91.3508

 eigenvalue-minimisations  :     0
 total energy-change (2. order) : 0.9880265E+02  (-0.2185092E+01)
 number of electron     237.9999989 magnetization 
 augmentation part       15.9184548 magnetization 

 Free energy of the ion-electron system (eV)
  ---------------------------------------------------
  alpha Z        PSCENC =       195.45349252
  Ewald energy   TEWEN  =      9593.36728307
  -Hartree energ DENC   =    -21951.42123866
  -exchange      EXHF   =       673.62098324
  -V(xc)+E(xc)   XCENC  =       521.99914500
  PAW double counting   =     22722.41240806   -22519.17129268
  entropy T*S    EENTRO =        -0.00000000
  eigenvalues    EBANDS =     -2111.04765079
  atomic energy  EATOM  =     12430.62916133
  ---------------------------------------------------
  free energy    TOTEN  =      -444.15770889 eV

  energy without entropy =     -444.15770889  energy(sigma->0) =     -444.15770889
  exchange ACFDT corr.  =        -0.00000000  see jH, gK, PRB 81, 115126


--------------------------------------------------------------------------------------------------------




--------------------------------------- Iteration      1(   7)  ---------------------------------------


    POTLOK:  cpu time      0.3319: real time      0.3330
    SETDIJ:  cpu time      0.4873: real time      0.4887
    TRIAL :  cpu time     17.3291: real time     17.4801
    CORREC:  cpu time     17.5632: real time     18.8036
    CHARGE:  cpu time      0.1224: real time      0.1227
    --------------------------------------------
      LOOP:  cpu time     35.8362: real time     37.2348

 eigenvalue-minimisations  :     0
 total energy-change (2. order) :-0.4482596E+02  (-0.5213062E+01)
 number of electron     237.9999990 magnetization 
 augmentation part       15.5118628 magnetization 

 Free energy of the ion-electron system (eV)
  ---------------------------------------------------
  alpha Z        PSCENC =       195.45349252
  Ewald energy   TEWEN  =      9593.36728307
  -Hartree energ DENC   =    -21112.67432181
  -exchange      EXHF   =       637.65250597
  -V(xc)+E(xc)   XCENC  =       489.19885635
  PAW double counting   =     22141.88388679   -21932.78513815
  entropy T*S    EENTRO =        -0.00000000
  eigenvalues    EBANDS =     -2931.70939097
  atomic energy  EATOM  =     12430.62916133
  ---------------------------------------------------
  free energy    TOTEN  =      -488.98366489 eV

  energy without entropy =     -488.98366489  energy(sigma->0) =     -488.98366489
  exchange ACFDT corr.  =        -0.00000000  see jH, gK, PRB 81, 115126


--------------------------------------------------------------------------------------------------------




--------------------------------------- Iteration      1(   8)  ---------------------------------------


    POTLOK:  cpu time      0.3285: real time      0.3293
    SETDIJ:  cpu time      0.4881: real time      0.4894
    TRIAL :  cpu time     17.1863: real time     17.3826
    CORREC:  cpu time     17.5230: real time     17.7852
    CHARGE:  cpu time      0.1237: real time      0.1240
    --------------------------------------------
      LOOP:  cpu time     35.6515: real time     36.1168

 eigenvalue-minimisations  :     0
 total energy-change (2. order) :-0.5381176E+01  (-0.1932349E+01)
 number of electron     237.9999990 magnetization 
 augmentation part       15.4236334 magnetization 

 Free energy of the ion-electron system (eV)
  ---------------------------------------------------
  alpha Z        PSCENC =       195.45349252
  Ewald energy   TEWEN  =      9593.36728307
  -Hartree energ DENC   =    -21127.55992033
  -exchange      EXHF   =       637.65614206
  -V(xc)+E(xc)   XCENC  =       488.92052370
  PAW double counting   =     22395.44535615   -22184.06602858
  entropy T*S    EENTRO =        -0.00000000
  eigenvalues    EBANDS =     -2924.21085059
  atomic energy  EATOM  =     12430.62916133
  ---------------------------------------------------
  free energy    TOTEN  =      -494.36484067 eV

  energy without entropy =     -494.36484067  energy(sigma->0) =     -494.36484067
  exchange ACFDT corr.  =        -0.00000000  see jH, gK, PRB 81, 115126


--------------------------------------------------------------------------------------------------------




--------------------------------------- Iteration      1(   9)  ---------------------------------------


    POTLOK:  cpu time      0.3303: real time      0.3311
    SETDIJ:  cpu time      0.4868: real time      0.4887
    TRIAL :  cpu time     18.2168: real time     18.6818
    CORREC:  cpu time     17.6329: real time     17.8226
    CHARGE:  cpu time      0.1235: real time      0.1238
    --------------------------------------------
      LOOP:  cpu time     36.7916: real time     37.4546

 eigenvalue-minimisations  :     0
 total energy-change (2. order) :-0.1888065E+01  (-0.8690338E+00)
 number of electron     237.9999990 magnetization 
 augmentation part       15.3732035 magnetization 

 Free energy of the ion-electron system (eV)
  ---------------------------------------------------
  alpha Z        PSCENC =       195.45349252
  Ewald energy   TEWEN  =      9593.36728307
  -Hartree energ DENC   =    -21141.80477385
  -exchange      EXHF   =       637.68700261
  -V(xc)+E(xc)   XCENC  =       489.04375350
  PAW double counting   =     22591.42265017   -22379.50571596
  entropy T*S    EENTRO =        -0.00000000
  eigenvalues    EBANDS =     -2912.54575917
  atomic energy  EATOM  =     12430.62916133
  ---------------------------------------------------
  free energy    TOTEN  =      -496.25290577 eV

  energy without entropy =     -496.25290577  energy(sigma->0) =     -496.25290577
  exchange ACFDT corr.  =        -0.00000000  see jH, gK, PRB 81, 115126


--------------------------------------------------------------------------------------------------------




--------------------------------------- Iteration      1(  10)  ---------------------------------------


    POTLOK:  cpu time      0.3281: real time      0.3296
    SETDIJ:  cpu time      0.4872: real time      0.4886
    TRIAL :  cpu time     17.2381: real time     17.2956
    CORREC:  cpu time     17.7388: real time     17.8083
    CHARGE:  cpu time      0.1229: real time      0.1233
    --------------------------------------------
      LOOP:  cpu time     35.9170: real time     36.0517

 eigenvalue-minimisations  :     0
 total energy-change (2. order) :-0.8545527E+00  (-0.3731569E+00)
 number of electron     237.9999990 magnetization 
 augmentation part       15.3815545 magnetization 

 Free energy of the ion-electron system (eV)
  ---------------------------------------------------
  alpha Z        PSCENC =       195.45349252
  Ewald energy   TEWEN  =      9593.36728307
  -Hartree energ DENC   =    -21123.86093002
  -exchange      EXHF   =       636.72745849
  -V(xc)+E(xc)   XCENC  =       488.37479881
  PAW double counting   =     22664.94870761   -22452.83173958
  entropy T*S    EENTRO =        -0.00000000
  eigenvalues    EBANDS =     -2929.91569067
  atomic energy  EATOM  =     12430.62916133
  ---------------------------------------------------
  free energy    TOTEN  =      -497.10745844 eV

  energy without entropy =     -497.10745844  energy(sigma->0) =     -497.10745844
  exchange ACFDT corr.  =        -0.00000000  see jH, gK, PRB 81, 115126


--------------------------------------------------------------------------------------------------------




--------------------------------------- Iteration      1(  11)  ---------------------------------------


    POTLOK:  cpu time      0.3297: real time      0.3542
    SETDIJ:  cpu time      0.4741: real time      0.5084
    TRIAL :  cpu time     17.4752: real time     17.7239
    CORREC:  cpu time     17.6515: real time     17.7707
    CHARGE:  cpu time      0.1225: real time      0.1228
    --------------------------------------------
      LOOP:  cpu time     36.0549: real time     36.4873

 eigenvalue-minimisations  :     0
 total energy-change (2. order) :-0.3674553E+00  (-0.1381003E+00)
 number of electron     237.9999990 magnetization 
 augmentation part       15.4253018 magnetization 

 Free energy of the ion-electron system (eV)
  ---------------------------------------------------
  alpha Z        PSCENC =       195.45349252
  Ewald energy   TEWEN  =      9593.36728307
  -Hartree energ DENC   =    -21107.32173270
  -exchange      EXHF   =       635.97607642
  -V(xc)+E(xc)   XCENC  =       487.89944015
  PAW double counting   =     22651.39473302   -22439.35001533
  entropy T*S    EENTRO =        -0.00000000
  eigenvalues    EBANDS =     -2945.52335223
  atomic energy  EATOM  =     12430.62916133
  ---------------------------------------------------
  free energy    TOTEN  =      -497.47491376 eV

  energy without entropy =     -497.47491376  energy(sigma->0) =     -497.47491376
  exchange ACFDT corr.  =        -0.00000000  see jH, gK, PRB 81, 115126


--------------------------------------------------------------------------------------------------------




--------------------------------------- Iteration      1(  12)  ---------------------------------------


    POTLOK:  cpu time      0.3284: real time      0.3293
    SETDIJ:  cpu time      0.4865: real time      0.4882
    TRIAL :  cpu time     17.4109: real time     17.4669
    CORREC:  cpu time     17.3924: real time     17.8983
    CHARGE:  cpu time      0.1238: real time      0.1242
    --------------------------------------------
      LOOP:  cpu time     35.7430: real time     36.3135

 eigenvalue-minimisations  :     0
 total energy-change (2. order) :-0.1380104E+00  (-0.4214957E-01)
 number of electron     237.9999990 magnetization 
 augmentation part       15.4454372 magnetization 

 Free energy of the ion-electron system (eV)
  ---------------------------------------------------
  alpha Z        PSCENC =       195.45349252
  Ewald energy   TEWEN  =      9593.36728307
  -Hartree energ DENC   =    -21105.98319594
  -exchange      EXHF   =       635.84240070
  -V(xc)+E(xc)   XCENC  =       487.91453029
  PAW double counting   =     22623.80747177   -22411.97078571
  entropy T*S    EENTRO =        -0.00000000
  eigenvalues    EBANDS =     -2946.67328221
  atomic energy  EATOM  =     12430.62916133
  ---------------------------------------------------
  free energy    TOTEN  =      -497.61292418 eV

  energy without entropy =     -497.61292418  energy(sigma->0) =     -497.61292418
  exchange ACFDT corr.  =        -0.00000000  see jH, gK, PRB 81, 115126


--------------------------------------------------------------------------------------------------------




--------------------------------------- Iteration      1(  13)  ---------------------------------------


    POTLOK:  cpu time      0.3339: real time      0.3348
    SETDIJ:  cpu time      0.4852: real time      0.4871
    TRIAL :  cpu time     17.2489: real time     17.3804
    CORREC:  cpu time     17.5159: real time     17.6253
    CHARGE:  cpu time      0.1236: real time      0.1239
    --------------------------------------------
      LOOP:  cpu time     35.7132: real time     35.9579

 eigenvalue-minimisations  :     0
 total energy-change (2. order) :-0.4221998E-01  (-0.1395004E-01)
 number of electron     237.9999990 magnetization 
 augmentation part       15.4478142 magnetization 

 Free energy of the ion-electron system (eV)
  ---------------------------------------------------
  alpha Z        PSCENC =       195.45349252
  Ewald energy   TEWEN  =      9593.36728307
  -Hartree energ DENC   =    -21105.70029681
  -exchange      EXHF   =       635.79167896
  -V(xc)+E(xc)   XCENC  =       487.92303409
  PAW double counting   =     22602.53417665   -22390.81037027
  entropy T*S    EENTRO =        -0.00000000
  eigenvalues    EBANDS =     -2946.84330370
  atomic energy  EATOM  =     12430.62916133
  ---------------------------------------------------
  free energy    TOTEN  =      -497.65514416 eV

  energy without entropy =     -497.65514416  energy(sigma->0) =     -497.65514416
  exchange ACFDT corr.  =        -0.00000000  see jH, gK, PRB 81, 115126


--------------------------------------------------------------------------------------------------------




--------------------------------------- Iteration      1(  14)  ---------------------------------------


    POTLOK:  cpu time      0.3294: real time      0.3302
    SETDIJ:  cpu time      0.4859: real time      0.4878
    TRIAL :  cpu time     17.2126: real time     17.5594
    CORREC:  cpu time     17.5413: real time     17.6830
    CHARGE:  cpu time      0.1210: real time      0.1218
    --------------------------------------------
      LOOP:  cpu time     35.6915: real time     36.1911

 eigenvalue-minimisations  :     0
 total energy-change (2. order) :-0.1398185E-01  (-0.4185493E-02)
 number of electron     237.9999990 magnetization 
 augmentation part       15.4485260 magnetization 

 Free energy of the ion-electron system (eV)
  ---------------------------------------------------
  alpha Z        PSCENC =       195.45349252
  Ewald energy   TEWEN  =      9593.36728307
  -Hartree energ DENC   =    -21103.78853537
  -exchange      EXHF   =       635.71046251
  -V(xc)+E(xc)   XCENC  =       487.86274253
  PAW double counting   =     22587.63512956   -22375.94306847
  entropy T*S    EENTRO =        -0.00000000
  eigenvalues    EBANDS =     -2948.59579369
  atomic energy  EATOM  =     12430.62916133
  ---------------------------------------------------
  free energy    TOTEN  =      -497.66912601 eV

  energy without entropy =     -497.66912601  energy(sigma->0) =     -497.66912601
  exchange ACFDT corr.  =        -0.00000000  see jH, gK, PRB 81, 115126


--------------------------------------------------------------------------------------------------------




--------------------------------------- Iteration      1(  15)  ---------------------------------------


    POTLOK:  cpu time      0.3300: real time      0.3312
    SETDIJ:  cpu time      0.4874: real time      0.4886
    TRIAL :  cpu time     17.3322: real time     17.3856
    CORREC:  cpu time     17.7005: real time     17.8885
    CHARGE:  cpu time      0.1232: real time      0.1237
    --------------------------------------------
      LOOP:  cpu time     35.9739: real time     36.2246

 eigenvalue-minimisations  :     0
 total energy-change (2. order) :-0.4194848E-02  (-0.1411200E-02)
 number of electron     237.9999990 magnetization 
 augmentation part       15.4490378 magnetization 

 Free energy of the ion-electron system (eV)
  ---------------------------------------------------
  alpha Z        PSCENC =       195.45349252
  Ewald energy   TEWEN  =      9593.36728307
  -Hartree energ DENC   =    -21103.83116160
  -exchange      EXHF   =       635.71897462
  -V(xc)+E(xc)   XCENC  =       487.86449362
  PAW double counting   =     22582.98744022   -22371.30044910
  entropy T*S    EENTRO =        -0.00000000
  eigenvalues    EBANDS =     -2948.56255553
  atomic energy  EATOM  =     12430.62916133
  ---------------------------------------------------
  free energy    TOTEN  =      -497.67332086 eV

  energy without entropy =     -497.67332086  energy(sigma->0) =     -497.67332086
  exchange ACFDT corr.  =        -0.00000000  see jH, gK, PRB 81, 115126


--------------------------------------------------------------------------------------------------------




--------------------------------------- Iteration      1(  16)  ---------------------------------------


    POTLOK:  cpu time      0.3310: real time      0.3340
    SETDIJ:  cpu time      0.4830: real time      0.4878
    TRIAL :  cpu time     17.3808: real time     17.6689
    CORREC:  cpu time     17.5561: real time     17.6128
    CHARGE:  cpu time      0.1218: real time      0.1221
    --------------------------------------------
      LOOP:  cpu time     35.8745: real time     36.2319

 eigenvalue-minimisations  :     0
 total energy-change (2. order) :-0.1413380E-02  (-0.5188619E-03)
 number of electron     237.9999990 magnetization 
 augmentation part       15.4486720 magnetization 

 Free energy of the ion-electron system (eV)
  ---------------------------------------------------
  alpha Z        PSCENC =       195.45349252
  Ewald energy   TEWEN  =      9593.36728307
  -Hartree energ DENC   =    -21104.37307212
  -exchange      EXHF   =       635.74497582
  -V(xc)+E(xc)   XCENC  =       487.88034008
  PAW double counting   =     22582.71354166   -22371.02814532
  entropy T*S    EENTRO =        -0.00000000
  eigenvalues    EBANDS =     -2948.06231128
  atomic energy  EATOM  =     12430.62916133
  ---------------------------------------------------
  free energy    TOTEN  =      -497.67473424 eV

  energy without entropy =     -497.67473424  energy(sigma->0) =     -497.67473424
  exchange ACFDT corr.  =        -0.00000000  see jH, gK, PRB 81, 115126


--------------------------------------------------------------------------------------------------------




--------------------------------------- Iteration      1(  17)  ---------------------------------------


    POTLOK:  cpu time      0.3356: real time      0.3367
    SETDIJ:  cpu time      0.4879: real time      0.4898
    TRIAL :  cpu time     17.2975: real time     17.3763
    CORREC:  cpu time     17.4888: real time     18.0754
    CHARGE:  cpu time      0.1214: real time      0.1224
    --------------------------------------------
      LOOP:  cpu time     35.7370: real time     36.4067

 eigenvalue-minimisations  :     0
 total energy-change (2. order) :-0.5181906E-03  (-0.1989537E-03)
 number of electron     237.9999990 magnetization 
 augmentation part       15.4483074 magnetization 

 Free energy of the ion-electron system (eV)
  ---------------------------------------------------
  alpha Z        PSCENC =       195.45349252
  Ewald energy   TEWEN  =      9593.36728307
  -Hartree energ DENC   =    -21104.59103554
  -exchange      EXHF   =       635.75793325
  -V(xc)+E(xc)   XCENC  =       487.88674933
  PAW double counting   =     22583.04508370   -22371.35773853
  entropy T*S    EENTRO =        -0.00000000
  eigenvalues    EBANDS =     -2947.86618155
  atomic energy  EATOM  =     12430.62916133
  ---------------------------------------------------
  free energy    TOTEN  =      -497.67525243 eV

  energy without entropy =     -497.67525243  energy(sigma->0) =     -497.67525243
  exchange ACFDT corr.  =        -0.00000000  see jH, gK, PRB 81, 115126


--------------------------------------------------------------------------------------------------------




--------------------------------------- Iteration      1(  18)  ---------------------------------------


    POTLOK:  cpu time      0.3306: real time      0.3319
    SETDIJ:  cpu time      0.4868: real time      0.4885
    TRIAL :  cpu time     17.3071: real time     17.3712
    CORREC:  cpu time     17.6148: real time     17.6881
    CHARGE:  cpu time      0.1234: real time      0.1237
    --------------------------------------------
      LOOP:  cpu time     35.8637: real time     36.0093

 eigenvalue-minimisations  :     0
 total energy-change (2. order) :-0.1977044E-03  (-0.6909513E-04)
 number of electron     237.9999990 magnetization 
 augmentation part       15.4482862 magnetization 

 Free energy of the ion-electron system (eV)
  ---------------------------------------------------
  alpha Z        PSCENC =       195.45349252
  Ewald energy   TEWEN  =      9593.36728307
  -Hartree energ DENC   =    -21104.71559802
  -exchange      EXHF   =       635.76578820
  -V(xc)+E(xc)   XCENC  =       487.89087034
  PAW double counting   =     22583.47957444   -22371.78999757
  entropy T*S    EENTRO =        -0.00000000
  eigenvalues    EBANDS =     -2947.75602445
  atomic energy  EATOM  =     12430.62916133
  ---------------------------------------------------
  free energy    TOTEN  =      -497.67545013 eV

  energy without entropy =     -497.67545013  energy(sigma->0) =     -497.67545013
  exchange ACFDT corr.  =        -0.00000000  see jH, gK, PRB 81, 115126


--------------------------------------------------------------------------------------------------------




--------------------------------------- Iteration      1(  19)  ---------------------------------------


    POTLOK:  cpu time      0.3279: real time      0.3289
    SETDIJ:  cpu time      0.4880: real time      0.4896
    TRIAL :  cpu time     17.0636: real time     17.5004
    CORREC:  cpu time     17.4976: real time     17.6738
    CHARGE:  cpu time      0.1216: real time      0.1219
    --------------------------------------------
      LOOP:  cpu time     35.4999: real time     36.1224

 eigenvalue-minimisations  :     0
 total energy-change (2. order) :-0.6848647E-04  (-0.2418521E-04)
 number of electron     237.9999990 magnetization 
 augmentation part       15.4483227 magnetization 

 Free energy of the ion-electron system (eV)
  ---------------------------------------------------
  alpha Z        PSCENC =       195.45349252
  Ewald energy   TEWEN  =      9593.36728307
  -Hartree energ DENC   =    -21104.81857329
  -exchange      EXHF   =       635.77016696
  -V(xc)+E(xc)   XCENC  =       487.89393272
  PAW double counting   =     22583.73069644   -22372.04077158
  entropy T*S    EENTRO =        -0.00000000
  eigenvalues    EBANDS =     -2947.66090679
  atomic energy  EATOM  =     12430.62916133
  ---------------------------------------------------
  free energy    TOTEN  =      -497.67551862 eV

  energy without entropy =     -497.67551862  energy(sigma->0) =     -497.67551862
  exchange ACFDT corr.  =        -0.00000000  see jH, gK, PRB 81, 115126


--------------------------------------------------------------------------------------------------------




--------------------------------------- Iteration      1(  20)  ---------------------------------------


    POTLOK:  cpu time      0.3283: real time      0.3295
    SETDIJ:  cpu time      0.4878: real time      0.4893
    TRIAL :  cpu time     17.3258: real time     17.3945
    CORREC:  cpu time     17.6705: real time     17.7322
    CHARGE:  cpu time      0.1219: real time      0.1222
    --------------------------------------------
      LOOP:  cpu time     35.9400: real time     36.0739

 eigenvalue-minimisations  :     0
 total energy-change (2. order) :-0.2399905E-04  (-0.9491442E-05)
 number of electron     237.9999990 magnetization 
 augmentation part       15.4483417 magnetization 

 Free energy of the ion-electron system (eV)
  ---------------------------------------------------
  alpha Z        PSCENC =       195.45349252
  Ewald energy   TEWEN  =      9593.36728307
  -Hartree energ DENC   =    -21104.85265694
  -exchange      EXHF   =       635.77115506
  -V(xc)+E(xc)   XCENC  =       487.89483575
  PAW double counting   =     22583.72038923   -22372.03073350
  entropy T*S    EENTRO =        -0.00000000
  eigenvalues    EBANDS =     -2947.62846914
  atomic energy  EATOM  =     12430.62916133
  ---------------------------------------------------
  free energy    TOTEN  =      -497.67554262 eV

  energy without entropy =     -497.67554262  energy(sigma->0) =     -497.67554262
  exchange ACFDT corr.  =        -0.00000000  see jH, gK, PRB 81, 115126


--------------------------------------------------------------------------------------------------------




--------------------------------------- Iteration      1(  21)  ---------------------------------------


    POTLOK:  cpu time      0.3282: real time      0.3294
    SETDIJ:  cpu time      0.4879: real time      0.4894
    TRIAL :  cpu time     17.3124: real time     17.7032
    CORREC:  cpu time     17.7000: real time     17.7574
    EDDIAG:  cpu time     16.7794: real time     16.8372
    CHARGE:  cpu time      0.1238: real time      0.1243
    --------------------------------------------
      LOOP:  cpu time     52.7337: real time     53.2557

 eigenvalue-minimisations  :     0
 total energy-change (2. order) :-0.9404324E-05  (-0.3614899E-05)
 number of electron     237.9999990 magnetization 
 augmentation part       15.4483726 magnetization 

 Free energy of the ion-electron system (eV)
  ---------------------------------------------------
  alpha Z        PSCENC =       195.45349252
  Ewald energy   TEWEN  =      9593.36728307
  -Hartree energ DENC   =    -21104.86270299
  -exchange      EXHF   =       635.77119374
  -V(xc)+E(xc)   XCENC  =       487.89511409
  PAW double counting   =     22583.56627371   -22371.87679291
  entropy T*S    EENTRO =        -0.00000000
  eigenvalues    EBANDS =     -2947.61867059
  atomic energy  EATOM  =     12430.62916133
  ---------------------------------------------------
  free energy    TOTEN  =      -497.67555202 eV

  energy without entropy =     -497.67555202  energy(sigma->0) =     -497.67555202
  exchange ACFDT corr.  =        -0.00000000  see jH, gK, PRB 81, 115126


--------------------------------------------------------------------------------------------------------


  average scaling for gradient   0.8682


 average (electrostatic) potential at core
  the test charge radii are     0.6991  0.5201  0.7215  1.0714
  (the norm of the test charge is              1.0000)
       1 -57.9076       2 -55.7219       3 -52.6545       4 -53.7100       5 -52.1317
       6 -55.8024       7 -52.8013       8 -53.8543       9 -52.3075      10 -55.7454
      11 -52.7011      12 -53.7573      13 -52.1862      14 -55.6414      15 -52.6293
      16 -53.6800      17 -52.1296      18 -55.8127      19 -52.7954      20 -53.8387
      21 -52.2872      22 -55.7236      23 -52.6961      24 -53.7507      25 -52.1854
      26 -34.8767      27 -35.0543      28 -34.9270      29 -34.8763      30 -35.0468
      31 -34.9242      32 -74.2426      33 -74.1515      34 -71.7320      35 -71.4472
      36 -70.8863      37 -71.7853      38 -71.5215      39 -70.9747      40 -71.7463
      41 -71.4688      42 -70.9143      43 -71.6034      44 -71.3756      45 -70.7704
      46 -71.7783      47 -71.5469      48 -70.8683      49 -71.7127      50 -71.4460
      51 -70.8937      52 -38.0699      53 -38.0671      54 -38.0477      55 -37.8087
      56 -38.0173      57 -37.9955
 
 
 
 E-fermi :  -2.1896     XC(G=0):  -3.9571     alpha+bet : -3.7880

 Fermi energy:        -2.1895582773

 k-point     1 :       0.0000    0.0000    0.0000
  band No.  band energies     occupation 
      1     -29.6959      2.00000
      2     -28.5662      2.00000
      3     -27.3799      2.00000
      4     -27.3647      2.00000
      5     -27.2438      2.00000
      6     -27.2237      2.00000
      7     -27.2083      2.00000
      8     -27.1274      2.00000
      9     -25.0410      2.00000
     10     -24.9889      2.00000
     11     -24.9749      2.00000
     12     -24.9335      2.00000
     13     -24.9149      2.00000
     14     -24.8396      2.00000
     15     -24.7014      2.00000
     16     -24.6691      2.00000
     17     -24.6467      2.00000
     18     -24.6248      2.00000
     19     -24.6017      2.00000
     20     -24.5214      2.00000
     21     -20.6551      2.00000
     22     -20.5461      2.00000
     23     -20.4823      2.00000
     24     -18.6838      2.00000
     25     -18.5770      2.00000
     26     -18.5148      2.00000
     27     -17.1413      2.00000
     28     -17.0169      2.00000
     29     -16.9439      2.00000
     30     -15.8317      2.00000
     31     -15.7414      2.00000
     32     -15.6857      2.00000
     33     -13.8311      2.00000
     34     -13.7332      2.00000
     35     -13.6757      2.00000
     36     -13.5341      2.00000
     37     -13.4380      2.00000
     38     -13.3993      2.00000
     39     -13.3361      2.00000
     40     -13.1153      2.00000
     41     -12.4681      2.00000
     42     -12.4062      2.00000
     43     -12.0512      2.00000
     44     -11.8293      2.00000
     45     -11.7242      2.00000
     46     -11.5962      2.00000
     47     -11.5707      2.00000
     48     -11.5338      2.00000
     49     -11.5210      2.00000
     50     -11.4328      2.00000
     51     -11.2406      2.00000
     52     -11.0084      2.00000
     53     -10.9357      2.00000
     54     -10.9007      2.00000
     55     -10.7948      2.00000
     56     -10.7646      2.00000
     57     -10.5581      2.00000
     58     -10.2604      2.00000
     59     -10.2061      2.00000
     60     -10.1389      2.00000
     61     -10.0365      2.00000
     62     -10.0130      2.00000
     63      -9.9569      2.00000
     64      -9.8017      2.00000
     65      -9.7315      2.00000
     66      -9.6007      2.00000
     67      -9.5780      2.00000
     68      -9.5409      2.00000
     69      -9.3885      2.00000
     70      -8.8573      2.00000
     71      -8.7901      2.00000
     72      -8.7216      2.00000
     73      -8.6794      2.00000
     74      -8.6050      2.00000
     75      -8.5448      2.00000
     76      -8.4659      2.00000
     77      -8.3659      2.00000
     78      -8.3093      2.00000
     79      -8.1715      2.00000
     80      -8.0571      2.00000
     81      -7.9613      2.00000
     82      -7.8572      2.00000
     83      -7.7227      2.00000
     84      -7.6010      2.00000
     85      -7.5458      2.00000
     86      -7.4921      2.00000
     87      -7.1149      2.00000
     88      -6.8565      2.00000
     89      -6.8004      2.00000
     90      -6.7170      2.00000
     91      -6.6620      2.00000
     92      -6.6062      2.00000
     93      -6.3263      2.00000
     94      -6.2819      2.00000
     95      -6.1096      2.00000
     96      -6.0593      2.00000
     97      -5.9316      2.00000
     98      -5.8449      2.00000
     99      -5.7261      2.00000
    100      -5.7098      2.00000
    101      -5.6925      2.00000
    102      -5.6749      2.00000
    103      -5.5717      2.00000
    104      -5.5401      2.00000
    105      -5.4609      2.00000
    106      -5.4479      2.00000
    107      -5.3572      2.00000
    108      -5.0808      2.00000
    109      -5.0340      2.00000
    110      -4.8773      2.00000
    111      -4.7830      2.00000
    112      -4.7223      2.00000
    113      -4.6179      2.00000
    114      -4.5321      2.00000
    115      -4.4230      2.00000
    116      -4.3597      2.00000
    117      -2.9045      2.00000
    118      -2.8140      2.00000
    119      -2.6812      2.00000
    120       0.2900      0.00000
    121       0.3956      0.00000
    122       0.4545      0.00000
    123       1.8161      0.00000
    124       2.3159      0.00000
    125       2.3571      0.00000
    126       2.4315      0.00000
    127       2.4967      0.00000
    128       2.5210      0.00000
    129       2.5592      0.00000
    130       2.5857      0.00000
    131       2.6393      0.00000
    132       2.6980      0.00000
    133       2.7304      0.00000
    134       2.8732      0.00000
    135       2.9006      0.00000
    136       2.9117      0.00000
    137       3.5160      0.00000
    138       4.0766      0.00000
    139       4.1672      0.00000
    140       4.3655      0.00000
    141       4.5272      0.00000
    142       4.5410      0.00000
    143       4.6655      0.00000
    144       4.7408      0.00000
    145       4.7705      0.00000
    146       4.8750      0.00000
    147       4.9327      0.00000
    148       4.9873      0.00000
    149       5.0333      0.00000
    150       5.1769      0.00000
    151       5.3552      0.00000
    152       5.3571      0.00000
    153       5.6598      0.00000
    154       5.7589      0.00000
    155       5.8904      0.00000
    156       6.1186      0.00000
    157       6.3080      0.00000
    158       6.3424      0.00000
    159       6.4406      0.00000
    160       6.9547      0.00000


--------------------------------------------------------------------------------------------------------


 soft charge-density along one line, spin component           1
         0         1         2         3         4         5         6         7         8         9
 total charge-density along one line
 
 pseudopotential strength for first ion, spin component:           1
 10.157  13.510   0.000  -0.001   0.001  -0.001   0.002  -0.002
 13.510  17.968   0.001  -0.001   0.002  -0.002   0.003  -0.003
  0.000   0.001  -4.344   0.004  -0.008   8.473  -0.007   0.014
 -0.001  -0.001   0.004  -4.354   0.023  -0.007   8.490  -0.039
  0.001   0.002  -0.008   0.023  -4.388   0.014  -0.039   8.549
 -0.001  -0.002   8.473  -0.007   0.014 -18.653   0.012  -0.024
  0.002   0.003  -0.007   8.490  -0.039   0.012 -18.683   0.068
 -0.002  -0.003   0.014  -0.039   8.549  -0.024   0.068 -18.783
 total augmentation occupancy for first ion, spin component:           1
 11.868  -6.051   0.035  -0.004  -0.096   0.006  -0.001  -0.016
 -6.051   3.276  -0.026   0.009   0.055  -0.004   0.000   0.010
  0.035  -0.026   1.230  -0.090   0.191   0.097  -0.016   0.033
 -0.004   0.009  -0.090   1.466  -0.544  -0.016   0.138  -0.094
 -0.096   0.055   0.191  -0.544   2.284   0.033  -0.093   0.277
  0.006  -0.004   0.097  -0.016   0.033   0.008  -0.003   0.006
 -0.001   0.000  -0.016   0.138  -0.093  -0.003   0.015  -0.017
 -0.016   0.010   0.033  -0.094   0.277   0.006  -0.017   0.040


------------------------ aborting loop because EDIFF is reached ----------------------------------------


    FORLOC:  cpu time      0.0620: real time      0.0621
    FORHF :  cpu time     10.1357: real time     10.3679
    FORNL :  cpu time      0.7656: real time      0.7681
    FORCOR:  cpu time      0.8663: real time      0.9146
    OFIELD:  cpu time      0.0007: real time      0.0007
 WARNING: Using user supplied parameters
     VDW_S8 = 2.31
     because the xc functional is not supported. Required parameters not
     defined in the INCAR file will be replaced with PBE defaults ones.


 ---------------------------------------------------------------------------------------------

         DFTD3 V3.0 Rev 1        
 IVDW         = 11
 DF unknown   
 parameters
 VDW_S6       =    1.0000
 VDW_S8       =    2.3100
 VDW_SR       =    1.2170
 rs18     =    1.0000
 alpha6   =   14.0000
 alpha8   =   16.0000
 k1-k3    =   16.0000    1.3333   -4.0000
 VDW_RADIUS   =   50.2022 A
 VDW_CNRADIUS =   21.1671 A
 Edisp (eV)   -5.43881

 E6    (eV) :    -1.4068
 E8    (eV) :    -4.0320
 % E8        : 74.13
    FORVDW:  cpu time      0.6295: real time      0.6618

 VOLUME and BASIS-vectors are now :
 -----------------------------------------------------------------------------
  energy-cutoff  :      400.00
  volume of cell :     1371.39
      direct lattice vectors                 reciprocal lattice vectors
    15.258013385  0.006374814  0.024579381     0.065314117  0.034130566  0.130953070
    -7.105142985 13.502791256  0.024499078    -0.000241744  0.073693958  0.130953351
    -7.105097270-11.773071197  6.612175988    -0.000241896 -0.000399920  0.150264152

  length of vectors
    15.258034514 15.258080769 15.258062915     0.150264886  0.150265226  0.150264879


 FORCES acting on ions:
    Electron-Ion                     Ewald-Force                    Non-Local-Force
 -----------------------------------------------------------------------------------------------
   0.186E+03 -.185E+03 0.201E+02   -.186E+03 0.184E+03 -.198E+02   -.560E-01 0.310E+00 -.345E+00
   0.324E+02 0.133E+03 -.147E+02   -.323E+02 -.139E+03 0.130E+02   -.135E+00 0.570E+01 0.182E+01
   -.314E+01 0.306E+02 -.330E+02   0.303E+01 -.321E+02 0.323E+02   0.879E-01 0.125E+01 0.448E+00
   -.421E+02 0.716E+02 -.133E+01   0.416E+02 -.759E+02 0.424E+01   0.458E+00 0.417E+01 -.271E+01
   -.700E+02 0.848E+01 0.118E+03   0.707E+02 -.837E+01 -.120E+03   -.596E+00 -.734E-01 0.219E+01
   -.122E+03 0.107E+02 0.439E+02   0.125E+03 -.881E+01 -.480E+02   -.349E+01 -.199E+01 0.431E+01
   -.472E+02 0.375E+02 -.161E+02   0.480E+02 -.372E+02 0.149E+02   -.744E+00 -.247E+00 0.929E+00
   -.405E+02 -.185E+02 0.292E+02   0.452E+02 0.204E+02 -.287E+02   -.453E+01 -.185E+01 -.351E+00
   0.514E+02 0.167E+02 0.953E+02   -.527E+02 -.167E+02 -.971E+02   0.131E+01 0.759E-01 0.184E+01
   0.119E+03 -.842E+02 0.278E+02   -.124E+03 0.855E+02 -.304E+02   0.508E+01 -.132E+01 0.282E+01
   0.439E+02 -.370E+02 -.220E+02   -.452E+02 0.374E+02 0.210E+02   0.102E+01 -.347E+00 0.708E+00
   0.949E+02 -.620E+01 -.245E+01   -.984E+02 0.973E+01 0.378E+01   0.344E+01 -.336E+01 -.122E+01
   0.471E+02 0.883E+02 0.772E+02   -.472E+02 -.899E+02 -.788E+02   0.183E+00 0.159E+01 0.165E+01
   -.769E+02 -.148E+03 0.320E+02   0.767E+02 0.153E+03 -.302E+02   0.141E+00 -.563E+01 -.182E+01
   -.440E+02 -.629E+02 0.496E+02   0.440E+02 0.643E+02 -.489E+02   -.597E-01 -.113E+01 -.472E+00
   -.997E+01 -.106E+03 0.119E+02   0.104E+02 0.110E+03 -.147E+02   -.434E+00 -.407E+01 0.270E+01
   0.281E+02 -.444E+02 -.104E+03   -.287E+02 0.442E+02 0.107E+03   0.587E+00 0.182E+00 -.221E+01
   0.939E+02 0.591E+02 -.620E+02   -.972E+02 -.609E+02 0.661E+02   0.348E+01 0.198E+01 -.429E+01
   0.334E+02 0.675E+02 0.139E+02   -.342E+02 -.679E+02 -.126E+02   0.652E+00 0.322E+00 -.960E+00
   0.208E+02 0.130E+03 -.266E+02   -.251E+02 -.132E+03 0.262E+02   0.442E+01 0.189E+01 0.360E+00
   -.673E+02 0.102E+03 -.113E+03   0.687E+02 -.102E+03 0.115E+03   -.140E+01 0.130E+00 -.183E+01
   -.122E+03 0.102E+03 -.338E+02   0.127E+03 -.103E+03 0.364E+02   -.505E+01 0.131E+01 -.281E+01
   -.393E+02 0.480E+02 0.177E+02   0.405E+02 -.483E+02 -.167E+02   -.995E+00 0.325E+00 -.696E+00
   -.916E+02 0.162E+02 -.614E+00   0.951E+02 -.197E+02 -.712E+00   -.343E+01 0.334E+01 0.122E+01
   -.405E+02 -.797E+02 -.806E+02   0.406E+02 0.814E+02 0.822E+02   -.173E+00 -.160E+01 -.165E+01
   -.330E+02 0.638E+01 0.607E+02   0.336E+02 -.726E+01 -.663E+02   -.549E+00 0.875E+00 0.563E+01
   0.310E+02 -.331E+01 0.472E+02   -.331E+02 0.285E+01 -.526E+02   0.202E+01 0.447E+00 0.533E+01
   0.222E+02 0.485E+02 0.407E+02   -.233E+02 -.514E+02 -.456E+02   0.103E+01 0.282E+01 0.488E+01
   0.236E+02 -.145E+02 -.574E+02   -.241E+02 0.154E+02 0.631E+02   0.547E+00 -.870E+00 -.563E+01
   -.367E+02 0.320E+02 -.602E+02   0.387E+02 -.316E+02 0.656E+02   -.202E+01 -.428E+00 -.534E+01
   -.207E+02 -.466E+02 -.414E+02   0.218E+02 0.494E+02 0.463E+02   -.103E+01 -.282E+01 -.488E+01
   0.131E+03 -.298E+03 0.143E+03   -.790E+02 0.311E+03 -.174E+03   -.468E+02 -.111E+02 0.269E+02
   0.446E+03 -.265E+03 -.707E+02   -.504E+03 0.255E+03 0.997E+02   0.524E+02 0.875E+01 -.258E+02
   -.215E+01 -.198E+02 0.491E+02   0.614E+01 0.472E+02 -.710E+02   -.356E+01 -.243E+02 0.195E+02
   0.173E+03 0.118E+03 -.268E+03   -.181E+03 -.123E+03 0.311E+03   0.740E+01 0.472E+01 -.386E+02
   -.127E+03 0.687E+02 0.102E+03   0.133E+03 -.483E+02 -.125E+03   -.579E+01 -.179E+02 0.198E+02
   0.622E+02 0.522E+02 0.229E+02   -.947E+02 -.648E+02 -.286E+02   0.291E+02 0.112E+02 0.509E+01
   -.294E+03 0.969E+02 -.193E+03   0.321E+03 -.922E+02 0.228E+03   -.236E+02 -.405E+01 -.315E+02
   0.699E+02 -.683E+02 0.108E+03   -.985E+02 0.606E+02 -.118E+03   0.254E+02 0.677E+01 0.856E+01
   -.453E+01 0.567E+02 0.280E+02   0.269E+02 -.817E+02 -.391E+02   -.199E+02 0.223E+02 0.993E+01
   0.532E+02 -.311E+03 -.138E+03   -.540E+02 0.341E+03 0.171E+03   0.691E+00 -.265E+02 -.294E+02
   0.130E+03 0.125E+03 0.481E+02   -.115E+03 -.149E+03 -.603E+02   -.132E+02 0.216E+02 0.107E+02
   -.761E+02 0.356E+02 -.281E+02   0.717E+02 -.628E+02 0.502E+02   0.401E+01 0.243E+02 -.198E+02
   -.222E+03 -.141E+03 0.287E+03   0.231E+03 0.146E+03 -.330E+03   -.740E+01 -.463E+01 0.386E+02
   0.336E+02 -.933E+02 -.107E+03   -.406E+02 0.727E+02 0.129E+03   0.629E+01 0.183E+02 -.196E+02
   -.104E+03 0.122E+02 -.263E+02   0.136E+03 0.487E+00 0.321E+02   -.292E+02 -.114E+02 -.521E+01
   0.212E+03 0.175E+02 0.107E+03   -.238E+03 -.219E+02 -.142E+03   0.228E+02 0.387E+01 0.318E+02
   -.122E+03 0.193E+03 -.114E+03   0.151E+03 -.184E+03 0.123E+03   -.253E+02 -.744E+01 -.857E+01
   -.261E+02 -.236E+02 -.392E+02   0.367E+01 0.487E+02 0.502E+02   0.200E+02 -.223E+02 -.985E+01
   -.535E+02 0.339E+03 0.130E+03   0.543E+02 -.369E+03 -.163E+03   -.642E+00 0.264E+02 0.295E+02
   -.140E+03 -.108E+03 -.497E+02   0.125E+03 0.132E+03 0.618E+02   0.132E+02 -.216E+02 -.108E+02
   -.770E+02 0.256E+02 -.779E+00   0.752E+02 -.253E+02 0.457E+00   0.199E+01 -.376E+00 0.394E+00
   0.323E+02 -.696E+02 0.832E+01   -.319E+02 0.679E+02 -.845E+01   -.430E+00 0.200E+01 0.154E+00
   0.539E+02 0.576E+02 -.288E+02   -.528E+02 -.566E+02 0.279E+02   -.127E+01 -.116E+01 0.110E+01
   0.316E+02 -.299E+00 -.961E+01   -.304E+02 0.367E+00 0.958E+01   -.169E+01 0.270E+00 -.311E+00
   -.401E+02 0.856E+02 -.827E+01   0.397E+02 -.838E+02 0.844E+01   0.436E+00 -.201E+01 -.158E+00
   -.684E+02 -.554E+02 0.294E+02   0.673E+02 0.544E+02 -.285E+02   0.127E+01 0.114E+01 -.109E+01
 -----------------------------------------------------------------------------------------------
   -.680E+01 0.274E+01 -.111E+01   -.341E-12 0.313E-12 0.174E-12   0.594E+01 -.233E+01 0.961E+00
 
 
 POSITION                                       TOTAL-FORCE (eV/Angst)
 -----------------------------------------------------------------------------------
     -3.59386     10.19391      1.31209        -0.054517     -0.018153      0.002975
      7.59511      2.64755      1.18809        -0.028937      0.468066      0.263232
      7.63873      1.30894      0.54329        -0.024319     -0.195111     -0.168283
     -6.43784      2.86224      5.76282        -0.015573      0.020039      0.036322
     -6.45160      1.54590      5.28467        -0.023161      0.058814      0.121552
     -5.07078      5.91373      2.32906        -0.333402     -0.189819      0.526889
     -4.33584      6.35007      1.11298         0.078287      0.037443     -0.276248
      3.27899     -5.54896      6.42675        -0.094937     -0.054165      0.072497
      4.09541     -5.13451      5.36685         0.052040      0.012485      0.113562
     -1.19743     -6.36168      4.91918         0.470679     -0.054305      0.336063
     -2.40204     -6.16560      4.07077        -0.180307      0.019613     -0.205611
      5.53246      6.62037      2.90060         0.047636      0.002292      0.021276
      4.37425      6.93301      2.17788         0.059960      0.051777      0.102955
     -6.54734     -0.91088      5.47311        -0.016928     -0.630405     -0.161828
     -6.59084      0.42773      6.11788         0.009443      0.226317      0.170623
      7.48575     -1.12559      0.89836        -0.020040     -0.168647      0.055166
      7.49946      0.19072      1.37651         0.013652     -0.043373     -0.113203
      6.11852     -4.17693      4.33219         0.382177      0.203383     -0.393011
      5.38356     -4.61337      5.54826        -0.147408     -0.017079      0.237202
     -2.23129      7.28571      0.23459         0.295054      0.115176      0.011949
     -3.04766      6.87118      1.29440        -0.038919      0.062657     -0.116084
      2.24508      8.09818      1.74212        -0.500444      0.082300     -0.343138
      3.44979      7.90210      2.59056         0.190164     -0.025113      0.208339
     -4.48465     -4.88386      3.76077        -0.067952      0.015197     -0.018993
     -3.32642     -5.19653      4.48345        -0.059871     -0.050768     -0.099447
     -6.34631      1.38326      4.21249        -0.042545      0.085901      0.168114
      3.70895     -5.21906      4.35174         0.008685     -0.038898      0.184927
      4.18117      6.39460      1.25052         0.097924      0.079802      0.149341
      7.39408      0.35351      2.44864         0.045916     -0.091494     -0.166840
     -2.66112      6.95567      2.30948        -0.017496      0.029815     -0.184101
     -3.13344     -4.65798      5.41066        -0.097640     -0.077819     -0.147988
     -2.55808     10.39235      0.77596        -1.188748     -0.287605      0.650633
     -4.63417     10.02485      1.82070         1.354448      0.174186     -0.631136
      7.76122      3.68660      0.43750        -0.103143     -0.522149      0.431706
      7.40383      2.77061      2.43852         0.213388      0.071022     -0.846877
     -6.30653      3.87970      4.88258        -0.080563     -0.178191      0.180214
     -6.27463      5.46731      2.18121         0.728881      0.250325      0.096733
     -4.53666      5.97898      3.48050        -0.487733     -0.004369     -0.744084
      2.05194     -6.04679      6.15509         0.367973      0.092003      0.078492
     -0.35557     -7.27894      4.57230        -0.434414      0.534163      0.202710
     -0.99934     -5.65370      5.95586        -0.047881     -0.601588     -0.632921
      6.37140      5.67555      2.42043        -0.146234      0.257985      0.091798
     -6.71344     -1.94995      6.22364         0.232359      0.584079     -0.524498
     -6.35615     -1.03396      4.22271        -0.212763     -0.048366      0.799852
      7.35449     -2.14299      1.77856         0.244399      0.326422     -0.176000
      7.32258     -3.73083      4.48014        -0.811851     -0.301569     -0.140763
      5.58434     -4.24178      3.18082         0.472478     -0.000830      0.835358
     -1.00428      7.78374      0.50622        -0.419428     -0.342633     -0.139436
      1.40320      9.01549      2.08911         0.465924     -0.569416     -0.194657
      2.04712      7.39009      0.70540         0.060393      0.593015      0.641865
     -5.32367     -3.93889      4.24083         0.168420     -0.289534     -0.099388
      1.51449     -7.74281      5.18874        -0.043039      0.005738      0.032340
      7.51420      5.67007      0.74920        -0.048677     -0.027240      0.046632
     -7.55659      4.51281      3.42128         0.034131     -0.019569      0.040770
     -0.46680      9.47956      1.47260        -0.271468      0.241673     -0.314542
     -6.46642     -3.93339      5.91213         0.015391      0.087480     -0.009502
      8.60443     -2.77629      3.23998        -0.049465      0.059036     -0.063507
 -----------------------------------------------------------------------------------
    total drift:                                0.000092      0.000635     -0.001556


--------------------------------------------------------------------------------------------------------



  FREE ENERGIE OF THE ION-ELECTRON SYSTEM (eV)
  ---------------------------------------------------
  free  energy   TOTEN  =      -503.11435765 eV

  energy  without entropy=     -503.11435765  energy(sigma->0) =     -503.11435765
 


--------------------------------------------------------------------------------------------------------


    POTLOK:  cpu time      0.8182: real time      0.8211


--------------------------------------------------------------------------------------------------------


 writing wavefunctions
     LOOP+:  cpu time    689.9568: real time    699.1612
    4ORBIT:  cpu time      0.0000: real time      0.0000

 total amount of memory used by VASP MPI-rank0  1220554. kBytes
=======================================================================

   base      :      30000. kBytes
   nonlr-proj:      47625. kBytes
   fftplans  :      10913. kBytes
   grid      :      54672. kBytes
   one-center:        231. kBytes
   HF        :        135. kBytes
   wavefun   :       2433. kBytes
   fock_wrk  :    1074545. kBytes
 
  
  
 General timing and accounting informations for this job:
 ========================================================
  
                  Total CPU time used (sec):      702.284
                            User time (sec):      654.573
                          System time (sec):       47.711
                         Elapsed time (sec):      711.897
  
                   Maximum memory used (kb):     2698768.
                   Average memory used (kb):          N/A
  
                          Minor page faults:      2784142
                          Major page faults:            2
                 Voluntary context switches:         9648
