 C  H  O Mg                             
   1.00000000000000     
    15.2580133847034212    0.0063748138853447    0.0245793812875825
    -7.1051429846584391   13.5027912564280630    0.0244990775527793
    -7.1050972695285770  -11.7730711971963462    6.6121759878766664
   C    H    O    Mg
    25     6    20     6
Direct
  0.2850167055442556  0.9239212314981526  0.1939526205617737   
  0.7420146289587848  0.3488568622315782  0.1756317219617003   
  0.6147375244667828  0.1657601565609426  0.0792660097631668  
  0.4318668325544266  0.9671465444648391  0.8663573944910112   
  0.3234262389338411  0.8075287184167479  0.7950395449973513   
  0.1756431187897576  0.7420305836581917  0.3488360556678884   
  0.0792886724497706  0.6147591864893158  0.1657509970157562   
  0.8663783863058541  0.4318876584236193  0.9671367925069276   
  0.7950500854359177  0.3234346954380740  0.8075076619444417   
  0.3488440819994381  0.1756544907178466  0.7420095521018339  
  0.1657572453720491  0.0792943960682067  0.6147375040110816   
  0.9671467592826204  0.8663865089320026  0.4318697660720545  
  0.8075278661155139  0.7950641173818056  0.3234266352510176   
  0.2579972420002647  0.6511776387896404  0.8243595579365532   
  0.3852787248139862  0.8342710913390761  0.9207212778319374   
  0.5681510986529759  0.0328842014322035  0.1336305969604012   
  0.6765881198891250  0.1925005951364085  0.2049500510656017   
  0.8243781585298251  0.2580211848976006  0.6511632434084191   
  0.9207278750118917  0.3852848887220190  0.8342479487146335   
  0.1336511818889861  0.5681728426451542  0.0328771262629175   
  0.2049675164746176  0.6766073651381745  0.1924910236924617   
  0.6511663337705755  0.8243802871305022  0.2579963958186440   
  0.8342648166848505  0.9207454974675855  0.3852737149507917   
  0.0328845851291248  0.1336586877905219  0.5681473701802986  
  0.1924986952413477  0.2049735799037578  0.6765841445386584   
  0.1843461863662625  0.6551116091344156  0.6339679849200763   
  0.6339907684248800  0.1843650225064692  0.6551003020733717   
  0.6551007247065428  0.6339927397426592  0.1843401731651895   
  0.8156602206662171  0.3449213848718387  0.3660127120232985   
  0.3660255484819288  0.8156680401886831  0.3448935978257381   
  0.3449050883138440  0.3660361468046744  0.8156486975542023  
  0.2892323680387994  0.8680859026708065  0.1130613724395109   
  0.2779033615981585  0.9783177222787592  0.2706974655788573  
  0.6900353516094668  0.3270962457107558  0.0623892552365959   
  0.8974682518106363  0.5217192069526817  0.3635228428766126   
  0.3598994570948832  0.9268250360521435  0.7336506888026690   
  0.0624166709304035  0.6900614490461479  0.3270893755683559   
  0.3635401241035154  0.8974945104894374  0.5217005043539729   
  0.7336673958313824  0.3599211550389327  0.9268105828923581   
  0.3270987085353667  0.0624301238765881  0.6900494760480598   
  0.5217032807832140  0.3635379198944904  0.8974551406245936  
  0.9268143894271148  0.7336765982663707  0.3598925166351918   
  0.3099692347992544  0.6729300441936630  0.9375937909861563   
  0.1025405173641971  0.4783177944360517  0.6364727829031409   
  0.6401181580461497  0.0732049964193067  0.2663318594054971   
  0.9376206519303310  0.3099798899587825  0.6729254340326918   
  0.6365000801365497  0.1025954026462585  0.4783089791982889   
  0.2663609367059863  0.6401487229796601  0.0731965492899960   
  0.6729274253657920  0.9376234138203188  0.3099729110817648   
  0.4783075699227624  0.6364841452190717  0.1025449469437802   
  0.0732026090514353  0.2663660537541332  0.6401084050827279   
  0.5141326688478287  0.1085183739783773  0.7824120619774177   
  0.7824156810757685  0.5141434598578556  0.1084921116821747   
  0.1084998509711710  0.7824217225920975  0.5141191968141428  
  0.4858955895534933  0.8915406945937860  0.2176006275769637  
  0.2176137188176881  0.4859091086542833  0.8915179187020428  
  0.8915196523485776  0.2176107601684691  0.4858818115060046  
