 vasp.6.3.2 27Jun22 (build Jul 28 2023 19:28:36) gamma-only                     
  
 executed on             LinuxIFC date 2024.06.16  02:09:07
 running on   40 total cores
 distrk:  each k-point on   40 cores,    1 groups
 distr:  one band on NCORE=   1 cores,   40 groups


--------------------------------------------------------------------------------------------------------


 INCAR:
   SYSTEM = CO2
   ISTART = 0
   ICHARG = 2
   ISMEAR = 0
   SIGMA = 0.1
   ENCUT = 400.0
   ENAUG = 644.9
   PREC = Accurate
   EDIFF = 1E-5
   NELM = 500
   IBRION = -1
   NSW = 0
   ALGO = All
   TIME = 0.05
   LREAL = Auto
   LHFCALC = .TRUE.
   GGA = PE
   HFSCREEN = 0.2
   LASPH = .TRUE.
   PRECFOCK = Normal
   IVDW = 11
   VDW_S8 = 0.109
   VDW_SR = 1.129
   LWAVE = .TRUE.
   LCHARG = .TRUE.
   NWRITE = 1

 POTCAR:    PAW_PBE C 08Apr2002                   
 POTCAR:    PAW_PBE O 08Apr2002                   
 -----------------------------------------------------------------------------
|                                                                             |
|           W    W    AA    RRRRR   N    N  II  N    N   GGGG   !!!           |
|           W    W   A  A   R    R  NN   N  II  NN   N  G    G  !!!           |
|           W    W  A    A  R    R  N N  N  II  N N  N  G       !!!           |
|           W WW W  AAAAAA  RRRRR   N  N N  II  N  N N  G  GGG   !            |
|           WW  WW  A    A  R   R   N   NN  II  N   NN  G    G                |
|           W    W  A    A  R    R  N    N  II  N    N   GGGG   !!!           |
|                                                                             |
|     For optimal performance we recommend to set                             |
|       NCORE = 2 up to number-of-cores-per-socket                            |
|     NCORE specifies how many cores store one orbital (NPAR=cpu/NCORE).      |
|     This setting can greatly improve the performance of VASP for DFT.       |
|     The default, NCORE=1 might be grossly inefficient on modern             |
|     multi-core architectures or massively parallel machines. Do your        |
|     own testing! More info at https://www.vasp.at/wiki/index.php/NCORE      |
|     Unfortunately you need to use the default for GW and RPA                |
|     calculations (for HF NCORE is supported but not extensively tested      |
|     yet).                                                                   |
|                                                                             |
 -----------------------------------------------------------------------------

 POTCAR:    PAW_PBE C 08Apr2002                   
  local pseudopotential read in
  partial core-charges read in
  partial kinetic energy density read in
  atomic valenz-charges read in
  non local Contribution for L=           0  read in
    real space projection operators read in
  non local Contribution for L=           0  read in
    real space projection operators read in
  non local Contribution for L=           1  read in
    real space projection operators read in
  non local Contribution for L=           1  read in
    real space projection operators read in
    PAW grid and wavefunctions read in
 
   number of l-projection  operators is LMAX  =           4
   number of lm-projection operators is LMMAX =           8
 
 POTCAR:    PAW_PBE O 08Apr2002                   
  local pseudopotential read in
  partial core-charges read in
  partial kinetic energy density read in
  kinetic energy density of atom read in
  atomic valenz-charges read in
  non local Contribution for L=           0  read in
    real space projection operators read in
  non local Contribution for L=           0  read in
    real space projection operators read in
  non local Contribution for L=           1  read in
    real space projection operators read in
  non local Contribution for L=           1  read in
    real space projection operators read in
    PAW grid and wavefunctions read in
 
   number of l-projection  operators is LMAX  =           4
   number of lm-projection operators is LMMAX =           8
 
 -----------------------------------------------------------------------------
|                                                                             |
|               ----> ADVICE to this user running VASP <----                  |
|                                                                             |
|     You have a (more or less) 'small supercell' and for smaller cells       |
|     it is recommended to use the reciprocal-space projection scheme!        |
|     The real-space optimization is not efficient for small cells and it     |
|     is also less accurate ...                                               |
|     Therefore, set LREAL=.FALSE. in the INCAR file.                         |
|                                                                             |
 -----------------------------------------------------------------------------

 Optimization of the real space projectors (new method)

 maximal supplied QI-value         = 25.13
 optimisation between [QCUT,QGAM] = [ 10.05, 20.36] = [ 28.30,116.06] Ry 
 Optimized for a Real-space Cutoff    1.51 Angstroem

   l    n(q)    QCUT    max X(q) W(low)/X(q) W(high)/X(q)  e(spline) 
   0      9    10.053   115.676    0.19E-03    0.21E-03    0.38E-06
   0      9    10.053    87.132    0.19E-03    0.21E-03    0.38E-06
   1      9    10.053     4.429    0.87E-04    0.11E-03    0.39E-06
   1      9    10.053     2.733    0.59E-04    0.62E-04    0.43E-06
 Optimization of the real space projectors (new method)

 maximal supplied QI-value         = 24.76
 optimisation between [QCUT,QGAM] = [ 10.15, 20.30] = [ 28.85,115.39] Ry 
 Optimized for a Real-space Cutoff    1.51 Angstroem

   l    n(q)    QCUT    max X(q) W(low)/X(q) W(high)/X(q)  e(spline) 
   0      9    10.150    20.381    0.17E-03    0.18E-03    0.41E-06
   0      9    10.150    15.268    0.18E-03    0.20E-03    0.43E-06
   1      9    10.150     5.964    0.16E-03    0.20E-03    0.36E-06
   1      9    10.150     5.382    0.13E-03    0.16E-03    0.33E-06
  PAW_PBE C 08Apr2002                   :
 energy of atom  1       EATOM= -147.1560
 kinetic energy error for atom=    0.0288 (will be added to EATOM!!)
  PAW_PBE O 08Apr2002                   :
 energy of atom  2       EATOM= -432.3788
 kinetic energy error for atom=    0.1156 (will be added to EATOM!!)
 
 
 POSCAR:  C  O
  positions in direct lattice
  No initial velocities read in
 exchange correlation table for  LEXCH =        8
   RHO(1)=    0.500       N(1)  =     2000
   RHO(2)=  100.500       N(2)  =     4000
 


--------------------------------------------------------------------------------------------------------


 ion  position               nearest neighbor table
   1  0.285  0.924  0.194-   3 1.17   2 1.18
   2  0.289  0.868  0.113-   1 1.18
   3  0.278  0.978  0.271-   1 1.17
 
  LATTYP: Found a trigonal (rhomboedric) cell.
 ALAT       =    15.2580629150
 COS(alpha) =    -0.4652854440
  
  Lattice vectors:
  
 A1 = (  15.2580133847,   0.0063748139,   0.0245793813)
 A2 = (  -7.1051429847,  13.5027912564,   0.0244990776)
 A3 = (  -7.1050972695, -11.7730711972,   6.6121759879)


Analysis of symmetry for initial positions (statically):
=====================================================================
 Subroutine PRICEL returns:
 Original cell was already a primitive cell.
 

 Routine SETGRP: Setting up the symmetry group for a 
 trigonal (rhombohedral) supercell.


 Subroutine GETGRP returns: Found  1 space group operations
 (whereof  1 operations were pure point group operations)
 out of a pool of 12 trial point group operations.


The static configuration has the point symmetry C_1 .


Analysis of symmetry for dynamics (positions and initial velocities):
=====================================================================
 Subroutine PRICEL returns:
 Original cell was already a primitive cell.
 

 Routine SETGRP: Setting up the symmetry group for a 
 trigonal (rhombohedral) supercell.


 Subroutine GETGRP returns: Found  1 space group operations
 (whereof  1 operations were pure point group operations)
 out of a pool of 12 trial point group operations.


The dynamic configuration has the point symmetry C_1 .


 Subroutine INISYM returns: Found  1 space group operations
 (whereof  1 operations are pure point group operations),
 and found     1 'primitive' translations


----------------------------------------------------------------------------------------

                                     Primitive cell                                     

  volume of cell :    1371.3921

  direct lattice vectors                    reciprocal lattice vectors
    15.258013385  0.006374814  0.024579381     0.065314117  0.034130566  0.130953070
    -7.105142985 13.502791256  0.024499078    -0.000241744  0.073693958  0.130953351
    -7.105097270-11.773071197  6.612175988    -0.000241896 -0.000399920  0.150264152

  length of vectors
    15.258034514 15.258080769 15.258062915     0.150264886  0.150265226  0.150264879

  position of ions in fractional coordinates (direct lattice)
     0.285016706  0.923921231  0.193952621
     0.289232368  0.868085903  0.113061372
     0.277903362  0.978317722  0.270697466

  ion indices of the primitive-cell ions
   primitive index   ion index
                 1           1
                 2           2
                 3           3

----------------------------------------------------------------------------------------

 
 
 KPOINTS: KPOINTS                                 

Automatic generation of k-mesh.
 Grid dimensions read from file:
 generate k-points for:    1    1    1

 Generating k-lattice:

  Cartesian coordinates                     Fractional coordinates (reciprocal lattice)
     0.065314117  0.034130566  0.130953070     1.000000000  0.000000000  0.000000000
    -0.000241744  0.073693958  0.130953351     0.000000000  1.000000000  0.000000000
    -0.000241896 -0.000399920  0.150264152     0.000000000 -0.000000000  1.000000000

  Length of vectors
     0.150264886  0.150265226  0.150264879

  Shift w.r.t. Gamma in fractional coordinates (k-lattice)
     0.000000000  0.000000000  0.000000000

 
 Subroutine IBZKPT returns following result:
 ===========================================
 
 Found      1 irreducible k-points:
 
 Following reciprocal coordinates:
            Coordinates               Weight
  0.000000  0.000000  0.000000      1.000000
 
 Following cartesian coordinates:
            Coordinates               Weight
  0.000000  0.000000  0.000000      1.000000
 
 
 Subroutine IBZKPT_HF returns following result:
 ==============================================
 
 Found      1 k-points in 1st BZ
 the following      1 k-points will be used (e.g. in the exchange kernel)
 Following reciprocal coordinates:   # in IRBZ
  0.000000  0.000000  0.000000    1.00000000   1 t-inv F


--------------------------------------------------------------------------------------------------------




 Dimension of arrays:
   k-points           NKPTS =      1   k-points in BZ     NKDIM =      1   number of bands    NBANDS=     40
   number of dos      NEDOS =    301   number of ions     NIONS =      3
   non local maximal  LDIM  =      4   non local SUM 2l+1 LMDIM =      8
   total plane-waves  NPLWV = ******
   max r-space proj   IRMAX =  10535   max aug-charges    IRDMAX=   9659
   dimension x,y,z NGX =   100 NGY =  100 NGZ =  100
   dimension x,y,z NGXF=   200 NGYF=  200 NGZF=  200
   support grid    NGXF=   200 NGYF=  200 NGZF=  200
   ions per type =               1   2
   NGX,Y,Z   is equivalent  to a cutoff of  10.90, 10.90, 10.90 a.u.
   NGXF,Y,Z  is equivalent  to a cutoff of  21.79, 21.79, 21.79 a.u.

 SYSTEM =  CO2                                     
 POSCAR =   C  O                                   

 Startparameter for this run:
   NWRITE =      1    write-flag & timer
   PREC   = accura    normal or accurate (medium, high low for compatibility)
   ISTART =      0    job   : 0-new  1-cont  2-samecut
   ICHARG =      2    charge: 1-file 2-atom 10-const
   ISPIN  =      1    spin polarized calculation?
   LNONCOLLINEAR =      F non collinear calculations
   LSORBIT =      F    spin-orbit coupling
   INIWAV =      1    electr: 0-lowe 1-rand  2-diag
   LASPH  =      T    aspherical Exc in radial PAW
 Electronic Relaxation 1
   ENCUT  =  400.0 eV  29.40 Ry    5.42 a.u.  24.88 24.88 24.88*2*pi/ulx,y,z
   ENINI  =  400.0     initial cutoff
   ENAUG  =  644.9 eV  augmentation charge cutoff
   NELM   =    500;   NELMIN=  2; NELMDL= -5     # of ELM steps 
   EDIFF  = 0.1E-04   stopping-criterion for ELM
   LREAL  =      T    real-space projection
   NLSPLINE    = F    spline interpolate recip. space projectors
   LCOMPAT=      F    compatible to vasp.4.4
   GGA_COMPAT  = T    GGA compatible to vasp.4.4-vasp.4.6
   LMAXPAW     = -100 max onsite density
   LMAXMIX     =    2 max onsite mixed and CHGCAR
   VOSKOWN=      0    Vosko Wilk Nusair interpolation
   ROPT   =   -0.00025  -0.00025
 Ionic relaxation
   EDIFFG = 0.1E-03   stopping-criterion for IOM
   NSW    =      0    number of steps for IOM
   NBLOCK =      1;   KBLOCK =      1    inner block; outer block 
   IBRION =     -1    ionic relax: 0-MD 1-quasi-New 2-CG
   NFREE  =      0    steps in history (QN), initial steepest desc. (CG)
   ISIF   =      0    stress and relaxation
   IWAVPR =     10    prediction:  0-non 1-charg 2-wave 3-comb
   ISYM   =      3    0-nonsym 1-usesym 2-fastsym
   LCORR  =      T    Harris-Foulkes like correction to forces

   POTIM  = 0.5000    time-step for ionic-motion
   TEIN   =    0.0    initial temperature
   TEBEG  =    0.0;   TEEND  =   0.0 temperature during run
   SMASS  =  -3.00    Nose mass-parameter (am)
   estimated Nose-frequenzy (Omega)   =  0.10E-29 period in steps = 0.13E+47 mass=  -0.532E-26a.u.
   SCALEE = 1.0000    scale energy and forces
   NPACO  =    256;   APACO  = 10.0  distance and # of slots for P.C.
   PSTRESS=    0.0 pullay stress

  Mass of Ions in am
   POMASS =  12.01 16.00
  Ionic Valenz
   ZVAL   =   4.00  6.00
  Atomic Wigner-Seitz radii
   RWIGS  =  -1.00 -1.00
  virtual crystal weights 
   VCA    =   1.00  1.00
   NELECT =      16.0000    total number of electrons
   NUPDOWN=      -1.0000    fix difference up-down

 DOS related values:
   EMIN   =  10.00;   EMAX   =-10.00  energy-range for DOS
   EFERMI =   0.00
   ISMEAR =     0;   SIGMA  =   0.10  broadening in eV -4-tet -1-fermi 0-gaus

 Electronic relaxation 2 (details)
   IALGO  =     58    algorithm
   LDIAG  =      T    sub-space diagonalisation (order eigenvalues)
   LSUBROT=      F    optimize rotation matrix (better conditioning)
   TURBO    =      0    0=normal 1=particle mesh
   IRESTART =      0    0=no restart 2=restart with 2 vectors
   NREBOOT  =      0    no. of reboots
   NMIN     =      0    reboot dimension
   EREF     =   0.00    reference energy to select bands
   IMIX   =      4    mixing-type and parameters
     AMIX     =   0.40;   BMIX     =  1.00
     AMIX_MAG =   1.60;   BMIX_MAG =  1.00
     AMIN     =   0.10
     WC   =   100.;   INIMIX=   1;  MIXPRE=   1;  MAXMIX= -45

 Intra band minimization:
   WEIMIN = 0.0000     energy-eigenvalue tresh-hold
   EBREAK =  0.63E-07  absolut break condition
   DEPER  =   0.30     relativ break condition  

   TIME   =   0.05     timestep for ELM

  volume/ion in A,a.u.               =     457.13      3084.87
  Fermi-wavevector in a.u.,A,eV,Ry     =   0.371302  0.701660  1.875772  0.137865
  Thomas-Fermi vector in A             =   1.299325
 
 Write flags
   LWAVE        =      T    write WAVECAR
   LDOWNSAMPLE  =      F    k-point downsampling of WAVECAR
   LCHARG       =      T    write CHGCAR
   LVTOT        =      F    write LOCPOT, total local potential
   LVHAR        =      F    write LOCPOT, Hartree potential only
   LELF         =      F    write electronic localiz. function (ELF)
   LORBIT       =      0    0 simple, 1 ext, 2 COOP (PROOUT), +10 PAW based schemes


 Dipole corrections
   LMONO  =      F    monopole corrections only (constant potential shift)
   LDIPOL =      F    correct potential (dipole corrections)
   IDIPOL =      0    1-x, 2-y, 3-z, 4-all directions 
   EPSILON=  1.0000000 bulk dielectric constant

 Exchange correlation treatment:
   GGA     =    PE    GGA type
   LEXCH   =     8    internal setting for exchange type
   LIBXC   =     F    Libxc                    
   VOSKOWN =     0    Vosko Wilk Nusair interpolation
   EXXOEP  =     0    0=HF, 1=EXX-LHF (local Hartree Fock) 2=EXX OEP
   LHFCALC =     T    Hartree Fock is set to
   LSYMGRAD=     F    symmetrize gradient (conserves proper symmetry)
   PRECFOCK=normal    Normal, Fast or Accurate (Low or Medium for compatibility)
   LRHFCALC=     F    long range Hartree Fock
   LRSCOR  =     F    long range correlation only (use DFT for short range part)
   LTHOMAS =     F    Thomas Fermi screening in HF
   LMODELHF=     F    short range full HF, long range fraction AEXX
   FOCKCORR=     1    mode to apply convergence corrections
   LFOCKACE=     T    use Adeptively-Compressed-Exchange operator
   ENCUT4O =  -1.0   cutoff for four orbital integrals eV
   LMAXFOCK=     4    L truncation for augmentation on plane wave grid
   LMAXFOCKAE=  -1    L truncation for all-electron charge restoration on plane wave grid
   NMAXFOCKAE=   1    number of basis functions for all-electron charge restoration
   LFOCKAEDFT=     F  apply the AE augmentation even for DFT
   NKREDX  =     1    reduce k-point grid by
   NKREDY  =     1    reduce k-point grid by
   NKREDZ  =     1    reduce k-point grid by
   SHIFTRED=     F    shift reduced grid of Gamma
   HFKIDENT=     F    idential grid for each k-point
   ODDONLY =     F    use only odd q-grid points
   EVENONLY=     F    use only even q-grid points
   HFALPHA =   -1.0000 decay constant for conv. correction
   MCALPHA =    0.0000 extent of test-charge in conv. correction in multipole expansion
   AEXX    =    0.2500 exact exchange contribution
   HFSCREEN=    0.2000 screening length (either q_TF or 0.3 A-1)
   HFSCREENC=   0.2000 screening length for correlation (either q_TF or 0.3 A-1)
   HFRCUT  =    0.0000 spherical cutoff for potential kernel
   ALDAX   =    0.7500 LDA exchange part
   AGGAX   =    0.7500 GGA exchange part
   ALDAC   =    1.0000 LDA correlation
   AGGAC   =    1.0000 GGA correlation
   ENCUTFOCK=  -1.0 apply spherical cutoff to Coloumb kernel
   NBANDSGWLOW=     1    first orbital included in HF term
   NBLOCK_FOCK=    64    blocking factor in FOCK_ACC

 Linear response parameters
   LEPSILON=     F    determine dielectric tensor
   LRPA    =     F    only Hartree local field effects (RPA)
   LNABLA  =     F    use nabla operator in PAW spheres
   LVEL    =     F    velocity operator in full k-point grid
   CSHIFT  =0.1000    complex shift for real part using Kramers Kronig
   OMEGAMAX=  -1.0    maximum frequency
   DEG_THRESHOLD= 0.2000000E-02 threshold for treating states as degnerate
   RTIME   =   -0.100 relaxation time in fs
  (WPLASMAI=    0.000 imaginary part of plasma frequency in eV, 0.658/RTIME)
   DFIELD  = 0.0000000 0.0000000 0.0000000 field for delta impulse in time
 
  Optional k-point grid parameters
   LKPOINTS_OPT  =     F    use optional k-point grid
   KPOINTS_OPT_MODE=     1    mode for optional k-point grid
 
 Orbital magnetization related:
   ORBITALMAG=     F  switch on orbital magnetization
   LCHIMAG   =     F  perturbation theory with respect to B field
   DQ        =  0.001000  dq finite difference perturbation B field
   LLRAUG    =     F  two centre corrections for induced B field



--------------------------------------------------------------------------------------------------------


 Static calculation
 charge density and potential will be updated during run
 non-spin polarized calculation
 Conjugate gradient for all bands (Freysoldt, et al. PRB 79, 241103 (2009))
 preconditioned conjugated gradient                                        
 perform sub-space diagonalisation
    before iterative eigenvector-optimisation
 modified Broyden-mixing scheme, WC =      100.0
 initial mixing is a Kerker type mixing with AMIX =  0.4000 and BMIX =      1.0000
 Hartree-type preconditioning will be used
 using additional bands           32
 real space projection scheme for non local part
 use partial core corrections
 no Harris-corrections to forces 
 use gradient corrections 
 use of overlap-Matrix (Vanderbilt PP)
 Gauss-broadening in eV      SIGMA  =   0.10


--------------------------------------------------------------------------------------------------------


  energy-cutoff  :      400.00
  volume of cell :     1371.39
      direct lattice vectors                 reciprocal lattice vectors
    15.258013385  0.006374814  0.024579381     0.065314117  0.034130566  0.130953070
    -7.105142985 13.502791256  0.024499078    -0.000241744  0.073693958  0.130953351
    -7.105097270-11.773071197  6.612175988    -0.000241896 -0.000399920  0.150264152

  length of vectors
    15.258034514 15.258080769 15.258062915     0.150264886  0.150265226  0.150264879


 
 k-points in units of 2pi/SCALE and weight: KPOINTS                                 
   0.00000000  0.00000000  0.00000000       1.000
 
 k-points in reciprocal lattice and weights: KPOINTS                                 
   0.00000000  0.00000000  0.00000000       1.000
 
 position of ions in fractional coordinates (direct lattice) 
   0.28501671  0.92392123  0.19395262
   0.28923237  0.86808590  0.11306137
   0.27790336  0.97831772  0.27069747
 
 position of ions in cartesian coordinates  (Angst):
  -3.59385598 10.19391444  1.31208961
  -2.55807517 10.39234695  0.77595815
  -4.63416591 10.02485103  1.82069786
 


--------------------------------------------------------------------------------------------------------


 use serial FFT for orbitals x direction half grid
 k-point   1 :   0.0000 0.0000 0.0000  plane waves:   12430

 maximum and minimum number of plane-waves per node :     12430    12430

 maximum number of plane-waves:     12430
 maximum index in each direction: 
   IXMAX=   24   IYMAX=   22   IZMAX=   21
   IXMIN=    0   IYMIN=  -24   IZMIN=  -24


 serial   3D FFT for wavefunctions
 parallel 3D FFT for charge:
    minimum data exchange during FFTs selected (reduces bandwidth)


 FFT grid for exact exchange (Hartree Fock) 
  NGX = 80; NGY = 80; NGZ = 80

 use serial FFT for orbitals x direction half grid
 
 Radii for the augmentation spheres in the non-local exchange
 for species   1 augmentation radius   0.874 (default was   0.699)
       energy cutoff for augmentation   1600.0
 for species   2 augmentation radius   0.902 (default was   0.722)
       energy cutoff for augmentation   1600.0
 Maximum index for augmentation-charges in exchange         1146
  SETUP_FOCK is finished

 total amount of memory used by VASP MPI-rank0    95376. kBytes
=======================================================================

   base      :      30000. kBytes
   nonlr-proj:       2413. kBytes
   fftplans  :      10913. kBytes
   grid      :      51440. kBytes
   one-center:          4. kBytes
   HF        :          9. kBytes
   wavefun   :        597. kBytes
 
     INWAV:  cpu time      0.0000: real time      0.0002
 Broyden mixing: mesh for mixing (old mesh)
   NGX = 49   NGY = 49   NGZ = 49
  (NGX  =200   NGY  =200   NGZ  =200)
  gives a total of 117649 points

 initial charge density was supplied:
 charge density of overlapping atoms calculated
 number of electron      16.0000000 magnetization 
 keeping initial charge density in first step


--------------------------------------------------------------------------------------------------------


 Maximum index for non-local projection operator        10208
 Maximum index for augmentation-charges          154 (set IRDMAX)


--------------------------------------------------------------------------------------------------------


 First call to EWALD:  gamma=   0.160
 Maximum number of real-space cells 4x 4x 4
 Maximum number of reciprocal cells 4x 4x 4

    FEWALD:  cpu time      0.0015: real time      0.0015


--------------------------------------- Iteration      1(   1)  ---------------------------------------


    POTLOK:  cpu time      0.1918: real time      0.1956
    SETDIJ:  cpu time      0.0453: real time      0.0454
    TRIAL :  cpu time      0.3030: real time      0.3307
    CORREC:  cpu time      0.0000: real time      0.0000
    --------------------------------------------
      LOOP:  cpu time      0.5422: real time      0.5753

 eigenvalue-minimisations  :   120
 total energy-change (2. order) :-0.4719841E+02  (-0.5165550E+03)
 number of electron      16.0000000 magnetization 
 augmentation part       16.0000000 magnetization 

 Free energy of the ion-electron system (eV)
  ---------------------------------------------------
  alpha Z        PSCENC =         0.77999380
  Ewald energy   TEWEN  =       415.52520223
  -Hartree energ DENC   =     -1225.50010193
  -exchange      EXHF   =         0.00000000
  -V(xc)+E(xc)   XCENC  =        67.51643814
  PAW double counting   =       801.62100016     -889.97731249
  entropy T*S    EENTRO =        -0.00000000
  eigenvalues    EBANDS =      -221.24548288
  atomic energy  EATOM  =      1004.08185434
  ---------------------------------------------------
  free energy    TOTEN  =       -47.19840863 eV

  energy without entropy =      -47.19840863  energy(sigma->0) =      -47.19840863
  exchange ACFDT corr.  =         0.00000000  see jH, gK, PRB 81, 115126


--------------------------------------------------------------------------------------------------------




--------------------------------------- Iteration      1(   2)  ---------------------------------------


    TRIAL :  cpu time      0.2166: real time      0.2174
    CORREC:  cpu time      0.0001: real time      0.0001
    --------------------------------------------
      LOOP:  cpu time      0.2227: real time      0.2241

 eigenvalue-minimisations  :    80
 total energy-change (2. order) :-0.7266110E+02  (-0.7266110E+02)
 number of electron      16.0000000 magnetization 
 augmentation part       16.0000000 magnetization 

 Free energy of the ion-electron system (eV)
  ---------------------------------------------------
  alpha Z        PSCENC =         0.77999380
  Ewald energy   TEWEN  =       415.52520223
  -Hartree energ DENC   =     -1225.50010193
  -exchange      EXHF   =         0.00000000
  -V(xc)+E(xc)   XCENC  =        67.51643814
  PAW double counting   =       801.62100016     -889.97731249
  entropy T*S    EENTRO =        -0.00000000
  eigenvalues    EBANDS =      -293.90657975
  atomic energy  EATOM  =      1004.08185434
  ---------------------------------------------------
  free energy    TOTEN  =      -119.85950550 eV

  energy without entropy =     -119.85950550  energy(sigma->0) =     -119.85950550
  exchange ACFDT corr.  =         0.00000000  see jH, gK, PRB 81, 115126


--------------------------------------------------------------------------------------------------------




--------------------------------------- Iteration      1(   3)  ---------------------------------------


    TRIAL :  cpu time      0.2962: real time      0.2980
    CORREC:  cpu time      0.0001: real time      0.0001
    --------------------------------------------
      LOOP:  cpu time      0.2970: real time      0.3042

 eigenvalue-minimisations  :   120
 total energy-change (2. order) :-0.2141645E+01  (-0.2141645E+01)
 number of electron      16.0000000 magnetization 
 augmentation part       16.0000000 magnetization 

 Free energy of the ion-electron system (eV)
  ---------------------------------------------------
  alpha Z        PSCENC =         0.77999380
  Ewald energy   TEWEN  =       415.52520223
  -Hartree energ DENC   =     -1225.50010193
  -exchange      EXHF   =         0.00000000
  -V(xc)+E(xc)   XCENC  =        67.51643814
  PAW double counting   =       801.62100016     -889.97731249
  entropy T*S    EENTRO =        -0.00000000
  eigenvalues    EBANDS =      -296.04822480
  atomic energy  EATOM  =      1004.08185434
  ---------------------------------------------------
  free energy    TOTEN  =      -122.00115055 eV

  energy without entropy =     -122.00115055  energy(sigma->0) =     -122.00115055
  exchange ACFDT corr.  =         0.00000000  see jH, gK, PRB 81, 115126


--------------------------------------------------------------------------------------------------------




--------------------------------------- Iteration      1(   4)  ---------------------------------------


    TRIAL :  cpu time      0.2160: real time      0.2173
    CORREC:  cpu time      0.0001: real time      0.0001
    --------------------------------------------
      LOOP:  cpu time      0.2167: real time      0.2227

 eigenvalue-minimisations  :    80
 total energy-change (2. order) :-0.1418153E-02  (-0.1418153E-02)
 number of electron      16.0000000 magnetization 
 augmentation part       16.0000000 magnetization 

 Free energy of the ion-electron system (eV)
  ---------------------------------------------------
  alpha Z        PSCENC =         0.77999380
  Ewald energy   TEWEN  =       415.52520223
  -Hartree energ DENC   =     -1225.50010193
  -exchange      EXHF   =         0.00000000
  -V(xc)+E(xc)   XCENC  =        67.51643814
  PAW double counting   =       801.62100016     -889.97731249
  entropy T*S    EENTRO =        -0.00000000
  eigenvalues    EBANDS =      -296.04964295
  atomic energy  EATOM  =      1004.08185434
  ---------------------------------------------------
  free energy    TOTEN  =      -122.00256870 eV

  energy without entropy =     -122.00256870  energy(sigma->0) =     -122.00256870
  exchange ACFDT corr.  =         0.00000000  see jH, gK, PRB 81, 115126


--------------------------------------------------------------------------------------------------------




--------------------------------------- Iteration      1(   5)  ---------------------------------------


    POTLOK:  cpu time      0.2829: real time      0.2839
    SETDIJ:  cpu time      0.1305: real time      0.1311
    TRIAL :  cpu time      2.3444: real time      2.3604
    CORREC:  cpu time      0.0001: real time      0.0001
    CHARGE:  cpu time      0.0609: real time      0.0611
    --------------------------------------------
      LOOP:  cpu time      2.8195: real time      2.8418

 eigenvalue-minimisations  :   120
 total energy-change (2. order) : 0.9132033E+02  (-0.2172844E+00)
 number of electron      16.0000001 magnetization 
 augmentation part        1.5271817 magnetization 

 Free energy of the ion-electron system (eV)
  ---------------------------------------------------
  alpha Z        PSCENC =         0.77999380
  Ewald energy   TEWEN  =       415.52520223
  -Hartree energ DENC   =     -1225.50010193
  -exchange      EXHF   =        49.09288913
  -V(xc)+E(xc)   XCENC  =        51.81040309
  PAW double counting   =       816.18928923     -818.61536217
  entropy T*S    EENTRO =        -0.00000000
  eigenvalues    EBANDS =      -324.04640942
  atomic energy  EATOM  =      1004.08185434
  ---------------------------------------------------
  free energy    TOTEN  =       -30.68224171 eV

  energy without entropy =      -30.68224171  energy(sigma->0) =      -30.68224171
  exchange ACFDT corr.  =        -0.00000000  see jH, gK, PRB 81, 115126


--------------------------------------------------------------------------------------------------------




--------------------------------------- Iteration      1(   6)  ---------------------------------------


    POTLOK:  cpu time      0.3276: real time      0.3287
    SETDIJ:  cpu time      0.1292: real time      0.1295
    TRIAL :  cpu time      2.1828: real time      2.2407
    CORREC:  cpu time     10.1796: real time     10.5311
    CHARGE:  cpu time      0.0583: real time      0.0595
    --------------------------------------------
      LOOP:  cpu time     12.8801: real time     13.2959

 eigenvalue-minimisations  :     0
 total energy-change (2. order) : 0.6039519E+01  (-0.7237104E-01)
 number of electron      16.0000001 magnetization 
 augmentation part        1.3601241 magnetization 

 Free energy of the ion-electron system (eV)
  ---------------------------------------------------
  alpha Z        PSCENC =         0.77999380
  Ewald energy   TEWEN  =       415.52520223
  -Hartree energ DENC   =     -1313.56307787
  -exchange      EXHF   =        49.31525427
  -V(xc)+E(xc)   XCENC  =        55.83689390
  PAW double counting   =      1691.81729057    -1694.92149634
  entropy T*S    EENTRO =        -0.00000000
  eigenvalues    EBANDS =      -233.51463810
  atomic energy  EATOM  =      1004.08185434
  ---------------------------------------------------
  free energy    TOTEN  =       -24.64272320 eV

  energy without entropy =      -24.64272320  energy(sigma->0) =      -24.64272320
  exchange ACFDT corr.  =        -0.00000000  see jH, gK, PRB 81, 115126


--------------------------------------------------------------------------------------------------------




--------------------------------------- Iteration      1(   7)  ---------------------------------------


    POTLOK:  cpu time      0.3335: real time      0.3346
    SETDIJ:  cpu time      0.1304: real time      0.1308
    TRIAL :  cpu time      2.0507: real time      2.0574
    CORREC:  cpu time      2.4945: real time      2.5040
    CHARGE:  cpu time      0.0583: real time      0.0585
    --------------------------------------------
      LOOP:  cpu time      5.0695: real time      5.0914

 eigenvalue-minimisations  :     0
 total energy-change (2. order) :-0.2863091E+01  (-0.5165997E+00)
 number of electron      16.0000000 magnetization 
 augmentation part        1.3243969 magnetization 

 Free energy of the ion-electron system (eV)
  ---------------------------------------------------
  alpha Z        PSCENC =         0.77999380
  Ewald energy   TEWEN  =       415.52520223
  -Hartree energ DENC   =     -1258.09477585
  -exchange      EXHF   =        46.67609717
  -V(xc)+E(xc)   XCENC  =        53.39453503
  PAW double counting   =      1612.58181452    -1615.26984817
  entropy T*S    EENTRO =        -0.00000000
  eigenvalues    EBANDS =      -287.18068769
  atomic energy  EATOM  =      1004.08185434
  ---------------------------------------------------
  free energy    TOTEN  =       -27.50581462 eV

  energy without entropy =      -27.50581462  energy(sigma->0) =      -27.50581462
  exchange ACFDT corr.  =        -0.00000000  see jH, gK, PRB 81, 115126


--------------------------------------------------------------------------------------------------------




--------------------------------------- Iteration      1(   8)  ---------------------------------------


    POTLOK:  cpu time      0.3322: real time      0.3333
    SETDIJ:  cpu time      0.1301: real time      0.1307
    TRIAL :  cpu time      2.0529: real time      2.0649
    CORREC:  cpu time      2.5490: real time      2.5616
    CHARGE:  cpu time      0.0589: real time      0.0591
    --------------------------------------------
      LOOP:  cpu time      5.1244: real time      5.1559

 eigenvalue-minimisations  :     0
 total energy-change (2. order) :-0.5395775E+00  (-0.2317113E+00)
 number of electron      16.0000000 magnetization 
 augmentation part        1.3225532 magnetization 

 Free energy of the ion-electron system (eV)
  ---------------------------------------------------
  alpha Z        PSCENC =         0.77999380
  Ewald energy   TEWEN  =       415.52520223
  -Hartree energ DENC   =     -1264.23436606
  -exchange      EXHF   =        46.79316547
  -V(xc)+E(xc)   XCENC  =        53.51200205
  PAW double counting   =      1621.65538863    -1624.14791974
  entropy T*S    EENTRO =        -0.00000000
  eigenvalues    EBANDS =      -282.01071286
  atomic energy  EATOM  =      1004.08185434
  ---------------------------------------------------
  free energy    TOTEN  =       -28.04539215 eV

  energy without entropy =      -28.04539215  energy(sigma->0) =      -28.04539215
  exchange ACFDT corr.  =         0.00000000  see jH, gK, PRB 81, 115126


--------------------------------------------------------------------------------------------------------




--------------------------------------- Iteration      1(   9)  ---------------------------------------


    POTLOK:  cpu time      0.3337: real time      0.3354
    SETDIJ:  cpu time      0.1306: real time      0.1310
    TRIAL :  cpu time      2.0803: real time      2.0924
    CORREC:  cpu time      2.4735: real time      2.4943
    CHARGE:  cpu time      0.0581: real time      0.0585
    --------------------------------------------
      LOOP:  cpu time      5.0781: real time      5.1180

 eigenvalue-minimisations  :     0
 total energy-change (2. order) :-0.2335539E+00  (-0.1083560E+00)
 number of electron      16.0000000 magnetization 
 augmentation part        1.3162361 magnetization 

 Free energy of the ion-electron system (eV)
  ---------------------------------------------------
  alpha Z        PSCENC =         0.77999380
  Ewald energy   TEWEN  =       415.52520223
  -Hartree energ DENC   =     -1268.89431754
  -exchange      EXHF   =        46.88635743
  -V(xc)+E(xc)   XCENC  =        53.63128108
  PAW double counting   =      1634.95846462    -1637.41803671
  entropy T*S    EENTRO =        -0.00000000
  eigenvalues    EBANDS =      -277.82974529
  atomic energy  EATOM  =      1004.08185434
  ---------------------------------------------------
  free energy    TOTEN  =       -28.27894604 eV

  energy without entropy =      -28.27894604  energy(sigma->0) =      -28.27894604
  exchange ACFDT corr.  =        -0.00000000  see jH, gK, PRB 81, 115126


--------------------------------------------------------------------------------------------------------




--------------------------------------- Iteration      1(  10)  ---------------------------------------


    POTLOK:  cpu time      0.3234: real time      0.3246
    SETDIJ:  cpu time      0.1302: real time      0.1305
    TRIAL :  cpu time      2.0721: real time      2.0786
    CORREC:  cpu time      2.5678: real time      2.6033
    CHARGE:  cpu time      0.0585: real time      0.0586
    --------------------------------------------
      LOOP:  cpu time      5.1538: real time      5.2015

 eigenvalue-minimisations  :     0
 total energy-change (2. order) :-0.1065022E+00  (-0.3451000E-01)
 number of electron      16.0000000 magnetization 
 augmentation part        1.3150048 magnetization 

 Free energy of the ion-electron system (eV)
  ---------------------------------------------------
  alpha Z        PSCENC =         0.77999380
  Ewald energy   TEWEN  =       415.52520223
  -Hartree energ DENC   =     -1265.67730384
  -exchange      EXHF   =        46.68583734
  -V(xc)+E(xc)   XCENC  =        53.48016119
  PAW double counting   =      1638.58510294    -1641.02589286
  entropy T*S    EENTRO =        -0.00000000
  eigenvalues    EBANDS =      -280.82040333
  atomic energy  EATOM  =      1004.08185434
  ---------------------------------------------------
  free energy    TOTEN  =       -28.38544819 eV

  energy without entropy =      -28.38544819  energy(sigma->0) =      -28.38544819
  exchange ACFDT corr.  =        -0.00000000  see jH, gK, PRB 81, 115126


--------------------------------------------------------------------------------------------------------




--------------------------------------- Iteration      1(  11)  ---------------------------------------


    POTLOK:  cpu time      0.3212: real time      0.3221
    SETDIJ:  cpu time      0.1304: real time      0.1307
    TRIAL :  cpu time      2.0656: real time      2.0718
    CORREC:  cpu time      2.5032: real time      2.5106
    CHARGE:  cpu time      0.0589: real time      0.0591
    --------------------------------------------
      LOOP:  cpu time      5.0811: real time      5.1001

 eigenvalue-minimisations  :     0
 total energy-change (2. order) :-0.3414258E-01  (-0.1016582E-01)
 number of electron      16.0000000 magnetization 
 augmentation part        1.3187700 magnetization 

 Free energy of the ion-electron system (eV)
  ---------------------------------------------------
  alpha Z        PSCENC =         0.77999380
  Ewald energy   TEWEN  =       415.52520223
  -Hartree energ DENC   =     -1264.31586095
  -exchange      EXHF   =        46.60164237
  -V(xc)+E(xc)   XCENC  =        53.42500448
  PAW double counting   =      1641.97668736    -1644.41118011
  entropy T*S    EENTRO =        -0.00000000
  eigenvalues    EBANDS =      -282.08293428
  atomic energy  EATOM  =      1004.08185434
  ---------------------------------------------------
  free energy    TOTEN  =       -28.41959077 eV

  energy without entropy =      -28.41959077  energy(sigma->0) =      -28.41959077
  exchange ACFDT corr.  =        -0.00000000  see jH, gK, PRB 81, 115126


--------------------------------------------------------------------------------------------------------




--------------------------------------- Iteration      1(  12)  ---------------------------------------


    POTLOK:  cpu time      0.3249: real time      0.3258
    SETDIJ:  cpu time      0.1306: real time      0.1309
    TRIAL :  cpu time      2.0596: real time      2.0694
    CORREC:  cpu time      2.5082: real time      2.5198
    CHARGE:  cpu time      0.0583: real time      0.0584
    --------------------------------------------
      LOOP:  cpu time      5.0833: real time      5.1102

 eigenvalue-minimisations  :     0
 total energy-change (2. order) :-0.1015579E-01  (-0.3410623E-02)
 number of electron      16.0000000 magnetization 
 augmentation part        1.3199773 magnetization 

 Free energy of the ion-electron system (eV)
  ---------------------------------------------------
  alpha Z        PSCENC =         0.77999380
  Ewald energy   TEWEN  =       415.52520223
  -Hartree energ DENC   =     -1264.74001513
  -exchange      EXHF   =        46.60912381
  -V(xc)+E(xc)   XCENC  =        53.44494374
  PAW double counting   =      1645.78096944    -1648.22969706
  entropy T*S    EENTRO =        -0.00000000
  eigenvalues    EBANDS =      -281.68212173
  atomic energy  EATOM  =      1004.08185434
  ---------------------------------------------------
  free energy    TOTEN  =       -28.42974655 eV

  energy without entropy =      -28.42974655  energy(sigma->0) =      -28.42974655
  exchange ACFDT corr.  =        -0.00000000  see jH, gK, PRB 81, 115126


--------------------------------------------------------------------------------------------------------




--------------------------------------- Iteration      1(  13)  ---------------------------------------


    POTLOK:  cpu time      0.3229: real time      0.3242
    SETDIJ:  cpu time      0.1302: real time      0.1305
    TRIAL :  cpu time      2.0931: real time      2.1034
    CORREC:  cpu time      2.5301: real time      2.5375
    CHARGE:  cpu time      0.0585: real time      0.0586
    --------------------------------------------
      LOOP:  cpu time      5.1362: real time      5.1606

 eigenvalue-minimisations  :     0
 total energy-change (2. order) :-0.3412749E-02  (-0.1108829E-02)
 number of electron      16.0000000 magnetization 
 augmentation part        1.3196849 magnetization 

 Free energy of the ion-electron system (eV)
  ---------------------------------------------------
  alpha Z        PSCENC =         0.77999380
  Ewald energy   TEWEN  =       415.52520223
  -Hartree energ DENC   =     -1264.31272216
  -exchange      EXHF   =        46.58936296
  -V(xc)+E(xc)   XCENC  =        53.43200663
  PAW double counting   =      1646.87911841    -1649.33739622
  entropy T*S    EENTRO =        -0.00000000
  eigenvalues    EBANDS =      -282.07057929
  atomic energy  EATOM  =      1004.08185434
  ---------------------------------------------------
  free energy    TOTEN  =       -28.43315930 eV

  energy without entropy =      -28.43315930  energy(sigma->0) =      -28.43315930
  exchange ACFDT corr.  =        -0.00000000  see jH, gK, PRB 81, 115126


--------------------------------------------------------------------------------------------------------




--------------------------------------- Iteration      1(  14)  ---------------------------------------


    POTLOK:  cpu time      0.3253: real time      0.3262
    SETDIJ:  cpu time      0.1302: real time      0.1306
    TRIAL :  cpu time      2.1198: real time      2.1332
    CORREC:  cpu time      2.5349: real time      2.5421
    CHARGE:  cpu time      0.0584: real time      0.0586
    --------------------------------------------
      LOOP:  cpu time      5.1700: real time      5.1965

 eigenvalue-minimisations  :     0
 total energy-change (2. order) :-0.1107788E-02  (-0.3441003E-03)
 number of electron      16.0000000 magnetization 
 augmentation part        1.3195991 magnetization 

 Free energy of the ion-electron system (eV)
  ---------------------------------------------------
  alpha Z        PSCENC =         0.77999380
  Ewald energy   TEWEN  =       415.52520223
  -Hartree energ DENC   =     -1264.04569245
  -exchange      EXHF   =        46.57858857
  -V(xc)+E(xc)   XCENC  =        53.42325128
  PAW double counting   =      1647.00426794    -1649.46395628
  entropy T*S    EENTRO =        -0.00000000
  eigenvalues    EBANDS =      -282.31777653
  atomic energy  EATOM  =      1004.08185434
  ---------------------------------------------------
  free energy    TOTEN  =       -28.43426709 eV

  energy without entropy =      -28.43426709  energy(sigma->0) =      -28.43426709
  exchange ACFDT corr.  =        -0.00000000  see jH, gK, PRB 81, 115126


--------------------------------------------------------------------------------------------------------




--------------------------------------- Iteration      1(  15)  ---------------------------------------


    POTLOK:  cpu time      0.3256: real time      0.3264
    SETDIJ:  cpu time      0.1301: real time      0.1307
    TRIAL :  cpu time      2.0760: real time      2.0852
    CORREC:  cpu time      2.5345: real time      2.5416
    CHARGE:  cpu time      0.0587: real time      0.0588
    --------------------------------------------
      LOOP:  cpu time      5.1261: real time      5.1490

 eigenvalue-minimisations  :     0
 total energy-change (2. order) :-0.3417756E-03  (-0.1005735E-03)
 number of electron      16.0000000 magnetization 
 augmentation part        1.3191679 magnetization 

 Free energy of the ion-electron system (eV)
  ---------------------------------------------------
  alpha Z        PSCENC =         0.77999380
  Ewald energy   TEWEN  =       415.52520223
  -Hartree energ DENC   =     -1264.14342032
  -exchange      EXHF   =        46.58391575
  -V(xc)+E(xc)   XCENC  =        53.42780117
  PAW double counting   =      1646.90307968    -1649.36235246
  entropy T*S    EENTRO =        -0.00000000
  eigenvalues    EBANDS =      -282.23068306
  atomic energy  EATOM  =      1004.08185434
  ---------------------------------------------------
  free energy    TOTEN  =       -28.43460887 eV

  energy without entropy =      -28.43460887  energy(sigma->0) =      -28.43460887
  exchange ACFDT corr.  =        -0.00000000  see jH, gK, PRB 81, 115126


--------------------------------------------------------------------------------------------------------




--------------------------------------- Iteration      1(  16)  ---------------------------------------


    POTLOK:  cpu time      0.3249: real time      0.3260
    SETDIJ:  cpu time      0.1305: real time      0.1309
    TRIAL :  cpu time      2.0982: real time      2.1183
    CORREC:  cpu time      2.7493: real time      2.8647
    CHARGE:  cpu time      0.0571: real time      0.0572
    --------------------------------------------
      LOOP:  cpu time      5.3609: real time      5.5028

 eigenvalue-minimisations  :     0
 total energy-change (2. order) :-0.1000128E-03  (-0.2771623E-04)
 number of electron      16.0000000 magnetization 
 augmentation part        1.3190726 magnetization 

 Free energy of the ion-electron system (eV)
  ---------------------------------------------------
  alpha Z        PSCENC =         0.77999380
  Ewald energy   TEWEN  =       415.52520223
  -Hartree energ DENC   =     -1264.04258675
  -exchange      EXHF   =        46.58075255
  -V(xc)+E(xc)   XCENC  =        53.42401048
  PAW double counting   =      1646.29407944    -1648.75189794
  entropy T*S    EENTRO =        -0.00000000
  eigenvalues    EBANDS =      -282.32611703
  atomic energy  EATOM  =      1004.08185434
  ---------------------------------------------------
  free energy    TOTEN  =       -28.43470888 eV

  energy without entropy =      -28.43470888  energy(sigma->0) =      -28.43470888
  exchange ACFDT corr.  =        -0.00000000  see jH, gK, PRB 81, 115126


--------------------------------------------------------------------------------------------------------




--------------------------------------- Iteration      1(  17)  ---------------------------------------


    POTLOK:  cpu time      0.3209: real time      0.3217
    SETDIJ:  cpu time      0.1304: real time      0.1307
    TRIAL :  cpu time      2.0290: real time      2.0350
    CORREC:  cpu time      2.4565: real time      2.4693
    CHARGE:  cpu time      0.0571: real time      0.0572
    --------------------------------------------
      LOOP:  cpu time      4.9952: real time      5.0199

 eigenvalue-minimisations  :     0
 total energy-change (2. order) :-0.2722627E-04  (-0.7815326E-05)
 number of electron      16.0000000 magnetization 
 augmentation part        1.3190408 magnetization 

 Free energy of the ion-electron system (eV)
  ---------------------------------------------------
  alpha Z        PSCENC =         0.77999380
  Ewald energy   TEWEN  =       415.52520223
  -Hartree energ DENC   =     -1264.06399828
  -exchange      EXHF   =        46.58215888
  -V(xc)+E(xc)   XCENC  =        53.42487557
  PAW double counting   =      1645.87551371    -1648.33269132
  entropy T*S    EENTRO =        -0.00000000
  eigenvalues    EBANDS =      -282.30764505
  atomic energy  EATOM  =      1004.08185434
  ---------------------------------------------------
  free energy    TOTEN  =       -28.43473611 eV

  energy without entropy =      -28.43473611  energy(sigma->0) =      -28.43473611
  exchange ACFDT corr.  =        -0.00000000  see jH, gK, PRB 81, 115126


--------------------------------------------------------------------------------------------------------




--------------------------------------- Iteration      1(  18)  ---------------------------------------


    POTLOK:  cpu time      0.3242: real time      0.3251
    SETDIJ:  cpu time      0.1303: real time      0.1306
    TRIAL :  cpu time      2.0182: real time      2.0242
    CORREC:  cpu time      2.4324: real time      2.4394
    EDDIAG:  cpu time      1.9505: real time      1.9562
    CHARGE:  cpu time      0.0568: real time      0.0570
    --------------------------------------------
      LOOP:  cpu time      6.9133: real time      6.9383

 eigenvalue-minimisations  :     0
 total energy-change (2. order) :-0.7701862E-05  (-0.2217982E-05)
 number of electron      16.0000000 magnetization 
 augmentation part        1.3190240 magnetization 

 Free energy of the ion-electron system (eV)
  ---------------------------------------------------
  alpha Z        PSCENC =         0.77999380
  Ewald energy   TEWEN  =       415.52520223
  -Hartree energ DENC   =     -1264.07024689
  -exchange      EXHF   =        46.58233352
  -V(xc)+E(xc)   XCENC  =        53.42509167
  PAW double counting   =      1645.55464708    -1648.01160683
  entropy T*S    EENTRO =        -0.00000000
  eigenvalues    EBANDS =      -282.30228293
  atomic energy  EATOM  =      1004.08185434
  ---------------------------------------------------
  free energy    TOTEN  =       -28.43474381 eV

  energy without entropy =      -28.43474381  energy(sigma->0) =      -28.43474381
  exchange ACFDT corr.  =        -0.00000000  see jH, gK, PRB 81, 115126


--------------------------------------------------------------------------------------------------------


  average scaling for gradient   1.1383


 average (electrostatic) potential at core
  the test charge radii are     0.6991  0.7215
  (the norm of the test charge is              1.0000)
       1 -60.1939       2 -76.4510       3 -76.5812
 
 
 
 E-fermi :  -9.6847     XC(G=0):  -0.4868     alpha+bet : -0.1823

 Fermi energy:        -9.6846500332

 k-point     1 :       0.0000    0.0000    0.0000
  band No.  band energies     occupation 
      1     -32.0476      2.00000
      2     -30.8649      2.00000
      3     -15.5300      2.00000
      4     -14.1780      2.00000
      5     -14.0725      2.00000
      6     -14.0676      2.00000
      7     -10.1984      2.00000
      8     -10.1937      2.00000
      9      -0.7729      0.00000
     10       0.2927      0.00000
     11       0.3401      0.00000
     12       0.3983      0.00000
     13       0.6095      0.00000
     14       0.6871      0.00000
     15       0.9090      0.00000
     16       0.9311      0.00000
     17       0.9811      0.00000
     18       2.1654      0.00000
     19       2.3917      0.00000
     20       2.4218      0.00000
     21       2.5034      0.00000
     22       2.5177      0.00000
     23       2.6138      0.00000
     24       2.6369      0.00000
     25       2.7625      0.00000
     26       3.2455      0.00000
     27       3.3195      0.00000
     28       3.3588      0.00000
     29       3.3732      0.00000
     30       3.4016      0.00000
     31       3.4187      0.00000
     32       3.4370      0.00000
     33       3.4386      0.00000
     34       3.4537      0.00000
     35       3.5073      0.00000
     36       3.8943      0.00000
     37       4.0352      0.00000
     38       4.0941      0.00000
     39       4.1530      0.00000
     40       4.1592      0.00000


--------------------------------------------------------------------------------------------------------


 soft charge-density along one line, spin component           1
         0         1         2         3         4         5         6         7         8         9
 total charge-density along one line
 
 pseudopotential strength for first ion, spin component:           1
 10.297  13.699  -0.000   0.000   0.000   0.001  -0.001   0.001
 13.699  18.225  -0.000   0.000   0.000   0.001  -0.001   0.001
 -0.000  -0.000  -4.466   0.004  -0.008   8.711  -0.007   0.014
  0.000   0.000   0.004  -4.476   0.023  -0.007   8.728  -0.039
  0.000   0.000  -0.008   0.023  -4.510   0.014  -0.039   8.786
  0.001   0.001   8.711  -0.007   0.014 -19.122   0.012  -0.024
 -0.001  -0.001  -0.007   8.728  -0.039   0.012 -19.152   0.068
  0.001   0.001   0.014  -0.039   8.786  -0.024   0.068 -19.252
 total augmentation occupancy for first ion, spin component:           1
 11.966  -6.114   0.027   0.008  -0.105   0.005   0.000  -0.017
 -6.114   3.318  -0.018  -0.005   0.065  -0.003  -0.000   0.011
  0.027  -0.018   1.242  -0.096   0.190   0.099  -0.016   0.033
  0.008  -0.005  -0.096   1.481  -0.541  -0.017   0.140  -0.093
 -0.105   0.065   0.190  -0.541   2.287   0.033  -0.093   0.278
  0.005  -0.003   0.099  -0.017   0.033   0.008  -0.003   0.006
  0.000  -0.000  -0.016   0.140  -0.093  -0.003   0.016  -0.017
 -0.017   0.011   0.033  -0.093   0.278   0.006  -0.017   0.040


------------------------ aborting loop because EDIFF is reached ----------------------------------------


    FORLOC:  cpu time      0.0068: real time      0.0068
    FORHF :  cpu time      0.4541: real time      0.4552
    FORNL :  cpu time      0.0915: real time      0.0918
    FORCOR:  cpu time      0.4170: real time      0.4183
    OFIELD:  cpu time      0.0008: real time      0.0008
 WARNING: Using user supplied parameters
     VDW_S8 = 0.109
     VDW_SR = 1.129
     because the xc functional is not supported. Required parameters not
     defined in the INCAR file will be replaced with PBE defaults ones.


 ---------------------------------------------------------------------------------------------

         DFTD3 V3.0 Rev 1        
 IVDW         = 11
 DF unknown   
 parameters
 VDW_S6       =    1.0000
 VDW_S8       =    0.1090
 VDW_SR       =    1.1290
 rs18     =    1.0000
 alpha6   =   14.0000
 alpha8   =   16.0000
 k1-k3    =   16.0000    1.3333   -4.0000
 VDW_RADIUS   =   50.2022 A
 VDW_CNRADIUS =   21.1671 A
 Edisp (eV)   -0.00186

 E6    (eV) :    -0.0015
 E8    (eV) :    -0.0003
 % E8        : 18.69
    FORVDW:  cpu time      0.0076: real time      0.0076

 VOLUME and BASIS-vectors are now :
 -----------------------------------------------------------------------------
  energy-cutoff  :      400.00
  volume of cell :     1371.39
      direct lattice vectors                 reciprocal lattice vectors
    15.258013385  0.006374814  0.024579381     0.065314117  0.034130566  0.130953070
    -7.105142985 13.502791256  0.024499078    -0.000241744  0.073693958  0.130953351
    -7.105097270-11.773071197  6.612175988    -0.000241896 -0.000399920  0.150264152

  length of vectors
    15.258034514 15.258080769 15.258062915     0.150264886  0.150265226  0.150264879


 FORCES acting on ions:
    Electron-Ion                     Ewald-Force                    Non-Local-Force
 -----------------------------------------------------------------------------------------------
   -.710E+01 0.524E+01 -.271E+01   0.814E+01 -.501E+01 0.214E+01   -.158E+00 0.153E+00 -.984E-01
   -.246E+03 -.471E+02 0.120E+03   0.302E+03 0.580E+02 -.150E+03   -.506E+02 -.986E+01 0.263E+02
   0.252E+03 0.435E+02 -.119E+03   -.311E+03 -.530E+02 0.147E+03   0.522E+02 0.832E+01 -.253E+02
 -----------------------------------------------------------------------------------------------
   -.167E+01 0.161E+01 -.103E+01   0.000E+00 0.000E+00 0.000E+00   0.146E+01 -.139E+01 0.885E+00
 
 
 POSITION                                       TOTAL-FORCE (eV/Angst)
 -----------------------------------------------------------------------------------
     -3.59386     10.19391      1.31209         0.862385      0.395669     -0.671041
     -2.55808     10.39235      0.77596        -1.673171     -0.424679      0.959481
     -4.63417     10.02485      1.82070         0.810786      0.029009     -0.288441
 -----------------------------------------------------------------------------------
    total drift:                                0.000006     -0.000041     -0.000113


--------------------------------------------------------------------------------------------------------



  FREE ENERGIE OF THE ION-ELECTRON SYSTEM (eV)
  ---------------------------------------------------
  free  energy   TOTEN  =       -28.43660361 eV

  energy  without entropy=      -28.43660361  energy(sigma->0) =      -28.43660361
 


--------------------------------------------------------------------------------------------------------


    POTLOK:  cpu time      0.4613: real time      0.4625


--------------------------------------------------------------------------------------------------------


 writing wavefunctions
     LOOP+:  cpu time     88.3903: real time     89.3732
    4ORBIT:  cpu time      0.0000: real time      0.0000

 total amount of memory used by VASP MPI-rank0   766685. kBytes
=======================================================================

   base      :      30000. kBytes
   nonlr-proj:       2413. kBytes
   fftplans  :      10913. kBytes
   grid      :      51440. kBytes
   one-center:          4. kBytes
   HF        :          9. kBytes
   wavefun   :        597. kBytes
   fock_wrk  :     671309. kBytes
 
  
  
 General timing and accounting informations for this job:
 ========================================================
  
                  Total CPU time used (sec):       99.658
                            User time (sec):       83.358
                          System time (sec):       16.300
                         Elapsed time (sec):      101.170
  
                   Maximum memory used (kb):     1131936.
                   Average memory used (kb):          N/A
  
                          Minor page faults:       834942
                          Major page faults:            2
                 Voluntary context switches:         3191
