 vasp.6.3.2 27Jun22 (build Jul 28 2023 19:28:36) gamma-only                     
  
 executed on             LinuxIFC date 2024.06.11  08:04:43
 running on   40 total cores
 distrk:  each k-point on   40 cores,    1 groups
 distr:  one band on NCORE=   1 cores,   40 groups


--------------------------------------------------------------------------------------------------------


 INCAR:
   SYSTEM = CO2
   ISTART = 0
   ICHARG = 2
   ISMEAR = 0
   SIGMA = 0.1
   ENCUT = 400.0
   ENAUG = 644.9
   PREC = Accurate
   EDIFF = 1E-5
   NELM = 500
   IBRION = -1
   NSW = 0
   ALGO = All
   TIME = 0.05
   LREAL = Auto
   LHFCALC = .TRUE.
   GGA = PE
   HFSCREEN = 0.2
   LASPH = .TRUE.
   PRECFOCK = Normal
   IVDW = 11
   VDW_S8 = 2.310
   VDW_A1 = 0.383
   VDW_A2 = 5.685
   LWAVE = .TRUE.
   LCHARG = .TRUE.
   NWRITE = 1

 POTCAR:    PAW_PBE C 08Apr2002                   
 POTCAR:    PAW_PBE O 08Apr2002                   
 -----------------------------------------------------------------------------
|                                                                             |
|           W    W    AA    RRRRR   N    N  II  N    N   GGGG   !!!           |
|           W    W   A  A   R    R  NN   N  II  NN   N  G    G  !!!           |
|           W    W  A    A  R    R  N N  N  II  N N  N  G       !!!           |
|           W WW W  AAAAAA  RRRRR   N  N N  II  N  N N  G  GGG   !            |
|           WW  WW  A    A  R   R   N   NN  II  N   NN  G    G                |
|           W    W  A    A  R    R  N    N  II  N    N   GGGG   !!!           |
|                                                                             |
|     For optimal performance we recommend to set                             |
|       NCORE = 2 up to number-of-cores-per-socket                            |
|     NCORE specifies how many cores store one orbital (NPAR=cpu/NCORE).      |
|     This setting can greatly improve the performance of VASP for DFT.       |
|     The default, NCORE=1 might be grossly inefficient on modern             |
|     multi-core architectures or massively parallel machines. Do your        |
|     own testing! More info at https://www.vasp.at/wiki/index.php/NCORE      |
|     Unfortunately you need to use the default for GW and RPA                |
|     calculations (for HF NCORE is supported but not extensively tested      |
|     yet).                                                                   |
|                                                                             |
 -----------------------------------------------------------------------------

 POTCAR:    PAW_PBE C 08Apr2002                   
  local pseudopotential read in
  partial core-charges read in
  partial kinetic energy density read in
  atomic valenz-charges read in
  non local Contribution for L=           0  read in
    real space projection operators read in
  non local Contribution for L=           0  read in
    real space projection operators read in
  non local Contribution for L=           1  read in
    real space projection operators read in
  non local Contribution for L=           1  read in
    real space projection operators read in
    PAW grid and wavefunctions read in
 
   number of l-projection  operators is LMAX  =           4
   number of lm-projection operators is LMMAX =           8
 
 POTCAR:    PAW_PBE O 08Apr2002                   
  local pseudopotential read in
  partial core-charges read in
  partial kinetic energy density read in
  kinetic energy density of atom read in
  atomic valenz-charges read in
  non local Contribution for L=           0  read in
    real space projection operators read in
  non local Contribution for L=           0  read in
    real space projection operators read in
  non local Contribution for L=           1  read in
    real space projection operators read in
  non local Contribution for L=           1  read in
    real space projection operators read in
    PAW grid and wavefunctions read in
 
   number of l-projection  operators is LMAX  =           4
   number of lm-projection operators is LMMAX =           8
 
 -----------------------------------------------------------------------------
|                                                                             |
|               ----> ADVICE to this user running VASP <----                  |
|                                                                             |
|     You have a (more or less) 'small supercell' and for smaller cells       |
|     it is recommended to use the reciprocal-space projection scheme!        |
|     The real-space optimization is not efficient for small cells and it     |
|     is also less accurate ...                                               |
|     Therefore, set LREAL=.FALSE. in the INCAR file.                         |
|                                                                             |
 -----------------------------------------------------------------------------

 Optimization of the real space projectors (new method)

 maximal supplied QI-value         = 25.13
 optimisation between [QCUT,QGAM] = [ 10.05, 20.36] = [ 28.30,116.06] Ry 
 Optimized for a Real-space Cutoff    1.51 Angstroem

   l    n(q)    QCUT    max X(q) W(low)/X(q) W(high)/X(q)  e(spline) 
   0      9    10.053   115.676    0.19E-03    0.21E-03    0.38E-06
   0      9    10.053    87.132    0.19E-03    0.21E-03    0.38E-06
   1      9    10.053     4.429    0.87E-04    0.11E-03    0.39E-06
   1      9    10.053     2.733    0.59E-04    0.62E-04    0.43E-06
 Optimization of the real space projectors (new method)

 maximal supplied QI-value         = 24.76
 optimisation between [QCUT,QGAM] = [ 10.15, 20.30] = [ 28.85,115.39] Ry 
 Optimized for a Real-space Cutoff    1.51 Angstroem

   l    n(q)    QCUT    max X(q) W(low)/X(q) W(high)/X(q)  e(spline) 
   0      9    10.150    20.381    0.17E-03    0.18E-03    0.41E-06
   0      9    10.150    15.268    0.18E-03    0.20E-03    0.43E-06
   1      9    10.150     5.964    0.16E-03    0.20E-03    0.36E-06
   1      9    10.150     5.382    0.13E-03    0.16E-03    0.33E-06
  PAW_PBE C 08Apr2002                   :
 energy of atom  1       EATOM= -147.1560
 kinetic energy error for atom=    0.0288 (will be added to EATOM!!)
  PAW_PBE O 08Apr2002                   :
 energy of atom  2       EATOM= -432.3788
 kinetic energy error for atom=    0.1156 (will be added to EATOM!!)
 
 
 POSCAR:  C  O
  positions in direct lattice
  No initial velocities read in
 exchange correlation table for  LEXCH =        8
   RHO(1)=    0.500       N(1)  =     2000
   RHO(2)=  100.500       N(2)  =     4000
 


--------------------------------------------------------------------------------------------------------


 ion  position               nearest neighbor table
   1  0.295  0.941  0.220-   2 1.17   3 1.18
   2  0.310  0.006  0.317-   1 1.17
   3  0.278  0.875  0.120-   1 1.18
 
  LATTYP: Found a triclinic cell.
 ALAT       =     6.9679572149
 B/A-ratio  =     2.7504675943
 C/A-ratio  =     2.7511537689
 COS(alpha) =     0.0491667510
 COS(beta)  =     0.6051360705
 COS(gamma) =     0.6058719102
  
  Lattice vectors:
  
 A1 = (   1.0701000163,   1.7447551173,   6.6605662885)
 A2 = (   9.3230348441,  15.3801493263,   6.6207732983)
 A3 = ( -13.2990177192,   3.4850444028,  13.3595094686)


Analysis of symmetry for initial positions (statically):
=====================================================================
 Subroutine PRICEL returns:
 Original cell was already a primitive cell.
 

 Routine SETGRP: Setting up the symmetry group for a 
 triclinic supercell.


 Subroutine GETGRP returns: Found  1 space group operations
 (whereof  1 operations were pure point group operations)
 out of a pool of  2 trial point group operations.


The static configuration has the point symmetry C_1 .


Analysis of symmetry for dynamics (positions and initial velocities):
=====================================================================
 Subroutine PRICEL returns:
 Original cell was already a primitive cell.
 

 Routine SETGRP: Setting up the symmetry group for a 
 triclinic supercell.


 Subroutine GETGRP returns: Found  1 space group operations
 (whereof  1 operations were pure point group operations)
 out of a pool of  2 trial point group operations.


The dynamic configuration has the point symmetry C_1 .


 Subroutine INISYM returns: Found  1 space group operations
 (whereof  1 operations are pure point group operations),
 and found     1 'primitive' translations


----------------------------------------------------------------------------------------

                                     Primitive cell                                     

  volume of cell :    1403.0148

  direct lattice vectors                    reciprocal lattice vectors
    15.439217752  0.004465832 -0.038376892     0.065085042  0.034326685  0.130688713
    -7.186282924 13.630928377 -0.001416099     0.000303919  0.073536393  0.130825479
    -7.182834812-11.890639092  6.700359279     0.000372844  0.000212151  0.150021909

  length of vectors
    15.439266094 15.409246337 15.423204220     0.149979744  0.150076646  0.150022522

  position of ions in fractional coordinates (direct lattice)
     0.294766223  0.940830694  0.219659524
     0.309692258  0.006399359  0.316962248
     0.277914318  0.874764066  0.119775582

  ion indices of the primitive-cell ions
   primitive index   ion index
                 1           1
                 2           2
                 3           3

----------------------------------------------------------------------------------------

 
 
 KPOINTS: KPOINTS                                 

Automatic generation of k-mesh.
 Grid dimensions read from file:
 generate k-points for:    1    1    1

 Generating k-lattice:

  Cartesian coordinates                     Fractional coordinates (reciprocal lattice)
     0.065085042  0.034326685  0.130688713     1.000000000  0.000000000 -0.000000000
     0.000303919  0.073536393  0.130825479     0.000000000  1.000000000  0.000000000
     0.000372844  0.000212151  0.150021909    -0.000000000  0.000000000  1.000000000

  Length of vectors
     0.149979744  0.150076646  0.150022522

  Shift w.r.t. Gamma in fractional coordinates (k-lattice)
     0.000000000  0.000000000  0.000000000

 
 Subroutine IBZKPT returns following result:
 ===========================================
 
 Found      1 irreducible k-points:
 
 Following reciprocal coordinates:
            Coordinates               Weight
  0.000000  0.000000  0.000000      1.000000
 
 Following cartesian coordinates:
            Coordinates               Weight
  0.000000  0.000000  0.000000      1.000000
 
 
 Subroutine IBZKPT_HF returns following result:
 ==============================================
 
 Found      1 k-points in 1st BZ
 the following      1 k-points will be used (e.g. in the exchange kernel)
 Following reciprocal coordinates:   # in IRBZ
  0.000000  0.000000  0.000000    1.00000000   1 t-inv F


--------------------------------------------------------------------------------------------------------




 Dimension of arrays:
   k-points           NKPTS =      1   k-points in BZ     NKDIM =      1   number of bands    NBANDS=     40
   number of dos      NEDOS =    301   number of ions     NIONS =      3
   non local maximal  LDIM  =      4   non local SUM 2l+1 LMDIM =      8
   total plane-waves  NPLWV = ******
   max r-space proj   IRMAX =  12961   max aug-charges    IRDMAX=  11847
   dimension x,y,z NGX =   108 NGY =  108 NGZ =  108
   dimension x,y,z NGXF=   216 NGYF=  216 NGZF=  216
   support grid    NGXF=   216 NGYF=  216 NGZF=  216
   ions per type =               1   2
   NGX,Y,Z   is equivalent  to a cutoff of  11.63, 11.65, 11.64 a.u.
   NGXF,Y,Z  is equivalent  to a cutoff of  23.26, 23.30, 23.28 a.u.

 SYSTEM =  CO2                                     
 POSCAR =   C  O                                   

 Startparameter for this run:
   NWRITE =      1    write-flag & timer
   PREC   = accura    normal or accurate (medium, high low for compatibility)
   ISTART =      0    job   : 0-new  1-cont  2-samecut
   ICHARG =      2    charge: 1-file 2-atom 10-const
   ISPIN  =      1    spin polarized calculation?
   LNONCOLLINEAR =      F non collinear calculations
   LSORBIT =      F    spin-orbit coupling
   INIWAV =      1    electr: 0-lowe 1-rand  2-diag
   LASPH  =      T    aspherical Exc in radial PAW
 Electronic Relaxation 1
   ENCUT  =  400.0 eV  29.40 Ry    5.42 a.u.  25.18 25.13 25.15*2*pi/ulx,y,z
   ENINI  =  400.0     initial cutoff
   ENAUG  =  644.9 eV  augmentation charge cutoff
   NELM   =    500;   NELMIN=  2; NELMDL= -5     # of ELM steps 
   EDIFF  = 0.1E-04   stopping-criterion for ELM
   LREAL  =      T    real-space projection
   NLSPLINE    = F    spline interpolate recip. space projectors
   LCOMPAT=      F    compatible to vasp.4.4
   GGA_COMPAT  = T    GGA compatible to vasp.4.4-vasp.4.6
   LMAXPAW     = -100 max onsite density
   LMAXMIX     =    2 max onsite mixed and CHGCAR
   VOSKOWN=      0    Vosko Wilk Nusair interpolation
   ROPT   =   -0.00025  -0.00025
 Ionic relaxation
   EDIFFG = 0.1E-03   stopping-criterion for IOM
   NSW    =      0    number of steps for IOM
   NBLOCK =      1;   KBLOCK =      1    inner block; outer block 
   IBRION =     -1    ionic relax: 0-MD 1-quasi-New 2-CG
   NFREE  =      0    steps in history (QN), initial steepest desc. (CG)
   ISIF   =      0    stress and relaxation
   IWAVPR =     10    prediction:  0-non 1-charg 2-wave 3-comb
   ISYM   =      3    0-nonsym 1-usesym 2-fastsym
   LCORR  =      T    Harris-Foulkes like correction to forces

   POTIM  = 0.5000    time-step for ionic-motion
   TEIN   =    0.0    initial temperature
   TEBEG  =    0.0;   TEEND  =   0.0 temperature during run
   SMASS  =  -3.00    Nose mass-parameter (am)
   estimated Nose-frequenzy (Omega)   =  0.10E-29 period in steps = 0.13E+47 mass=  -0.545E-26a.u.
   SCALEE = 1.0000    scale energy and forces
   NPACO  =    256;   APACO  = 10.0  distance and # of slots for P.C.
   PSTRESS=    0.0 pullay stress

  Mass of Ions in am
   POMASS =  12.01 16.00
  Ionic Valenz
   ZVAL   =   4.00  6.00
  Atomic Wigner-Seitz radii
   RWIGS  =  -1.00 -1.00
  virtual crystal weights 
   VCA    =   1.00  1.00
   NELECT =      16.0000    total number of electrons
   NUPDOWN=      -1.0000    fix difference up-down

 DOS related values:
   EMIN   =  10.00;   EMAX   =-10.00  energy-range for DOS
   EFERMI =   0.00
   ISMEAR =     0;   SIGMA  =   0.10  broadening in eV -4-tet -1-fermi 0-gaus

 Electronic relaxation 2 (details)
   IALGO  =     58    algorithm
   LDIAG  =      T    sub-space diagonalisation (order eigenvalues)
   LSUBROT=      F    optimize rotation matrix (better conditioning)
   TURBO    =      0    0=normal 1=particle mesh
   IRESTART =      0    0=no restart 2=restart with 2 vectors
   NREBOOT  =      0    no. of reboots
   NMIN     =      0    reboot dimension
   EREF     =   0.00    reference energy to select bands
   IMIX   =      4    mixing-type and parameters
     AMIX     =   0.40;   BMIX     =  1.00
     AMIX_MAG =   1.60;   BMIX_MAG =  1.00
     AMIN     =   0.10
     WC   =   100.;   INIMIX=   1;  MIXPRE=   1;  MAXMIX= -45

 Intra band minimization:
   WEIMIN = 0.0000     energy-eigenvalue tresh-hold
   EBREAK =  0.63E-07  absolut break condition
   DEPER  =   0.30     relativ break condition  

   TIME   =   0.05     timestep for ELM

  volume/ion in A,a.u.               =     467.67      3156.00
  Fermi-wavevector in a.u.,A,eV,Ry     =   0.368491  0.696348  1.847480  0.135786
  Thomas-Fermi vector in A             =   1.294397
 
 Write flags
   LWAVE        =      T    write WAVECAR
   LDOWNSAMPLE  =      F    k-point downsampling of WAVECAR
   LCHARG       =      T    write CHGCAR
   LVTOT        =      F    write LOCPOT, total local potential
   LVHAR        =      F    write LOCPOT, Hartree potential only
   LELF         =      F    write electronic localiz. function (ELF)
   LORBIT       =      0    0 simple, 1 ext, 2 COOP (PROOUT), +10 PAW based schemes


 Dipole corrections
   LMONO  =      F    monopole corrections only (constant potential shift)
   LDIPOL =      F    correct potential (dipole corrections)
   IDIPOL =      0    1-x, 2-y, 3-z, 4-all directions 
   EPSILON=  1.0000000 bulk dielectric constant

 Exchange correlation treatment:
   GGA     =    PE    GGA type
   LEXCH   =     8    internal setting for exchange type
   LIBXC   =     F    Libxc                    
   VOSKOWN =     0    Vosko Wilk Nusair interpolation
   EXXOEP  =     0    0=HF, 1=EXX-LHF (local Hartree Fock) 2=EXX OEP
   LHFCALC =     T    Hartree Fock is set to
   LSYMGRAD=     F    symmetrize gradient (conserves proper symmetry)
   PRECFOCK=normal    Normal, Fast or Accurate (Low or Medium for compatibility)
   LRHFCALC=     F    long range Hartree Fock
   LRSCOR  =     F    long range correlation only (use DFT for short range part)
   LTHOMAS =     F    Thomas Fermi screening in HF
   LMODELHF=     F    short range full HF, long range fraction AEXX
   FOCKCORR=     1    mode to apply convergence corrections
   LFOCKACE=     T    use Adeptively-Compressed-Exchange operator
   ENCUT4O =  -1.0   cutoff for four orbital integrals eV
   LMAXFOCK=     4    L truncation for augmentation on plane wave grid
   LMAXFOCKAE=  -1    L truncation for all-electron charge restoration on plane wave grid
   NMAXFOCKAE=   1    number of basis functions for all-electron charge restoration
   LFOCKAEDFT=     F  apply the AE augmentation even for DFT
   NKREDX  =     1    reduce k-point grid by
   NKREDY  =     1    reduce k-point grid by
   NKREDZ  =     1    reduce k-point grid by
   SHIFTRED=     F    shift reduced grid of Gamma
   HFKIDENT=     F    idential grid for each k-point
   ODDONLY =     F    use only odd q-grid points
   EVENONLY=     F    use only even q-grid points
   HFALPHA =   -1.0000 decay constant for conv. correction
   MCALPHA =    0.0000 extent of test-charge in conv. correction in multipole expansion
   AEXX    =    0.2500 exact exchange contribution
   HFSCREEN=    0.2000 screening length (either q_TF or 0.3 A-1)
   HFSCREENC=   0.2000 screening length for correlation (either q_TF or 0.3 A-1)
   HFRCUT  =    0.0000 spherical cutoff for potential kernel
   ALDAX   =    0.7500 LDA exchange part
   AGGAX   =    0.7500 GGA exchange part
   ALDAC   =    1.0000 LDA correlation
   AGGAC   =    1.0000 GGA correlation
   ENCUTFOCK=  -1.0 apply spherical cutoff to Coloumb kernel
   NBANDSGWLOW=     1    first orbital included in HF term
   NBLOCK_FOCK=    64    blocking factor in FOCK_ACC

 Linear response parameters
   LEPSILON=     F    determine dielectric tensor
   LRPA    =     F    only Hartree local field effects (RPA)
   LNABLA  =     F    use nabla operator in PAW spheres
   LVEL    =     F    velocity operator in full k-point grid
   CSHIFT  =0.1000    complex shift for real part using Kramers Kronig
   OMEGAMAX=  -1.0    maximum frequency
   DEG_THRESHOLD= 0.2000000E-02 threshold for treating states as degnerate
   RTIME   =   -0.100 relaxation time in fs
  (WPLASMAI=    0.000 imaginary part of plasma frequency in eV, 0.658/RTIME)
   DFIELD  = 0.0000000 0.0000000 0.0000000 field for delta impulse in time
 
  Optional k-point grid parameters
   LKPOINTS_OPT  =     F    use optional k-point grid
   KPOINTS_OPT_MODE=     1    mode for optional k-point grid
 
 Orbital magnetization related:
   ORBITALMAG=     F  switch on orbital magnetization
   LCHIMAG   =     F  perturbation theory with respect to B field
   DQ        =  0.001000  dq finite difference perturbation B field
   LLRAUG    =     F  two centre corrections for induced B field



--------------------------------------------------------------------------------------------------------


 Static calculation
 charge density and potential will be updated during run
 non-spin polarized calculation
 Conjugate gradient for all bands (Freysoldt, et al. PRB 79, 241103 (2009))
 preconditioned conjugated gradient                                        
 perform sub-space diagonalisation
    before iterative eigenvector-optimisation
 modified Broyden-mixing scheme, WC =      100.0
 initial mixing is a Kerker type mixing with AMIX =  0.4000 and BMIX =      1.0000
 Hartree-type preconditioning will be used
 using additional bands           32
 real space projection scheme for non local part
 use partial core corrections
 no Harris-corrections to forces 
 use gradient corrections 
 use of overlap-Matrix (Vanderbilt PP)
 Gauss-broadening in eV      SIGMA  =   0.10


--------------------------------------------------------------------------------------------------------


  energy-cutoff  :      400.00
  volume of cell :     1403.01
      direct lattice vectors                 reciprocal lattice vectors
    15.439217752  0.004465832 -0.038376892     0.065085042  0.034326685  0.130688713
    -7.186282924 13.630928377 -0.001416099     0.000303919  0.073536393  0.130825479
    -7.182834812-11.890639092  6.700359279     0.000372844  0.000212151  0.150021909

  length of vectors
    15.439266094 15.409246337 15.423204220     0.149979744  0.150076646  0.150022522


 
 k-points in units of 2pi/SCALE and weight: KPOINTS                                 
   0.00000000  0.00000000  0.00000000       1.000
 
 k-points in reciprocal lattice and weights: KPOINTS                                 
   0.00000000  0.00000000  0.00000000       1.000
 
 position of ions in fractional coordinates (direct lattice) 
   0.29476622  0.94083069  0.21965952
   0.30969226  0.00639936  0.31696225
   0.27791432  0.87476407  0.11977558
 
 position of ions in cartesian coordinates  (Angst):
  -3.78789373 10.21382006  1.45915321
   2.45873113 -3.68027146  2.11186685
  -2.85585061 10.50087923  0.79063519
 


--------------------------------------------------------------------------------------------------------


 use serial FFT for orbitals x direction half grid
 k-point   1 :   0.0000 0.0000 0.0000  plane waves:   12735

 maximum and minimum number of plane-waves per node :     12735    12735

 maximum number of plane-waves:     12735
 maximum index in each direction: 
   IXMAX=   25   IYMAX=   22   IZMAX=   21
   IXMIN=    0   IYMIN=  -25   IZMIN=  -25


 serial   3D FFT for wavefunctions
 parallel 3D FFT for charge:
    minimum data exchange during FFTs selected (reduces bandwidth)


 FFT grid for exact exchange (Hartree Fock) 
  NGX = 80; NGY = 80; NGZ = 80

 use serial FFT for orbitals x direction half grid
 
 Radii for the augmentation spheres in the non-local exchange
 for species   1 augmentation radius   0.874 (default was   0.699)
       energy cutoff for augmentation   1600.0
 for species   2 augmentation radius   0.902 (default was   0.722)
       energy cutoff for augmentation   1600.0
 Maximum index for augmentation-charges in exchange         1119
  SETUP_FOCK is finished

 total amount of memory used by VASP MPI-rank0   114248. kBytes
=======================================================================

   base      :      30000. kBytes
   nonlr-proj:       2903. kBytes
   fftplans  :      14365. kBytes
   grid      :      66355. kBytes
   one-center:          4. kBytes
   HF        :          9. kBytes
   wavefun   :        612. kBytes
 
     INWAV:  cpu time      0.0001: real time      0.0003
 Broyden mixing: mesh for mixing (old mesh)
   NGX = 51   NGY = 51   NGZ = 51
  (NGX  =216   NGY  =216   NGZ  =216)
  gives a total of 132651 points

 initial charge density was supplied:
 charge density of overlapping atoms calculated
 number of electron      16.0000000 magnetization 
 keeping initial charge density in first step


--------------------------------------------------------------------------------------------------------


 Maximum index for non-local projection operator        12550
 Maximum index for augmentation-charges          249 (set IRDMAX)


--------------------------------------------------------------------------------------------------------


 First call to EWALD:  gamma=   0.158
 Maximum number of real-space cells 4x 4x 4
 Maximum number of reciprocal cells 4x 4x 4

    FEWALD:  cpu time      0.0015: real time      0.0015


--------------------------------------- Iteration      1(   1)  ---------------------------------------


    POTLOK:  cpu time      0.2384: real time      0.2545
    SETDIJ:  cpu time      0.0457: real time      0.0461
    TRIAL :  cpu time      0.3516: real time      0.3677
    CORREC:  cpu time      0.0001: real time      0.0001
    --------------------------------------------
      LOOP:  cpu time      0.6370: real time      0.6714

 eigenvalue-minimisations  :   120
 total energy-change (2. order) :-0.3302252E+02  (-0.5314612E+03)
 number of electron      16.0000000 magnetization 
 augmentation part       16.0000000 magnetization 

 Free energy of the ion-electron system (eV)
  ---------------------------------------------------
  alpha Z        PSCENC =         0.76241339
  Ewald energy   TEWEN  =       421.95445347
  -Hartree energ DENC   =     -1232.07560806
  -exchange      EXHF   =         0.00000000
  -V(xc)+E(xc)   XCENC  =        67.50631364
  PAW double counting   =       801.62100016     -889.97731249
  entropy T*S    EENTRO =        -0.00000000
  eigenvalues    EBANDS =      -206.89563476
  atomic energy  EATOM  =      1004.08185434
  ---------------------------------------------------
  free energy    TOTEN  =       -33.02252031 eV

  energy without entropy =      -33.02252031  energy(sigma->0) =      -33.02252031
  exchange ACFDT corr.  =         0.00000000  see jH, gK, PRB 81, 115126


--------------------------------------------------------------------------------------------------------




--------------------------------------- Iteration      1(   2)  ---------------------------------------


    TRIAL :  cpu time      0.2482: real time      0.2496
    CORREC:  cpu time      0.0001: real time      0.0001
    --------------------------------------------
      LOOP:  cpu time      0.2495: real time      0.2581

 eigenvalue-minimisations  :    80
 total energy-change (2. order) :-0.8575755E+02  (-0.8575755E+02)
 number of electron      16.0000000 magnetization 
 augmentation part       16.0000000 magnetization 

 Free energy of the ion-electron system (eV)
  ---------------------------------------------------
  alpha Z        PSCENC =         0.76241339
  Ewald energy   TEWEN  =       421.95445347
  -Hartree energ DENC   =     -1232.07560806
  -exchange      EXHF   =         0.00000000
  -V(xc)+E(xc)   XCENC  =        67.50631364
  PAW double counting   =       801.62100016     -889.97731249
  entropy T*S    EENTRO =        -0.00000000
  eigenvalues    EBANDS =      -292.65318563
  atomic energy  EATOM  =      1004.08185434
  ---------------------------------------------------
  free energy    TOTEN  =      -118.78007118 eV

  energy without entropy =     -118.78007118  energy(sigma->0) =     -118.78007118
  exchange ACFDT corr.  =         0.00000000  see jH, gK, PRB 81, 115126


--------------------------------------------------------------------------------------------------------




--------------------------------------- Iteration      1(   3)  ---------------------------------------


    TRIAL :  cpu time      0.3389: real time      0.3420
    CORREC:  cpu time      0.0001: real time      0.0001
    --------------------------------------------
      LOOP:  cpu time      0.3394: real time      0.3511

 eigenvalue-minimisations  :   120
 total energy-change (2. order) :-0.3214489E+01  (-0.3214489E+01)
 number of electron      16.0000000 magnetization 
 augmentation part       16.0000000 magnetization 

 Free energy of the ion-electron system (eV)
  ---------------------------------------------------
  alpha Z        PSCENC =         0.76241339
  Ewald energy   TEWEN  =       421.95445347
  -Hartree energ DENC   =     -1232.07560806
  -exchange      EXHF   =         0.00000000
  -V(xc)+E(xc)   XCENC  =        67.50631364
  PAW double counting   =       801.62100016     -889.97731249
  entropy T*S    EENTRO =        -0.00000000
  eigenvalues    EBANDS =      -295.86767436
  atomic energy  EATOM  =      1004.08185434
  ---------------------------------------------------
  free energy    TOTEN  =      -121.99455990 eV

  energy without entropy =     -121.99455990  energy(sigma->0) =     -121.99455990
  exchange ACFDT corr.  =         0.00000000  see jH, gK, PRB 81, 115126


--------------------------------------------------------------------------------------------------------




--------------------------------------- Iteration      1(   4)  ---------------------------------------


    TRIAL :  cpu time      0.2495: real time      0.2511
    CORREC:  cpu time      0.0001: real time      0.0001
    --------------------------------------------
      LOOP:  cpu time      0.2499: real time      0.2592

 eigenvalue-minimisations  :    80
 total energy-change (2. order) :-0.2173314E-02  (-0.2173314E-02)
 number of electron      16.0000000 magnetization 
 augmentation part       16.0000000 magnetization 

 Free energy of the ion-electron system (eV)
  ---------------------------------------------------
  alpha Z        PSCENC =         0.76241339
  Ewald energy   TEWEN  =       421.95445347
  -Hartree energ DENC   =     -1232.07560806
  -exchange      EXHF   =         0.00000000
  -V(xc)+E(xc)   XCENC  =        67.50631364
  PAW double counting   =       801.62100016     -889.97731249
  entropy T*S    EENTRO =        -0.00000000
  eigenvalues    EBANDS =      -295.86984767
  atomic energy  EATOM  =      1004.08185434
  ---------------------------------------------------
  free energy    TOTEN  =      -121.99673322 eV

  energy without entropy =     -121.99673322  energy(sigma->0) =     -121.99673322
  exchange ACFDT corr.  =         0.00000000  see jH, gK, PRB 81, 115126


--------------------------------------------------------------------------------------------------------




--------------------------------------- Iteration      1(   5)  ---------------------------------------


    POTLOK:  cpu time      0.3928: real time      0.3944
    SETDIJ:  cpu time      0.1304: real time      0.1310
    TRIAL :  cpu time      2.3629: real time      3.4034
    CORREC:  cpu time      0.0001: real time      0.0001
    CHARGE:  cpu time      0.0731: real time      0.0733
    --------------------------------------------
      LOOP:  cpu time      2.9618: real time      4.0106

 eigenvalue-minimisations  :   120
 total energy-change (2. order) : 0.9131886E+02  (-0.2175697E+00)
 number of electron      15.9999997 magnetization 
 augmentation part        1.5260680 magnetization 

 Free energy of the ion-electron system (eV)
  ---------------------------------------------------
  alpha Z        PSCENC =         0.76241339
  Ewald energy   TEWEN  =       421.95445347
  -Hartree energ DENC   =     -1232.07560806
  -exchange      EXHF   =        49.07640743
  -V(xc)+E(xc)   XCENC  =        51.80279870
  PAW double counting   =       816.18928923     -818.61536217
  entropy T*S    EENTRO =        -0.00000000
  eigenvalues    EBANDS =      -323.85411519
  atomic energy  EATOM  =      1004.08185434
  ---------------------------------------------------
  free energy    TOTEN  =       -30.67786887 eV

  energy without entropy =      -30.67786887  energy(sigma->0) =      -30.67786887
  exchange ACFDT corr.  =        -0.00000000  see jH, gK, PRB 81, 115126


--------------------------------------------------------------------------------------------------------




--------------------------------------- Iteration      1(   6)  ---------------------------------------


    POTLOK:  cpu time      0.4373: real time      0.4392
    SETDIJ:  cpu time      0.1283: real time      0.1296
    TRIAL :  cpu time      2.1616: real time      2.2283
    CORREC:  cpu time     10.5360: real time     10.6316
    CHARGE:  cpu time      0.0777: real time      0.0780
    --------------------------------------------
      LOOP:  cpu time     13.3427: real time     13.5172

 eigenvalue-minimisations  :     0
 total energy-change (2. order) : 0.6035611E+01  (-0.7098067E-01)
 number of electron      15.9999997 magnetization 
 augmentation part        1.3589286 magnetization 

 Free energy of the ion-electron system (eV)
  ---------------------------------------------------
  alpha Z        PSCENC =         0.76241339
  Ewald energy   TEWEN  =       421.95445347
  -Hartree energ DENC   =     -1320.03107939
  -exchange      EXHF   =        49.29953185
  -V(xc)+E(xc)   XCENC  =        55.82134260
  PAW double counting   =      1687.95834901    -1691.05977875
  entropy T*S    EENTRO =        -0.00000000
  eigenvalues    EBANDS =      -233.42934475
  atomic energy  EATOM  =      1004.08185434
  ---------------------------------------------------
  free energy    TOTEN  =       -24.64225824 eV

  energy without entropy =      -24.64225824  energy(sigma->0) =      -24.64225824
  exchange ACFDT corr.  =        -0.00000000  see jH, gK, PRB 81, 115126


--------------------------------------------------------------------------------------------------------




--------------------------------------- Iteration      1(   7)  ---------------------------------------


    POTLOK:  cpu time      0.4591: real time      0.4623
    SETDIJ:  cpu time      0.1326: real time      0.1330
    TRIAL :  cpu time      2.0939: real time      2.1195
    CORREC:  cpu time      2.5248: real time      2.6133
    CHARGE:  cpu time      0.0775: real time      0.0780
    --------------------------------------------
      LOOP:  cpu time      5.2887: real time      5.4155

 eigenvalue-minimisations  :     0
 total energy-change (2. order) :-0.2863376E+01  (-0.5184820E+00)
 number of electron      15.9999997 magnetization 
 augmentation part        1.3232405 magnetization 

 Free energy of the ion-electron system (eV)
  ---------------------------------------------------
  alpha Z        PSCENC =         0.76241339
  Ewald energy   TEWEN  =       421.95445347
  -Hartree energ DENC   =     -1264.41955518
  -exchange      EXHF   =        46.65360530
  -V(xc)+E(xc)   XCENC  =        53.37352131
  PAW double counting   =      1608.50809922    -1611.19461569
  entropy T*S    EENTRO =        -0.00000000
  eigenvalues    EBANDS =      -287.22541044
  atomic energy  EATOM  =      1004.08185434
  ---------------------------------------------------
  free energy    TOTEN  =       -27.50563429 eV

  energy without entropy =      -27.50563429  energy(sigma->0) =      -27.50563429
  exchange ACFDT corr.  =        -0.00000000  see jH, gK, PRB 81, 115126


--------------------------------------------------------------------------------------------------------




--------------------------------------- Iteration      1(   8)  ---------------------------------------


    POTLOK:  cpu time      0.4514: real time      0.4531
    SETDIJ:  cpu time      0.1318: real time      0.1322
    TRIAL :  cpu time      2.0704: real time      2.0893
    CORREC:  cpu time      2.6616: real time      2.7662
    CHARGE:  cpu time      0.0764: real time      0.0769
    --------------------------------------------
      LOOP:  cpu time      5.3944: real time      5.5277

 eigenvalue-minimisations  :     0
 total energy-change (2. order) :-0.5416821E+00  (-0.2325508E+00)
 number of electron      15.9999998 magnetization 
 augmentation part        1.3216279 magnetization 

 Free energy of the ion-electron system (eV)
  ---------------------------------------------------
  alpha Z        PSCENC =         0.76241339
  Ewald energy   TEWEN  =       421.95445347
  -Hartree energ DENC   =     -1270.65616267
  -exchange      EXHF   =        46.77564138
  -V(xc)+E(xc)   XCENC  =        53.49549819
  PAW double counting   =      1617.61574231    -1620.10634866
  entropy T*S    EENTRO =        -0.00000000
  eigenvalues    EBANDS =      -281.97040811
  atomic energy  EATOM  =      1004.08185434
  ---------------------------------------------------
  free energy    TOTEN  =       -28.04731636 eV

  energy without entropy =      -28.04731636  energy(sigma->0) =      -28.04731636
  exchange ACFDT corr.  =        -0.00000000  see jH, gK, PRB 81, 115126


--------------------------------------------------------------------------------------------------------




--------------------------------------- Iteration      1(   9)  ---------------------------------------


    POTLOK:  cpu time      0.4385: real time      0.4464
    SETDIJ:  cpu time      0.1289: real time      0.1354
    TRIAL :  cpu time      2.1012: real time      2.2400
    CORREC:  cpu time      2.5265: real time      2.5471
    CHARGE:  cpu time      0.0742: real time      0.0760
    --------------------------------------------
      LOOP:  cpu time      5.2733: real time      5.4671

 eigenvalue-minimisations  :     0
 total energy-change (2. order) :-0.2345514E+00  (-0.1082201E+00)
 number of electron      15.9999998 magnetization 
 augmentation part        1.3151611 magnetization 

 Free energy of the ion-electron system (eV)
  ---------------------------------------------------
  alpha Z        PSCENC =         0.76241339
  Ewald energy   TEWEN  =       421.95445347
  -Hartree energ DENC   =     -1275.42171725
  -exchange      EXHF   =        46.87360135
  -V(xc)+E(xc)   XCENC  =        53.61943052
  PAW double counting   =      1630.96392824    -1633.42191782
  entropy T*S    EENTRO =        -0.00000000
  eigenvalues    EBANDS =      -277.69391400
  atomic energy  EATOM  =      1004.08185434
  ---------------------------------------------------
  free energy    TOTEN  =       -28.28186776 eV

  energy without entropy =      -28.28186776  energy(sigma->0) =      -28.28186776
  exchange ACFDT corr.  =        -0.00000000  see jH, gK, PRB 81, 115126


--------------------------------------------------------------------------------------------------------




--------------------------------------- Iteration      1(  10)  ---------------------------------------


    POTLOK:  cpu time      0.4406: real time      0.4422
    SETDIJ:  cpu time      0.1305: real time      0.1311
    TRIAL :  cpu time      3.7992: real time      3.8320
    CORREC:  cpu time      2.4870: real time      2.5242
    CHARGE:  cpu time      0.0741: real time      0.0745
    --------------------------------------------
      LOOP:  cpu time      6.9341: real time      7.0146

 eigenvalue-minimisations  :     0
 total energy-change (2. order) :-0.1064261E+00  (-0.3432116E-01)
 number of electron      15.9999998 magnetization 
 augmentation part        1.3139329 magnetization 

 Free energy of the ion-electron system (eV)
  ---------------------------------------------------
  alpha Z        PSCENC =         0.76241339
  Ewald energy   TEWEN  =       421.95445347
  -Hartree energ DENC   =     -1272.13310975
  -exchange      EXHF   =        46.67027528
  -V(xc)+E(xc)   XCENC  =        53.46570641
  PAW double counting   =      1634.40314814    -1636.84188704
  entropy T*S    EENTRO =        -0.00000000
  eigenvalues    EBANDS =      -280.75114808
  atomic energy  EATOM  =      1004.08185434
  ---------------------------------------------------
  free energy    TOTEN  =       -28.38829383 eV

  energy without entropy =      -28.38829383  energy(sigma->0) =      -28.38829383
  exchange ACFDT corr.  =        -0.00000000  see jH, gK, PRB 81, 115126


--------------------------------------------------------------------------------------------------------




--------------------------------------- Iteration      1(  11)  ---------------------------------------


    POTLOK:  cpu time      0.4398: real time      0.4418
    SETDIJ:  cpu time      0.1307: real time      0.1311
    TRIAL :  cpu time      1.9905: real time      2.0063
    CORREC:  cpu time      2.5105: real time      2.5316
    CHARGE:  cpu time      0.0750: real time      0.0754
    --------------------------------------------
      LOOP:  cpu time      5.1471: real time      5.1964

 eigenvalue-minimisations  :     0
 total energy-change (2. order) :-0.3397615E-01  (-0.1015502E-01)
 number of electron      15.9999998 magnetization 
 augmentation part        1.3176727 magnetization 

 Free energy of the ion-electron system (eV)
  ---------------------------------------------------
  alpha Z        PSCENC =         0.76241339
  Ewald energy   TEWEN  =       421.95445347
  -Hartree energ DENC   =     -1270.80125456
  -exchange      EXHF   =        46.58723433
  -V(xc)+E(xc)   XCENC  =        53.41159764
  PAW double counting   =      1637.79663610    -1640.22894127
  entropy T*S    EENTRO =        -0.00000000
  eigenvalues    EBANDS =      -281.98626341
  atomic energy  EATOM  =      1004.08185434
  ---------------------------------------------------
  free energy    TOTEN  =       -28.42226998 eV

  energy without entropy =      -28.42226998  energy(sigma->0) =      -28.42226998
  exchange ACFDT corr.  =         0.00000000  see jH, gK, PRB 81, 115126


--------------------------------------------------------------------------------------------------------




--------------------------------------- Iteration      1(  12)  ---------------------------------------


    POTLOK:  cpu time      0.4439: real time      0.4457
    SETDIJ:  cpu time      0.1301: real time      0.1314
    TRIAL :  cpu time      1.9635: real time      1.9881
    CORREC:  cpu time      2.5260: real time      2.5494
    CHARGE:  cpu time      0.0752: real time      0.0754
    --------------------------------------------
      LOOP:  cpu time      5.1467: real time      5.1987

 eigenvalue-minimisations  :     0
 total energy-change (2. order) :-0.1014650E-01  (-0.3401125E-02)
 number of electron      15.9999998 magnetization 
 augmentation part        1.3188496 magnetization 

 Free energy of the ion-electron system (eV)
  ---------------------------------------------------
  alpha Z        PSCENC =         0.76241339
  Ewald energy   TEWEN  =       421.95445347
  -Hartree energ DENC   =     -1271.22827701
  -exchange      EXHF   =        46.59463073
  -V(xc)+E(xc)   XCENC  =        53.43149701
  PAW double counting   =      1641.61521618    -1644.06169334
  entropy T*S    EENTRO =        -0.00000000
  eigenvalues    EBANDS =      -281.58251125
  atomic energy  EATOM  =      1004.08185434
  ---------------------------------------------------
  free energy    TOTEN  =       -28.43241648 eV

  energy without entropy =      -28.43241648  energy(sigma->0) =      -28.43241648
  exchange ACFDT corr.  =        -0.00000000  see jH, gK, PRB 81, 115126


--------------------------------------------------------------------------------------------------------




--------------------------------------- Iteration      1(  13)  ---------------------------------------


    POTLOK:  cpu time      0.4393: real time      0.4419
    SETDIJ:  cpu time      0.1309: real time      0.1314
    TRIAL :  cpu time      1.9199: real time      1.9555
    CORREC:  cpu time      2.5248: real time      2.5641
    CHARGE:  cpu time      0.0733: real time      0.0747
    --------------------------------------------
      LOOP:  cpu time      5.0898: real time      5.1762

 eigenvalue-minimisations  :     0
 total energy-change (2. order) :-0.3403448E-02  (-0.1102113E-02)
 number of electron      15.9999998 magnetization 
 augmentation part        1.3185653 magnetization 

 Free energy of the ion-electron system (eV)
  ---------------------------------------------------
  alpha Z        PSCENC =         0.76241339
  Ewald energy   TEWEN  =       421.95445347
  -Hartree energ DENC   =     -1270.78889650
  -exchange      EXHF   =        46.57432591
  -V(xc)+E(xc)   XCENC  =        53.41807173
  PAW double counting   =      1642.74194138    -1645.19786383
  entropy T*S    EENTRO =        -0.00000000
  eigenvalues    EBANDS =      -281.98211982
  atomic energy  EATOM  =      1004.08185434
  ---------------------------------------------------
  free energy    TOTEN  =       -28.43581993 eV

  energy without entropy =      -28.43581993  energy(sigma->0) =      -28.43581993
  exchange ACFDT corr.  =        -0.00000000  see jH, gK, PRB 81, 115126


--------------------------------------------------------------------------------------------------------




--------------------------------------- Iteration      1(  14)  ---------------------------------------


    POTLOK:  cpu time      0.4367: real time      0.4448
    SETDIJ:  cpu time      0.1308: real time      0.1312
    TRIAL :  cpu time      1.9335: real time      1.9576
    CORREC:  cpu time      2.4850: real time      2.5049
    CHARGE:  cpu time      0.0732: real time      0.0747
    --------------------------------------------
      LOOP:  cpu time      5.0689: real time      5.1235

 eigenvalue-minimisations  :     0
 total energy-change (2. order) :-0.1101047E-02  (-0.3429565E-03)
 number of electron      15.9999998 magnetization 
 augmentation part        1.3184563 magnetization 

 Free energy of the ion-electron system (eV)
  ---------------------------------------------------
  alpha Z        PSCENC =         0.76241339
  Ewald energy   TEWEN  =       421.95445347
  -Hartree energ DENC   =     -1270.53530210
  -exchange      EXHF   =        46.56413080
  -V(xc)+E(xc)   XCENC  =        53.40985293
  PAW double counting   =      1642.90911718    -1645.36636322
  entropy T*S    EENTRO =        -0.00000000
  eigenvalues    EBANDS =      -282.21707776
  atomic energy  EATOM  =      1004.08185434
  ---------------------------------------------------
  free energy    TOTEN  =       -28.43692098 eV

  energy without entropy =      -28.43692098  energy(sigma->0) =      -28.43692098
  exchange ACFDT corr.  =        -0.00000000  see jH, gK, PRB 81, 115126


--------------------------------------------------------------------------------------------------------




--------------------------------------- Iteration      1(  15)  ---------------------------------------


    POTLOK:  cpu time      0.4395: real time      0.4410
    SETDIJ:  cpu time      0.1310: real time      0.1314
    TRIAL :  cpu time      1.9715: real time      1.9864
    CORREC:  cpu time      2.4990: real time      2.5205
    CHARGE:  cpu time      0.0765: real time      0.0768
    --------------------------------------------
      LOOP:  cpu time      5.1195: real time      5.1657

 eigenvalue-minimisations  :     0
 total energy-change (2. order) :-0.3406361E-03  (-0.1002734E-03)
 number of electron      15.9999998 magnetization 
 augmentation part        1.3180311 magnetization 

 Free energy of the ion-electron system (eV)
  ---------------------------------------------------
  alpha Z        PSCENC =         0.76241339
  Ewald energy   TEWEN  =       421.95445347
  -Hartree energ DENC   =     -1270.62401501
  -exchange      EXHF   =        46.56906202
  -V(xc)+E(xc)   XCENC  =        53.41402225
  PAW double counting   =      1642.80780303    -1645.26458064
  entropy T*S    EENTRO =        -0.00000000
  eigenvalues    EBANDS =      -282.13827447
  atomic energy  EATOM  =      1004.08185434
  ---------------------------------------------------
  free energy    TOTEN  =       -28.43726161 eV

  energy without entropy =      -28.43726161  energy(sigma->0) =      -28.43726161
  exchange ACFDT corr.  =        -0.00000000  see jH, gK, PRB 81, 115126


--------------------------------------------------------------------------------------------------------




--------------------------------------- Iteration      1(  16)  ---------------------------------------


    POTLOK:  cpu time      0.4365: real time      0.4435
    SETDIJ:  cpu time      0.1306: real time      0.1313
    TRIAL :  cpu time      2.0172: real time      2.0493
    CORREC:  cpu time      2.4840: real time      2.5245
    CHARGE:  cpu time      0.0751: real time      0.0753
    --------------------------------------------
      LOOP:  cpu time      5.1443: real time      5.2325

 eigenvalue-minimisations  :     0
 total energy-change (2. order) :-0.9971495E-04  (-0.2732730E-04)
 number of electron      15.9999998 magnetization 
 augmentation part        1.3179392 magnetization 

 Free energy of the ion-electron system (eV)
  ---------------------------------------------------
  alpha Z        PSCENC =         0.76241339
  Ewald energy   TEWEN  =       421.95445347
  -Hartree energ DENC   =     -1270.52523520
  -exchange      EXHF   =        46.56595818
  -V(xc)+E(xc)   XCENC  =        53.41029209
  PAW double counting   =      1642.20436506    -1644.65971649
  entropy T*S    EENTRO =        -0.00000000
  eigenvalues    EBANDS =      -282.23174616
  atomic energy  EATOM  =      1004.08185434
  ---------------------------------------------------
  free energy    TOTEN  =       -28.43736133 eV

  energy without entropy =      -28.43736133  energy(sigma->0) =      -28.43736133
  exchange ACFDT corr.  =        -0.00000000  see jH, gK, PRB 81, 115126


--------------------------------------------------------------------------------------------------------




--------------------------------------- Iteration      1(  17)  ---------------------------------------


    POTLOK:  cpu time      0.4402: real time      0.4419
    SETDIJ:  cpu time      0.1323: real time      0.1329
    TRIAL :  cpu time      1.9437: real time      1.9657
    CORREC:  cpu time      2.4759: real time      2.5000
    CHARGE:  cpu time      0.0745: real time      0.0748
    --------------------------------------------
      LOOP:  cpu time      5.0689: real time      5.1257

 eigenvalue-minimisations  :     0
 total energy-change (2. order) :-0.2682911E-04  (-0.7671045E-05)
 number of electron      15.9999998 magnetization 
 augmentation part        1.3179052 magnetization 

 Free energy of the ion-electron system (eV)
  ---------------------------------------------------
  alpha Z        PSCENC =         0.76241339
  Ewald energy   TEWEN  =       421.95445347
  -Hartree energ DENC   =     -1270.54811137
  -exchange      EXHF   =        46.56743342
  -V(xc)+E(xc)   XCENC  =        53.41122425
  PAW double counting   =      1641.78707078    -1644.24178692
  entropy T*S    EENTRO =        -0.00000000
  eigenvalues    EBANDS =      -282.21193952
  atomic energy  EATOM  =      1004.08185434
  ---------------------------------------------------
  free energy    TOTEN  =       -28.43738816 eV

  energy without entropy =      -28.43738816  energy(sigma->0) =      -28.43738816
  exchange ACFDT corr.  =        -0.00000000  see jH, gK, PRB 81, 115126


--------------------------------------------------------------------------------------------------------




--------------------------------------- Iteration      1(  18)  ---------------------------------------


    POTLOK:  cpu time      0.4419: real time      0.4439
    SETDIJ:  cpu time      0.1298: real time      0.1311
    TRIAL :  cpu time      1.9486: real time      1.9646
    CORREC:  cpu time      2.5467: real time      2.5755
    EDDIAG:  cpu time      1.8814: real time      1.8983
    CHARGE:  cpu time      0.0750: real time      0.0753
    --------------------------------------------
      LOOP:  cpu time      7.0251: real time      7.0987

 eigenvalue-minimisations  :     0
 total energy-change (2. order) :-0.7573614E-05  (-0.2178168E-05)
 number of electron      15.9999998 magnetization 
 augmentation part        1.3178934 magnetization 

 Free energy of the ion-electron system (eV)
  ---------------------------------------------------
  alpha Z        PSCENC =         0.76241339
  Ewald energy   TEWEN  =       421.95445347
  -Hartree energ DENC   =     -1270.55163560
  -exchange      EXHF   =        46.56756866
  -V(xc)+E(xc)   XCENC  =        53.41133557
  PAW double counting   =      1641.46843717    -1643.92294126
  entropy T*S    EENTRO =        -0.00000000
  eigenvalues    EBANDS =      -282.20907667
  atomic energy  EATOM  =      1004.08185434
  ---------------------------------------------------
  free energy    TOTEN  =       -28.43739573 eV

  energy without entropy =      -28.43739573  energy(sigma->0) =      -28.43739573
  exchange ACFDT corr.  =        -0.00000000  see jH, gK, PRB 81, 115126


--------------------------------------------------------------------------------------------------------


  average scaling for gradient   1.1385


 average (electrostatic) potential at core
  the test charge radii are     0.6991  0.7215
  (the norm of the test charge is              1.0000)
       1 -60.1988       2 -76.5636       3 -76.4707
 
 
 
 E-fermi :  -9.6942     XC(G=0):  -0.4774     alpha+bet : -0.1782

 Fermi energy:        -9.6941653140

 k-point     1 :       0.0000    0.0000    0.0000
  band No.  band energies     occupation 
      1     -32.0245      2.00000
      2     -30.8586      2.00000
      3     -15.5358      2.00000
      4     -14.1789      2.00000
      5     -14.0595      2.00000
      6     -14.0549      2.00000
      7     -10.1989      2.00000
      8     -10.1946      2.00000
      9      -0.7693      0.00000
     10       0.2901      0.00000
     11       0.3130      0.00000
     12       0.3712      0.00000
     13       0.5968      0.00000
     14       0.6710      0.00000
     15       0.8892      0.00000
     16       0.9111      0.00000
     17       0.9560      0.00000
     18       2.1166      0.00000
     19       2.3339      0.00000
     20       2.3855      0.00000
     21       2.4513      0.00000
     22       2.4547      0.00000
     23       2.5730      0.00000
     24       2.5906      0.00000
     25       2.7893      0.00000
     26       3.2436      0.00000
     27       3.2521      0.00000
     28       3.3231      0.00000
     29       3.3418      0.00000
     30       3.3455      0.00000
     31       3.3604      0.00000
     32       3.3678      0.00000
     33       3.3861      0.00000
     34       3.4028      0.00000
     35       3.4405      0.00000
     36       3.8849      0.00000
     37       3.9984      0.00000
     38       4.0627      0.00000
     39       4.1096      0.00000
     40       4.1300      0.00000


--------------------------------------------------------------------------------------------------------


 soft charge-density along one line, spin component           1
         0         1         2         3         4         5         6         7         8         9
 total charge-density along one line
 
 pseudopotential strength for first ion, spin component:           1
 10.297  13.699  -0.000   0.000   0.000   0.001  -0.001   0.001
 13.699  18.225  -0.000   0.000   0.000   0.001  -0.001   0.001
 -0.000  -0.000  -4.468   0.008  -0.011   8.715  -0.013   0.018
  0.000   0.000   0.008  -4.483   0.026  -0.013   8.740  -0.044
  0.000   0.000  -0.011   0.026  -4.501   0.018  -0.044   8.772
  0.001   0.001   8.715  -0.013   0.018 -19.130   0.022  -0.032
 -0.001  -0.001  -0.013   8.740  -0.044   0.022 -19.174   0.076
  0.001   0.001   0.018  -0.044   8.772  -0.032   0.076 -19.229
 total augmentation occupancy for first ion, spin component:           1
 11.926  -6.090   0.017   0.019  -0.075   0.004   0.003  -0.013
 -6.090   3.304  -0.011  -0.011   0.047  -0.002  -0.002   0.008
  0.017  -0.011   1.282  -0.180   0.256   0.106  -0.031   0.044
  0.019  -0.011  -0.180   1.640  -0.614  -0.031   0.167  -0.105
 -0.075   0.047   0.256  -0.614   2.078   0.044  -0.105   0.242
  0.004  -0.002   0.106  -0.031   0.044   0.009  -0.006   0.008
  0.003  -0.002  -0.031   0.167  -0.105  -0.006   0.020  -0.019
 -0.013   0.008   0.044  -0.105   0.242   0.008  -0.019   0.034


------------------------ aborting loop because EDIFF is reached ----------------------------------------


    FORLOC:  cpu time      0.0082: real time      0.0082
    FORHF :  cpu time      0.4805: real time      0.4833
    FORNL :  cpu time      0.1100: real time      0.1105
    FORCOR:  cpu time      0.5310: real time      0.5331
    OFIELD:  cpu time      0.0011: real time      0.0011
 WARNING: Using user supplied parameters
     VDW_S8 = 2.31
     because the xc functional is not supported. Required parameters not
     defined in the INCAR file will be replaced with PBE defaults ones.


 ---------------------------------------------------------------------------------------------

         DFTD3 V3.0 Rev 1        
 IVDW         = 11
 DF unknown   
 parameters
 VDW_S6       =    1.0000
 VDW_S8       =    2.3100
 VDW_SR       =    1.2170
 rs18     =    1.0000
 alpha6   =   14.0000
 alpha8   =   16.0000
 k1-k3    =   16.0000    1.3333   -4.0000
 VDW_RADIUS   =   50.2022 A
 VDW_CNRADIUS =   21.1671 A
 Edisp (eV)   -0.00855

 E6    (eV) :    -0.0011
 E8    (eV) :    -0.0074
 % E8        : 86.91
    FORVDW:  cpu time      0.0076: real time      0.0079

 VOLUME and BASIS-vectors are now :
 -----------------------------------------------------------------------------
  energy-cutoff  :      400.00
  volume of cell :     1403.01
      direct lattice vectors                 reciprocal lattice vectors
    15.439217752  0.004465832 -0.038376892     0.065085042  0.034326685  0.130688713
    -7.186282924 13.630928377 -0.001416099     0.000303919  0.073536393  0.130825479
    -7.182834812-11.890639092  6.700359279     0.000372844  0.000212151  0.150021909

  length of vectors
    15.439266094 15.409246337 15.423204220     0.149979744  0.150076646  0.150022522


 FORCES acting on ions:
    Electron-Ion                     Ewald-Force                    Non-Local-Force
 -----------------------------------------------------------------------------------------------
   -.558E+01 0.397E+01 -.832E+00   0.623E+01 -.373E+01 0.334E+00   -.131E+00 0.119E+00 -.433E-01
   0.227E+03 0.663E+02 -.150E+03   -.280E+03 -.810E+02 0.186E+03   0.469E+02 0.130E+02 -.323E+02
   -.223E+03 -.690E+02 0.150E+03   0.273E+03 0.848E+02 -.186E+03   -.455E+02 -.142E+02 0.327E+02
 -----------------------------------------------------------------------------------------------
   -.137E+01 0.124E+01 -.447E+00   0.000E+00 0.000E+00 0.000E+00   0.119E+01 -.107E+01 0.381E+00
 
 
 POSITION                                       TOTAL-FORCE (eV/Angst)
 -----------------------------------------------------------------------------------
     -3.78789     10.21382      1.45915         0.511458      0.362588     -0.542584
      2.45873     -3.68027      2.11187         0.947194      0.180476     -0.569146
     -2.85585     10.50088      0.79064        -1.458652     -0.543063      1.111730
 -----------------------------------------------------------------------------------
    total drift:                               -0.000033      0.000265      0.000002


--------------------------------------------------------------------------------------------------------



  FREE ENERGIE OF THE ION-ELECTRON SYSTEM (eV)
  ---------------------------------------------------
  free  energy   TOTEN  =       -28.44594445 eV

  energy  without entropy=      -28.44594445  energy(sigma->0) =      -28.44594445
 


--------------------------------------------------------------------------------------------------------


    POTLOK:  cpu time      0.5864: real time      0.5998


--------------------------------------------------------------------------------------------------------


 writing wavefunctions
     LOOP+:  cpu time     93.9024: real time     96.4512
    4ORBIT:  cpu time      0.0000: real time      0.0000

 total amount of memory used by VASP MPI-rank0   785966. kBytes
=======================================================================

   base      :      30000. kBytes
   nonlr-proj:       2903. kBytes
   fftplans  :      14365. kBytes
   grid      :      66355. kBytes
   one-center:          4. kBytes
   HF        :          9. kBytes
   wavefun   :        612. kBytes
   fock_wrk  :     671718. kBytes
 
  
  
 General timing and accounting informations for this job:
 ========================================================
  
                  Total CPU time used (sec):      107.092
                            User time (sec):       89.947
                          System time (sec):       17.145
                         Elapsed time (sec):      113.723
  
                   Maximum memory used (kb):     1148992.
                   Average memory used (kb):          N/A
  
                          Minor page faults:       786696
                          Major page faults:            2
                 Voluntary context switches:         3281
