 vasp.6.3.2 27Jun22 (build Jul 28 2023 19:28:36) gamma-only                     
  
 executed on             LinuxIFC date 2024.06.16  02:10:27
 running on   40 total cores
 distrk:  each k-point on   40 cores,    1 groups
 distr:  one band on NCORE=   1 cores,   40 groups


--------------------------------------------------------------------------------------------------------


 INCAR:
   SYSTEM = CO2
   ISTART = 0
   ICHARG = 2
   ISMEAR = 0
   SIGMA = 0.1
   ENCUT = 1000.0
   ENAUG = 644.9
   PREC = Accurate
   EDIFF = 1E-7
   NELM = 500
   ALGO = All
   TIME = 0.05
   LREAL = Auto
   IVDW = 11
   LWAVE = .TRUE.
   LCHARG = .TRUE.
   NWRITE = 1

 POTCAR:    PAW_PBE C 08Apr2002                   
 POTCAR:    PAW_PBE O 08Apr2002                   
 -----------------------------------------------------------------------------
|                                                                             |
|           W    W    AA    RRRRR   N    N  II  N    N   GGGG   !!!           |
|           W    W   A  A   R    R  NN   N  II  NN   N  G    G  !!!           |
|           W    W  A    A  R    R  N N  N  II  N N  N  G       !!!           |
|           W WW W  AAAAAA  RRRRR   N  N N  II  N  N N  G  GGG   !            |
|           WW  WW  A    A  R   R   N   NN  II  N   NN  G    G                |
|           W    W  A    A  R    R  N    N  II  N    N   GGGG   !!!           |
|                                                                             |
|     For optimal performance we recommend to set                             |
|       NCORE = 2 up to number-of-cores-per-socket                            |
|     NCORE specifies how many cores store one orbital (NPAR=cpu/NCORE).      |
|     This setting can greatly improve the performance of VASP for DFT.       |
|     The default, NCORE=1 might be grossly inefficient on modern             |
|     multi-core architectures or massively parallel machines. Do your        |
|     own testing! More info at https://www.vasp.at/wiki/index.php/NCORE      |
|     Unfortunately you need to use the default for GW and RPA                |
|     calculations (for HF NCORE is supported but not extensively tested      |
|     yet).                                                                   |
|                                                                             |
 -----------------------------------------------------------------------------

 POTCAR:    PAW_PBE C 08Apr2002                   
  local pseudopotential read in
  partial core-charges read in
  partial kinetic energy density read in
  atomic valenz-charges read in
  non local Contribution for L=           0  read in
    real space projection operators read in
  non local Contribution for L=           0  read in
    real space projection operators read in
  non local Contribution for L=           1  read in
    real space projection operators read in
  non local Contribution for L=           1  read in
    real space projection operators read in
    PAW grid and wavefunctions read in
 
   number of l-projection  operators is LMAX  =           4
   number of lm-projection operators is LMMAX =           8
 
 POTCAR:    PAW_PBE O 08Apr2002                   
  local pseudopotential read in
  partial core-charges read in
  partial kinetic energy density read in
  kinetic energy density of atom read in
  atomic valenz-charges read in
  non local Contribution for L=           0  read in
    real space projection operators read in
  non local Contribution for L=           0  read in
    real space projection operators read in
  non local Contribution for L=           1  read in
    real space projection operators read in
  non local Contribution for L=           1  read in
    real space projection operators read in
    PAW grid and wavefunctions read in
 
   number of l-projection  operators is LMAX  =           4
   number of lm-projection operators is LMMAX =           8
 
 -----------------------------------------------------------------------------
|                                                                             |
|               ----> ADVICE to this user running VASP <----                  |
|                                                                             |
|     You have a (more or less) 'small supercell' and for smaller cells       |
|     it is recommended to use the reciprocal-space projection scheme!        |
|     The real-space optimization is not efficient for small cells and it     |
|     is also less accurate ...                                               |
|     Therefore, set LREAL=.FALSE. in the INCAR file.                         |
|                                                                             |
 -----------------------------------------------------------------------------

 Optimization of the real space projectors (new method)

 maximal supplied QI-value         = 25.13
 optimisation between [QCUT,QGAM] = [ 16.09, 32.17] = [ 72.45,289.82] Ry 
 Optimized for a Real-space Cutoff    0.98 Angstroem

   l    n(q)    QCUT    max X(q) W(low)/X(q) W(high)/X(q)  e(spline) 
   0      9    16.085   115.676    0.97E-04    0.82E-04    0.14E-06
   0      9    16.085    87.132    0.96E-04    0.82E-04    0.14E-06
   1      9    16.085     4.429    0.14E-03    0.12E-03    0.10E-06
   1      9    16.085     2.733    0.11E-03    0.89E-04    0.96E-07
 Optimization of the real space projectors (new method)

 maximal supplied QI-value         = 24.76
 optimisation between [QCUT,QGAM] = [ 16.09, 32.18] = [ 72.51,290.02] Ry 
 Optimized for a Real-space Cutoff    0.95 Angstroem

   l    n(q)    QCUT    max X(q) W(low)/X(q) W(high)/X(q)  e(spline) 
   0      9    16.091    20.381    0.21E-03    0.16E-03    0.13E-06
   0      9    16.091    15.268    0.23E-03    0.17E-03    0.14E-06
   1      9    16.091     5.964    0.15E-03    0.23E-03    0.12E-06
   1      9    16.091     5.382    0.12E-03    0.19E-03    0.11E-06
  PAW_PBE C 08Apr2002                   :
 energy of atom  1       EATOM= -147.1560
 kinetic energy error for atom=    0.0010 (will be added to EATOM!!)
  PAW_PBE O 08Apr2002                   :
 energy of atom  2       EATOM= -432.3788
 kinetic energy error for atom=    0.0022 (will be added to EATOM!!)
 
 
 POSCAR:  C  O
  positions in direct lattice
  No initial velocities read in
 exchange correlation table for  LEXCH =        8
   RHO(1)=    0.500       N(1)  =     2000
   RHO(2)=  100.500       N(2)  =     4000
 


--------------------------------------------------------------------------------------------------------


 ion  position               nearest neighbor table
   1  0.285  0.924  0.194-   3 1.17   2 1.18
   2  0.289  0.868  0.113-   1 1.18
   3  0.278  0.978  0.271-   1 1.17
 
  LATTYP: Found a trigonal (rhomboedric) cell.
 ALAT       =    15.2580629150
 COS(alpha) =    -0.4652854440
  
  Lattice vectors:
  
 A1 = (  15.2580133847,   0.0063748139,   0.0245793813)
 A2 = (  -7.1051429847,  13.5027912564,   0.0244990776)
 A3 = (  -7.1050972695, -11.7730711972,   6.6121759879)


Analysis of symmetry for initial positions (statically):
=====================================================================
 Subroutine PRICEL returns:
 Original cell was already a primitive cell.
 

 Routine SETGRP: Setting up the symmetry group for a 
 trigonal (rhombohedral) supercell.


 Subroutine GETGRP returns: Found  1 space group operations
 (whereof  1 operations were pure point group operations)
 out of a pool of 12 trial point group operations.


The static configuration has the point symmetry C_1 .


Analysis of symmetry for dynamics (positions and initial velocities):
=====================================================================
 Subroutine PRICEL returns:
 Original cell was already a primitive cell.
 

 Routine SETGRP: Setting up the symmetry group for a 
 trigonal (rhombohedral) supercell.


 Subroutine GETGRP returns: Found  1 space group operations
 (whereof  1 operations were pure point group operations)
 out of a pool of 12 trial point group operations.


The dynamic configuration has the point symmetry C_1 .


 Subroutine INISYM returns: Found  1 space group operations
 (whereof  1 operations are pure point group operations),
 and found     1 'primitive' translations


----------------------------------------------------------------------------------------

                                     Primitive cell                                     

  volume of cell :    1371.3921

  direct lattice vectors                    reciprocal lattice vectors
    15.258013385  0.006374814  0.024579381     0.065314117  0.034130566  0.130953070
    -7.105142985 13.502791256  0.024499078    -0.000241744  0.073693958  0.130953351
    -7.105097270-11.773071197  6.612175988    -0.000241896 -0.000399920  0.150264152

  length of vectors
    15.258034514 15.258080769 15.258062915     0.150264886  0.150265226  0.150264879

  position of ions in fractional coordinates (direct lattice)
     0.285016706  0.923921231  0.193952621
     0.289232368  0.868085903  0.113061372
     0.277903362  0.978317722  0.270697466

  ion indices of the primitive-cell ions
   primitive index   ion index
                 1           1
                 2           2
                 3           3

----------------------------------------------------------------------------------------

 
 
 KPOINTS: KPOINTS                                 

Automatic generation of k-mesh.
 Grid dimensions read from file:
 generate k-points for:    1    1    1

 Generating k-lattice:

  Cartesian coordinates                     Fractional coordinates (reciprocal lattice)
     0.065314117  0.034130566  0.130953070     1.000000000  0.000000000  0.000000000
    -0.000241744  0.073693958  0.130953351     0.000000000  1.000000000  0.000000000
    -0.000241896 -0.000399920  0.150264152     0.000000000 -0.000000000  1.000000000

  Length of vectors
     0.150264886  0.150265226  0.150264879

  Shift w.r.t. Gamma in fractional coordinates (k-lattice)
     0.000000000  0.000000000  0.000000000

 
 Subroutine IBZKPT returns following result:
 ===========================================
 
 Found      1 irreducible k-points:
 
 Following reciprocal coordinates:
            Coordinates               Weight
  0.000000  0.000000  0.000000      1.000000
 
 Following cartesian coordinates:
            Coordinates               Weight
  0.000000  0.000000  0.000000      1.000000
 


--------------------------------------------------------------------------------------------------------




 Dimension of arrays:
   k-points           NKPTS =      1   k-points in BZ     NKDIM =      1   number of bands    NBANDS=     40
   number of dos      NEDOS =    301   number of ions     NIONS =      3
   non local maximal  LDIM  =      4   non local SUM 2l+1 LMDIM =      8
   total plane-waves  NPLWV = ******
   max r-space proj   IRMAX =  11923   max aug-charges    IRDMAX=  38945
   dimension x,y,z NGX =   160 NGY =  160 NGZ =  160
   dimension x,y,z NGXF=   320 NGYF=  320 NGZF=  320
   support grid    NGXF=   320 NGYF=  320 NGZF=  320
   ions per type =               1   2
   NGX,Y,Z   is equivalent  to a cutoff of  17.43, 17.43, 17.43 a.u.
   NGXF,Y,Z  is equivalent  to a cutoff of  34.87, 34.87, 34.87 a.u.

 SYSTEM =  CO2                                     
 POSCAR =   C  O                                   

 Startparameter for this run:
   NWRITE =      1    write-flag & timer
   PREC   = accura    normal or accurate (medium, high low for compatibility)
   ISTART =      0    job   : 0-new  1-cont  2-samecut
   ICHARG =      2    charge: 1-file 2-atom 10-const
   ISPIN  =      1    spin polarized calculation?
   LNONCOLLINEAR =      F non collinear calculations
   LSORBIT =      F    spin-orbit coupling
   INIWAV =      1    electr: 0-lowe 1-rand  2-diag
   LASPH  =      F    aspherical Exc in radial PAW
 Electronic Relaxation 1
   ENCUT  = 1000.0 eV  73.50 Ry    8.57 a.u.  39.34 39.34 39.34*2*pi/ulx,y,z
   ENINI  = 1000.0     initial cutoff
   ENAUG  =  644.9 eV  augmentation charge cutoff
   NELM   =    500;   NELMIN=  2; NELMDL= -5     # of ELM steps 
   EDIFF  = 0.1E-06   stopping-criterion for ELM
   LREAL  =      T    real-space projection
   NLSPLINE    = F    spline interpolate recip. space projectors
   LCOMPAT=      F    compatible to vasp.4.4
   GGA_COMPAT  = T    GGA compatible to vasp.4.4-vasp.4.6
   LMAXPAW     = -100 max onsite density
   LMAXMIX     =    2 max onsite mixed and CHGCAR
   VOSKOWN=      0    Vosko Wilk Nusair interpolation
   ROPT   =   -0.00025  -0.00025
 Ionic relaxation
   EDIFFG = 0.1E-05   stopping-criterion for IOM
   NSW    =      0    number of steps for IOM
   NBLOCK =      1;   KBLOCK =      1    inner block; outer block 
   IBRION =     -1    ionic relax: 0-MD 1-quasi-New 2-CG
   NFREE  =      0    steps in history (QN), initial steepest desc. (CG)
   ISIF   =      2    stress and relaxation
   IWAVPR =     10    prediction:  0-non 1-charg 2-wave 3-comb
   ISYM   =      2    0-nonsym 1-usesym 2-fastsym
   LCORR  =      T    Harris-Foulkes like correction to forces

   POTIM  = 0.5000    time-step for ionic-motion
   TEIN   =    0.0    initial temperature
   TEBEG  =    0.0;   TEEND  =   0.0 temperature during run
   SMASS  =  -3.00    Nose mass-parameter (am)
   estimated Nose-frequenzy (Omega)   =  0.10E-29 period in steps = 0.13E+47 mass=  -0.532E-26a.u.
   SCALEE = 1.0000    scale energy and forces
   NPACO  =    256;   APACO  = 10.0  distance and # of slots for P.C.
   PSTRESS=    0.0 pullay stress

  Mass of Ions in am
   POMASS =  12.01 16.00
  Ionic Valenz
   ZVAL   =   4.00  6.00
  Atomic Wigner-Seitz radii
   RWIGS  =  -1.00 -1.00
  virtual crystal weights 
   VCA    =   1.00  1.00
   NELECT =      16.0000    total number of electrons
   NUPDOWN=      -1.0000    fix difference up-down

 DOS related values:
   EMIN   =  10.00;   EMAX   =-10.00  energy-range for DOS
   EFERMI =   0.00
   ISMEAR =     0;   SIGMA  =   0.10  broadening in eV -4-tet -1-fermi 0-gaus

 Electronic relaxation 2 (details)
   IALGO  =     58    algorithm
   LDIAG  =      T    sub-space diagonalisation (order eigenvalues)
   LSUBROT=      F    optimize rotation matrix (better conditioning)
   TURBO    =      0    0=normal 1=particle mesh
   IRESTART =      0    0=no restart 2=restart with 2 vectors
   NREBOOT  =      0    no. of reboots
   NMIN     =      0    reboot dimension
   EREF     =   0.00    reference energy to select bands
   IMIX   =      4    mixing-type and parameters
     AMIX     =   0.40;   BMIX     =  1.00
     AMIX_MAG =   1.60;   BMIX_MAG =  1.00
     AMIN     =   0.10
     WC   =   100.;   INIMIX=   1;  MIXPRE=   1;  MAXMIX= -45

 Intra band minimization:
   WEIMIN = 0.0000     energy-eigenvalue tresh-hold
   EBREAK =  0.63E-09  absolut break condition
   DEPER  =   0.30     relativ break condition  

   TIME   =   0.05     timestep for ELM

  volume/ion in A,a.u.               =     457.13      3084.87
  Fermi-wavevector in a.u.,A,eV,Ry     =   0.371302  0.701660  1.875772  0.137865
  Thomas-Fermi vector in A             =   1.299325
 
 Write flags
   LWAVE        =      T    write WAVECAR
   LDOWNSAMPLE  =      F    k-point downsampling of WAVECAR
   LCHARG       =      T    write CHGCAR
   LVTOT        =      F    write LOCPOT, total local potential
   LVHAR        =      F    write LOCPOT, Hartree potential only
   LELF         =      F    write electronic localiz. function (ELF)
   LORBIT       =      0    0 simple, 1 ext, 2 COOP (PROOUT), +10 PAW based schemes


 Dipole corrections
   LMONO  =      F    monopole corrections only (constant potential shift)
   LDIPOL =      F    correct potential (dipole corrections)
   IDIPOL =      0    1-x, 2-y, 3-z, 4-all directions 
   EPSILON=  1.0000000 bulk dielectric constant

 Exchange correlation treatment:
   GGA     =    --    GGA type
   LEXCH   =     8    internal setting for exchange type
   LIBXC   =     F    Libxc                    
   VOSKOWN =     0    Vosko Wilk Nusair interpolation
   LHFCALC =     F    Hartree Fock is set to
   LHFONE  =     F    Hartree Fock one center treatment
   AEXX    =    0.0000 exact exchange contribution

 Linear response parameters
   LEPSILON=     F    determine dielectric tensor
   LRPA    =     F    only Hartree local field effects (RPA)
   LNABLA  =     F    use nabla operator in PAW spheres
   LVEL    =     F    velocity operator in full k-point grid
   CSHIFT  =0.1000    complex shift for real part using Kramers Kronig
   OMEGAMAX=  -1.0    maximum frequency
   DEG_THRESHOLD= 0.2000000E-02 threshold for treating states as degnerate
   RTIME   =   -0.100 relaxation time in fs
  (WPLASMAI=    0.000 imaginary part of plasma frequency in eV, 0.658/RTIME)
   DFIELD  = 0.0000000 0.0000000 0.0000000 field for delta impulse in time
 
  Optional k-point grid parameters
   LKPOINTS_OPT  =     F    use optional k-point grid
   KPOINTS_OPT_MODE=     1    mode for optional k-point grid
 
 Orbital magnetization related:
   ORBITALMAG=     F  switch on orbital magnetization
   LCHIMAG   =     F  perturbation theory with respect to B field
   DQ        =  0.001000  dq finite difference perturbation B field
   LLRAUG    =     F  two centre corrections for induced B field



--------------------------------------------------------------------------------------------------------


 Static calculation
 charge density and potential will be updated during run
 non-spin polarized calculation
 Conjugate gradient for all bands (Freysoldt, et al. PRB 79, 241103 (2009))
 preconditioned conjugated gradient                                        
 perform sub-space diagonalisation
    before iterative eigenvector-optimisation
 modified Broyden-mixing scheme, WC =      100.0
 initial mixing is a Kerker type mixing with AMIX =  0.4000 and BMIX =      1.0000
 Hartree-type preconditioning will be used
 using additional bands           32
 real space projection scheme for non local part
 use partial core corrections
 no Harris-corrections to forces 
 use gradient corrections 
 use of overlap-Matrix (Vanderbilt PP)
 Gauss-broadening in eV      SIGMA  =   0.10


--------------------------------------------------------------------------------------------------------


  energy-cutoff  :     1000.00
  volume of cell :     1371.39
      direct lattice vectors                 reciprocal lattice vectors
    15.258013385  0.006374814  0.024579381     0.065314117  0.034130566  0.130953070
    -7.105142985 13.502791256  0.024499078    -0.000241744  0.073693958  0.130953351
    -7.105097270-11.773071197  6.612175988    -0.000241896 -0.000399920  0.150264152

  length of vectors
    15.258034514 15.258080769 15.258062915     0.150264886  0.150265226  0.150264879


 
 k-points in units of 2pi/SCALE and weight: KPOINTS                                 
   0.00000000  0.00000000  0.00000000       1.000
 
 k-points in reciprocal lattice and weights: KPOINTS                                 
   0.00000000  0.00000000  0.00000000       1.000
 
 position of ions in fractional coordinates (direct lattice) 
   0.28501671  0.92392123  0.19395262
   0.28923237  0.86808590  0.11306137
   0.27790336  0.97831772  0.27069747
 
 position of ions in cartesian coordinates  (Angst):
  -3.59385598 10.19391444  1.31208961
  -2.55807517 10.39234695  0.77595815
  -4.63416591 10.02485103  1.82069786
 


--------------------------------------------------------------------------------------------------------


 use serial FFT for orbitals x direction half grid
 k-point   1 :   0.0000 0.0000 0.0000  plane waves:   49218

 maximum and minimum number of plane-waves per node :     49218    49218

 maximum number of plane-waves:     49218
 maximum index in each direction: 
   IXMAX=   39   IYMAX=   34   IZMAX=   34
   IXMIN=    0   IYMIN=  -39   IZMIN=  -39


 serial   3D FFT for wavefunctions
 parallel 3D FFT for charge:
    minimum data exchange during FFTs selected (reduces bandwidth)


 total amount of memory used by VASP MPI-rank0   289212. kBytes
=======================================================================

   base      :      30000. kBytes
   nonlr-proj:       2297. kBytes
   fftplans  :      44218. kBytes
   grid      :     210329. kBytes
   one-center:          4. kBytes
   wavefun   :       2364. kBytes
 
     INWAV:  cpu time      0.0003: real time      0.0005
 Broyden mixing: mesh for mixing (old mesh)
   NGX = 79   NGY = 79   NGZ = 79
  (NGX  =320   NGY  =320   NGZ  =320)
  gives a total of 493039 points

 initial charge density was supplied:
 charge density of overlapping atoms calculated
 number of electron      16.0000000 magnetization 
 keeping initial charge density in first step


--------------------------------------------------------------------------------------------------------


 Maximum index for non-local projection operator        11534
 Maximum index for augmentation-charges         1013 (set IRDMAX)


--------------------------------------------------------------------------------------------------------


 First call to EWALD:  gamma=   0.160
 Maximum number of real-space cells 4x 4x 4
 Maximum number of reciprocal cells 4x 4x 4

    FEWALD:  cpu time      0.0016: real time      0.0017


--------------------------------------- Iteration      1(   1)  ---------------------------------------


    POTLOK:  cpu time      0.7507: real time      0.7559
    SETDIJ:  cpu time      0.0022: real time      0.0022
    TRIAL :  cpu time      0.8229: real time      0.8672
    CORREC:  cpu time      0.0001: real time      0.0001
    --------------------------------------------
      LOOP:  cpu time      1.5823: real time      1.6343

 eigenvalue-minimisations  :    80
 total energy-change (2. order) : 0.1867987E+03  (-0.8232274E+03)
 number of electron      16.0000000 magnetization 
 augmentation part       16.0000000 magnetization 

 Free energy of the ion-electron system (eV)
  ---------------------------------------------------
  alpha Z        PSCENC =         0.77999380
  Ewald energy   TEWEN  =       415.52520223
  -Hartree energ DENC   =     -1225.50010194
  -exchange      EXHF   =         0.00000000
  -V(xc)+E(xc)   XCENC  =        67.51643854
  PAW double counting   =       801.62100016     -805.78774730
  entropy T*S    EENTRO =        -0.00106794
  eigenvalues    EBANDS =       -79.26336881
  atomic energy  EATOM  =      1011.90834462
  ---------------------------------------------------
  free energy    TOTEN  =       186.79869336 eV

  energy without entropy =      186.79976130  energy(sigma->0) =      186.79922733


--------------------------------------------------------------------------------------------------------




--------------------------------------- Iteration      1(   2)  ---------------------------------------


    TRIAL :  cpu time      1.1041: real time      1.1084
    CORREC:  cpu time      0.0000: real time      0.0000
    --------------------------------------------
      LOOP:  cpu time      1.1071: real time      1.1138

 eigenvalue-minimisations  :   120
 total energy-change (2. order) :-0.1915740E+03  (-0.1915579E+03)
 number of electron      16.0000000 magnetization 
 augmentation part       16.0000000 magnetization 

 Free energy of the ion-electron system (eV)
  ---------------------------------------------------
  alpha Z        PSCENC =         0.77999380
  Ewald energy   TEWEN  =       415.52520223
  -Hartree energ DENC   =     -1225.50010194
  -exchange      EXHF   =         0.00000000
  -V(xc)+E(xc)   XCENC  =        67.51643854
  PAW double counting   =       801.62100016     -805.78774730
  entropy T*S    EENTRO =        -0.00000000
  eigenvalues    EBANDS =      -270.83844767
  atomic energy  EATOM  =      1011.90834462
  ---------------------------------------------------
  free energy    TOTEN  =        -4.77531756 eV

  energy without entropy =       -4.77531756  energy(sigma->0) =       -4.77531756


--------------------------------------------------------------------------------------------------------




--------------------------------------- Iteration      1(   3)  ---------------------------------------


    TRIAL :  cpu time      1.1017: real time      1.1055
    CORREC:  cpu time      0.0000: real time      0.0000
    --------------------------------------------
      LOOP:  cpu time      1.1068: real time      1.1110

 eigenvalue-minimisations  :   120
 total energy-change (2. order) :-0.1990082E+02  (-0.1990082E+02)
 number of electron      16.0000000 magnetization 
 augmentation part       16.0000000 magnetization 

 Free energy of the ion-electron system (eV)
  ---------------------------------------------------
  alpha Z        PSCENC =         0.77999380
  Ewald energy   TEWEN  =       415.52520223
  -Hartree energ DENC   =     -1225.50010194
  -exchange      EXHF   =         0.00000000
  -V(xc)+E(xc)   XCENC  =        67.51643854
  PAW double counting   =       801.62100016     -805.78774730
  entropy T*S    EENTRO =        -0.00000000
  eigenvalues    EBANDS =      -290.73927058
  atomic energy  EATOM  =      1011.90834462
  ---------------------------------------------------
  free energy    TOTEN  =       -24.67614047 eV

  energy without entropy =      -24.67614047  energy(sigma->0) =      -24.67614047


--------------------------------------------------------------------------------------------------------




--------------------------------------- Iteration      1(   4)  ---------------------------------------


    TRIAL :  cpu time      0.8137: real time      0.8158
    CORREC:  cpu time      0.0000: real time      0.0000
    --------------------------------------------
      LOOP:  cpu time      0.8151: real time      0.8215

 eigenvalue-minimisations  :    80
 total energy-change (2. order) :-0.3823512E-01  (-0.3823511E-01)
 number of electron      16.0000000 magnetization 
 augmentation part       16.0000000 magnetization 

 Free energy of the ion-electron system (eV)
  ---------------------------------------------------
  alpha Z        PSCENC =         0.77999380
  Ewald energy   TEWEN  =       415.52520223
  -Hartree energ DENC   =     -1225.50010194
  -exchange      EXHF   =         0.00000000
  -V(xc)+E(xc)   XCENC  =        67.51643854
  PAW double counting   =       801.62100016     -805.78774730
  entropy T*S    EENTRO =        -0.00000000
  eigenvalues    EBANDS =      -290.77750569
  atomic energy  EATOM  =      1011.90834462
  ---------------------------------------------------
  free energy    TOTEN  =       -24.71437558 eV

  energy without entropy =      -24.71437558  energy(sigma->0) =      -24.71437558


--------------------------------------------------------------------------------------------------------




--------------------------------------- Iteration      1(   5)  ---------------------------------------


    TRIAL :  cpu time      1.1023: real time      1.1075
    CORREC:  cpu time      0.0000: real time      0.0000
    CHARGE:  cpu time      0.2725: real time      0.2746
    --------------------------------------------
      LOOP:  cpu time      1.3753: real time      1.3875

 eigenvalue-minimisations  :   120
 total energy-change (2. order) :-0.1525847E-03  (-0.1525703E-03)
 number of electron      16.0000001 magnetization 
 augmentation part        1.5153309 magnetization 

 Free energy of the ion-electron system (eV)
  ---------------------------------------------------
  alpha Z        PSCENC =         0.77999380
  Ewald energy   TEWEN  =       415.52520223
  -Hartree energ DENC   =     -1225.50010194
  -exchange      EXHF   =         0.00000000
  -V(xc)+E(xc)   XCENC  =        67.51643854
  PAW double counting   =       801.62100016     -805.78774730
  entropy T*S    EENTRO =        -0.00000000
  eigenvalues    EBANDS =      -290.77765828
  atomic energy  EATOM  =      1011.90834462
  ---------------------------------------------------
  free energy    TOTEN  =       -24.71452817 eV

  energy without entropy =      -24.71452817  energy(sigma->0) =      -24.71452817


--------------------------------------------------------------------------------------------------------




--------------------------------------- Iteration      1(   6)  ---------------------------------------


    POTLOK:  cpu time      0.7198: real time      0.7228
    SETDIJ:  cpu time      0.0025: real time      0.0025
    TRIAL :  cpu time      0.5832: real time      0.6370
    CORREC:  cpu time      4.5661: real time      4.5816
    CHARGE:  cpu time      0.2733: real time      0.2740
    --------------------------------------------
      LOOP:  cpu time      6.1474: real time      6.2246

 eigenvalue-minimisations  :     0
 total energy-change (2. order) : 0.4459405E+01  (-0.6287560E-01)
 number of electron      16.0000001 magnetization 
 augmentation part        1.3671383 magnetization 

 Free energy of the ion-electron system (eV)
  ---------------------------------------------------
  alpha Z        PSCENC =         0.77999380
  Ewald energy   TEWEN  =       415.52520223
  -Hartree energ DENC   =     -1308.22472324
  -exchange      EXHF   =         0.00000000
  -V(xc)+E(xc)   XCENC  =        72.43287800
  PAW double counting   =      1562.52733943    -1567.78562997
  entropy T*S    EENTRO =        -0.00000000
  eigenvalues    EBANDS =      -207.41852756
  atomic energy  EATOM  =      1011.90834462
  ---------------------------------------------------
  free energy    TOTEN  =       -20.25512268 eV

  energy without entropy =      -20.25512268  energy(sigma->0) =      -20.25512268


--------------------------------------------------------------------------------------------------------




--------------------------------------- Iteration      1(   7)  ---------------------------------------


    POTLOK:  cpu time      0.7297: real time      0.7317
    SETDIJ:  cpu time      0.0023: real time      0.0023
    TRIAL :  cpu time      0.5552: real time      0.5570
    CORREC:  cpu time      1.1386: real time      1.1421
    CHARGE:  cpu time      0.2705: real time      0.2714
    --------------------------------------------
      LOOP:  cpu time      2.6972: real time      2.7110

 eigenvalue-minimisations  :     0
 total energy-change (2. order) :-0.2184568E+01  (-0.3259791E+00)
 number of electron      16.0000001 magnetization 
 augmentation part        1.3407304 magnetization 

 Free energy of the ion-electron system (eV)
  ---------------------------------------------------
  alpha Z        PSCENC =         0.77999380
  Ewald energy   TEWEN  =       415.52520223
  -Hartree energ DENC   =     -1260.96083219
  -exchange      EXHF   =         0.00000000
  -V(xc)+E(xc)   XCENC  =        69.64441556
  PAW double counting   =      1500.24788831    -1504.92280194
  entropy T*S    EENTRO =        -0.00000000
  eigenvalues    EBANDS =      -254.66190147
  atomic energy  EATOM  =      1011.90834462
  ---------------------------------------------------
  free energy    TOTEN  =       -22.43969108 eV

  energy without entropy =      -22.43969108  energy(sigma->0) =      -22.43969108


--------------------------------------------------------------------------------------------------------




--------------------------------------- Iteration      1(   8)  ---------------------------------------


    POTLOK:  cpu time      0.7351: real time      0.7369
    SETDIJ:  cpu time      0.0057: real time      0.0057
    TRIAL :  cpu time      0.5571: real time      0.5593
    CORREC:  cpu time      1.1344: real time      1.1379
    CHARGE:  cpu time      0.2683: real time      0.2689
    --------------------------------------------
      LOOP:  cpu time      2.7016: real time      2.7143

 eigenvalue-minimisations  :     0
 total energy-change (2. order) :-0.3395801E+00  (-0.1282359E+00)
 number of electron      16.0000001 magnetization 
 augmentation part        1.3384063 magnetization 

 Free energy of the ion-electron system (eV)
  ---------------------------------------------------
  alpha Z        PSCENC =         0.77999380
  Ewald energy   TEWEN  =       415.52520223
  -Hartree energ DENC   =     -1265.76026808
  -exchange      EXHF   =         0.00000000
  -V(xc)+E(xc)   XCENC  =        69.78072666
  PAW double counting   =      1516.09608035    -1520.58643361
  entropy T*S    EENTRO =        -0.00000000
  eigenvalues    EBANDS =      -250.52291719
  atomic energy  EATOM  =      1011.90834462
  ---------------------------------------------------
  free energy    TOTEN  =       -22.77927123 eV

  energy without entropy =      -22.77927123  energy(sigma->0) =      -22.77927123


--------------------------------------------------------------------------------------------------------




--------------------------------------- Iteration      1(   9)  ---------------------------------------


    POTLOK:  cpu time      0.7373: real time      0.7397
    SETDIJ:  cpu time      0.0017: real time      0.0017
    TRIAL :  cpu time      0.5557: real time      0.5577
    CORREC:  cpu time      1.1326: real time      1.1360
    CHARGE:  cpu time      0.2750: real time      0.2757
    --------------------------------------------
      LOOP:  cpu time      2.7031: real time      2.7164

 eigenvalue-minimisations  :     0
 total energy-change (2. order) :-0.1276478E+00  (-0.4894463E-01)
 number of electron      16.0000001 magnetization 
 augmentation part        1.3312964 magnetization 

 Free energy of the ion-electron system (eV)
  ---------------------------------------------------
  alpha Z        PSCENC =         0.77999380
  Ewald energy   TEWEN  =       415.52520223
  -Hartree energ DENC   =     -1268.33430149
  -exchange      EXHF   =         0.00000000
  -V(xc)+E(xc)   XCENC  =        69.86156915
  PAW double counting   =      1529.96038939    -1534.41801641
  entropy T*S    EENTRO =        -0.00000000
  eigenvalues    EBANDS =      -248.19010031
  atomic energy  EATOM  =      1011.90834462
  ---------------------------------------------------
  free energy    TOTEN  =       -22.90691903 eV

  energy without entropy =      -22.90691903  energy(sigma->0) =      -22.90691903


--------------------------------------------------------------------------------------------------------




--------------------------------------- Iteration      1(  10)  ---------------------------------------


    POTLOK:  cpu time      0.7279: real time      0.7304
    SETDIJ:  cpu time      0.0022: real time      0.0023
    TRIAL :  cpu time      0.5547: real time      0.5576
    CORREC:  cpu time      1.1256: real time      1.1318
    CHARGE:  cpu time      0.2740: real time      0.2747
    --------------------------------------------
      LOOP:  cpu time      2.6851: real time      2.7021

 eigenvalue-minimisations  :     0
 total energy-change (2. order) :-0.4760120E-01  (-0.1431630E-01)
 number of electron      16.0000001 magnetization 
 augmentation part        1.3305883 magnetization 

 Free energy of the ion-electron system (eV)
  ---------------------------------------------------
  alpha Z        PSCENC =         0.77999380
  Ewald energy   TEWEN  =       415.52520223
  -Hartree energ DENC   =     -1265.20005501
  -exchange      EXHF   =         0.00000000
  -V(xc)+E(xc)   XCENC  =        69.68156513
  PAW double counting   =      1533.67665996    -1538.10235946
  entropy T*S    EENTRO =        -0.00000000
  eigenvalues    EBANDS =      -251.22387150
  atomic energy  EATOM  =      1011.90834462
  ---------------------------------------------------
  free energy    TOTEN  =       -22.95452023 eV

  energy without entropy =      -22.95452023  energy(sigma->0) =      -22.95452023


--------------------------------------------------------------------------------------------------------




--------------------------------------- Iteration      1(  11)  ---------------------------------------


    POTLOK:  cpu time      0.7277: real time      0.7297
    SETDIJ:  cpu time      0.0021: real time      0.0021
    TRIAL :  cpu time      0.5563: real time      0.5580
    CORREC:  cpu time      1.1291: real time      1.1324
    CHARGE:  cpu time      0.2738: real time      0.2748
    --------------------------------------------
      LOOP:  cpu time      2.6901: real time      2.7030

 eigenvalue-minimisations  :     0
 total energy-change (2. order) :-0.1416243E-01  (-0.5066612E-02)
 number of electron      16.0000001 magnetization 
 augmentation part        1.3331930 magnetization 

 Free energy of the ion-electron system (eV)
  ---------------------------------------------------
  alpha Z        PSCENC =         0.77999380
  Ewald energy   TEWEN  =       415.52520223
  -Hartree energ DENC   =     -1264.52839668
  -exchange      EXHF   =         0.00000000
  -V(xc)+E(xc)   XCENC  =        69.65109815
  PAW double counting   =      1536.35748069    -1540.77890245
  entropy T*S    EENTRO =        -0.00000000
  eigenvalues    EBANDS =      -251.88350302
  atomic energy  EATOM  =      1011.90834462
  ---------------------------------------------------
  free energy    TOTEN  =       -22.96868266 eV

  energy without entropy =      -22.96868266  energy(sigma->0) =      -22.96868266


--------------------------------------------------------------------------------------------------------




--------------------------------------- Iteration      1(  12)  ---------------------------------------


    POTLOK:  cpu time      0.7281: real time      0.7299
    SETDIJ:  cpu time      0.0024: real time      0.0024
    TRIAL :  cpu time      0.5566: real time      0.5586
    CORREC:  cpu time      1.1295: real time      1.1334
    CHARGE:  cpu time      0.2741: real time      0.2748
    --------------------------------------------
      LOOP:  cpu time      2.6913: real time      2.7054

 eigenvalue-minimisations  :     0
 total energy-change (2. order) :-0.5056710E-02  (-0.1594932E-02)
 number of electron      16.0000001 magnetization 
 augmentation part        1.3331989 magnetization 

 Free energy of the ion-electron system (eV)
  ---------------------------------------------------
  alpha Z        PSCENC =         0.77999380
  Ewald energy   TEWEN  =       415.52520223
  -Hartree energ DENC   =     -1264.72071290
  -exchange      EXHF   =         0.00000000
  -V(xc)+E(xc)   XCENC  =        69.66780233
  PAW double counting   =      1537.76744390    -1542.20504820
  entropy T*S    EENTRO =        -0.00000000
  eigenvalues    EBANDS =      -251.69676515
  atomic energy  EATOM  =      1011.90834462
  ---------------------------------------------------
  free energy    TOTEN  =       -22.97373937 eV

  energy without entropy =      -22.97373937  energy(sigma->0) =      -22.97373937


--------------------------------------------------------------------------------------------------------




--------------------------------------- Iteration      1(  13)  ---------------------------------------


    POTLOK:  cpu time      0.7295: real time      0.7314
    SETDIJ:  cpu time      0.0023: real time      0.0023
    TRIAL :  cpu time      0.5578: real time      0.5601
    CORREC:  cpu time      1.1351: real time      1.1460
    CHARGE:  cpu time      0.2741: real time      0.2747
    --------------------------------------------
      LOOP:  cpu time      2.6994: real time      2.7201

 eigenvalue-minimisations  :     0
 total energy-change (2. order) :-0.1593275E-02  (-0.4548882E-03)
 number of electron      16.0000001 magnetization 
 augmentation part        1.3329044 magnetization 

 Free energy of the ion-electron system (eV)
  ---------------------------------------------------
  alpha Z        PSCENC =         0.77999380
  Ewald energy   TEWEN  =       415.52520223
  -Hartree energ DENC   =     -1264.22991515
  -exchange      EXHF   =         0.00000000
  -V(xc)+E(xc)   XCENC  =        69.64622132
  PAW double counting   =      1536.79939982    -1541.24261288
  entropy T*S    EENTRO =        -0.00000000
  eigenvalues    EBANDS =      -252.16196640
  atomic energy  EATOM  =      1011.90834462
  ---------------------------------------------------
  free energy    TOTEN  =       -22.97533264 eV

  energy without entropy =      -22.97533264  energy(sigma->0) =      -22.97533264


--------------------------------------------------------------------------------------------------------




--------------------------------------- Iteration      1(  14)  ---------------------------------------


    POTLOK:  cpu time      0.7283: real time      0.7304
    SETDIJ:  cpu time      0.0025: real time      0.0025
    TRIAL :  cpu time      0.5587: real time      0.5605
    CORREC:  cpu time      1.1309: real time      1.1345
    CHARGE:  cpu time      0.2746: real time      0.2756
    --------------------------------------------
      LOOP:  cpu time      2.6961: real time      2.7096

 eigenvalue-minimisations  :     0
 total energy-change (2. order) :-0.4523579E-03  (-0.1249102E-03)
 number of electron      16.0000001 magnetization 
 augmentation part        1.3327502 magnetization 

 Free energy of the ion-electron system (eV)
  ---------------------------------------------------
  alpha Z        PSCENC =         0.77999380
  Ewald energy   TEWEN  =       415.52520223
  -Hartree energ DENC   =     -1264.12584024
  -exchange      EXHF   =         0.00000000
  -V(xc)+E(xc)   XCENC  =        69.64248694
  PAW double counting   =      1535.97839592    -1540.42182435
  entropy T*S    EENTRO =        -0.00000000
  eigenvalues    EBANDS =      -252.26254390
  atomic energy  EATOM  =      1011.90834462
  ---------------------------------------------------
  free energy    TOTEN  =       -22.97578500 eV

  energy without entropy =      -22.97578500  energy(sigma->0) =      -22.97578500


--------------------------------------------------------------------------------------------------------




--------------------------------------- Iteration      1(  15)  ---------------------------------------


    POTLOK:  cpu time      0.7296: real time      0.7316
    SETDIJ:  cpu time      0.0023: real time      0.0023
    TRIAL :  cpu time      0.5574: real time      0.5594
    CORREC:  cpu time      1.1347: real time      1.1381
    CHARGE:  cpu time      0.2743: real time      0.2749
    --------------------------------------------
      LOOP:  cpu time      2.7002: real time      2.7122

 eigenvalue-minimisations  :     0
 total energy-change (2. order) :-0.1231783E-03  (-0.3233326E-04)
 number of electron      16.0000001 magnetization 
 augmentation part        1.3325144 magnetization 

 Free energy of the ion-electron system (eV)
  ---------------------------------------------------
  alpha Z        PSCENC =         0.77999380
  Ewald energy   TEWEN  =       415.52520223
  -Hartree energ DENC   =     -1264.17026972
  -exchange      EXHF   =         0.00000000
  -V(xc)+E(xc)   XCENC  =        69.64506589
  PAW double counting   =      1535.44373109    -1539.88658265
  entropy T*S    EENTRO =        -0.00000000
  eigenvalues    EBANDS =      -252.22139344
  atomic energy  EATOM  =      1011.90834462
  ---------------------------------------------------
  free energy    TOTEN  =       -22.97590818 eV

  energy without entropy =      -22.97590818  energy(sigma->0) =      -22.97590818


--------------------------------------------------------------------------------------------------------




--------------------------------------- Iteration      1(  16)  ---------------------------------------


    POTLOK:  cpu time      0.7322: real time      0.7344
    SETDIJ:  cpu time      0.0023: real time      0.0023
    TRIAL :  cpu time      0.5569: real time      0.5590
    CORREC:  cpu time      1.1332: real time      1.1368
    CHARGE:  cpu time      0.2736: real time      0.2743
    --------------------------------------------
      LOOP:  cpu time      2.6992: real time      2.7123

 eigenvalue-minimisations  :     0
 total energy-change (2. order) :-0.3187900E-04  (-0.9033129E-05)
 number of electron      16.0000001 magnetization 
 augmentation part        1.3325024 magnetization 

 Free energy of the ion-electron system (eV)
  ---------------------------------------------------
  alpha Z        PSCENC =         0.77999380
  Ewald energy   TEWEN  =       415.52520223
  -Hartree energ DENC   =     -1264.12004524
  -exchange      EXHF   =         0.00000000
  -V(xc)+E(xc)   XCENC  =        69.64240709
  PAW double counting   =      1534.95872130    -1539.40054773
  entropy T*S    EENTRO =        -0.00000000
  eigenvalues    EBANDS =      -252.27001613
  atomic energy  EATOM  =      1011.90834462
  ---------------------------------------------------
  free energy    TOTEN  =       -22.97594006 eV

  energy without entropy =      -22.97594006  energy(sigma->0) =      -22.97594006


--------------------------------------------------------------------------------------------------------




--------------------------------------- Iteration      1(  17)  ---------------------------------------


    POTLOK:  cpu time      0.7244: real time      0.7266
    SETDIJ:  cpu time      0.0021: real time      0.0021
    TRIAL :  cpu time      0.5628: real time      0.5645
    CORREC:  cpu time      1.1269: real time      1.1306
    CHARGE:  cpu time      0.2726: real time      0.2733
    --------------------------------------------
      LOOP:  cpu time      2.6900: real time      2.7029

 eigenvalue-minimisations  :     0
 total energy-change (2. order) :-0.8659407E-05  (-0.2655490E-05)
 number of electron      16.0000001 magnetization 
 augmentation part        1.3324804 magnetization 

 Free energy of the ion-electron system (eV)
  ---------------------------------------------------
  alpha Z        PSCENC =         0.77999380
  Ewald energy   TEWEN  =       415.52520223
  -Hartree energ DENC   =     -1264.14303812
  -exchange      EXHF   =         0.00000000
  -V(xc)+E(xc)   XCENC  =        69.64369705
  PAW double counting   =      1534.69140507    -1539.13294328
  entropy T*S    EENTRO =        -0.00000000
  eigenvalues    EBANDS =      -252.24861009
  atomic energy  EATOM  =      1011.90834462
  ---------------------------------------------------
  free energy    TOTEN  =       -22.97594872 eV

  energy without entropy =      -22.97594872  energy(sigma->0) =      -22.97594872


--------------------------------------------------------------------------------------------------------




--------------------------------------- Iteration      1(  18)  ---------------------------------------


    POTLOK:  cpu time      0.7250: real time      0.7273
    SETDIJ:  cpu time      0.0022: real time      0.0022
    TRIAL :  cpu time      0.5563: real time      0.5580
    CORREC:  cpu time      1.1285: real time      1.1321
    CHARGE:  cpu time      0.2711: real time      0.2721
    --------------------------------------------
      LOOP:  cpu time      2.6842: real time      2.6972

 eigenvalue-minimisations  :     0
 total energy-change (2. order) :-0.2544950E-05  (-0.8013503E-06)
 number of electron      16.0000001 magnetization 
 augmentation part        1.3324799 magnetization 

 Free energy of the ion-electron system (eV)
  ---------------------------------------------------
  alpha Z        PSCENC =         0.77999380
  Ewald energy   TEWEN  =       415.52520223
  -Hartree energ DENC   =     -1264.14698817
  -exchange      EXHF   =         0.00000000
  -V(xc)+E(xc)   XCENC  =        69.64378838
  PAW double counting   =      1534.51261125    -1538.95400215
  entropy T*S    EENTRO =        -0.00000000
  eigenvalues    EBANDS =      -252.24490122
  atomic energy  EATOM  =      1011.90834462
  ---------------------------------------------------
  free energy    TOTEN  =       -22.97595126 eV

  energy without entropy =      -22.97595126  energy(sigma->0) =      -22.97595126


--------------------------------------------------------------------------------------------------------




--------------------------------------- Iteration      1(  19)  ---------------------------------------


    POTLOK:  cpu time      0.7237: real time      0.7259
    SETDIJ:  cpu time      0.0022: real time      0.0022
    TRIAL :  cpu time      0.5557: real time      0.5585
    CORREC:  cpu time      1.1257: real time      1.1294
    CHARGE:  cpu time      0.2722: real time      0.2729
    --------------------------------------------
      LOOP:  cpu time      2.6802: real time      2.6944

 eigenvalue-minimisations  :     0
 total energy-change (2. order) :-0.7706690E-06  (-0.2362897E-06)
 number of electron      16.0000001 magnetization 
 augmentation part        1.3324973 magnetization 

 Free energy of the ion-electron system (eV)
  ---------------------------------------------------
  alpha Z        PSCENC =         0.77999380
  Ewald energy   TEWEN  =       415.52520223
  -Hartree energ DENC   =     -1264.14761614
  -exchange      EXHF   =         0.00000000
  -V(xc)+E(xc)   XCENC  =        69.64376521
  PAW double counting   =      1534.42166290    -1538.86306048
  entropy T*S    EENTRO =        -0.00000000
  eigenvalues    EBANDS =      -252.24424417
  atomic energy  EATOM  =      1011.90834462
  ---------------------------------------------------
  free energy    TOTEN  =       -22.97595203 eV

  energy without entropy =      -22.97595203  energy(sigma->0) =      -22.97595203


--------------------------------------------------------------------------------------------------------




--------------------------------------- Iteration      1(  20)  ---------------------------------------


    POTLOK:  cpu time      0.7251: real time      0.7272
    SETDIJ:  cpu time      0.0022: real time      0.0022
    TRIAL :  cpu time      0.5575: real time      0.5597
    CORREC:  cpu time      1.2340: real time      1.3502
    CHARGE:  cpu time      0.2837: real time      0.2903
    --------------------------------------------
      LOOP:  cpu time      2.8055: real time      2.9353

 eigenvalue-minimisations  :     0
 total energy-change (2. order) :-0.1884978E-06  (-0.7093948E-07)
 number of electron      16.0000001 magnetization 
 augmentation part        1.3324954 magnetization 

 Free energy of the ion-electron system (eV)
  ---------------------------------------------------
  alpha Z        PSCENC =         0.77999380
  Ewald energy   TEWEN  =       415.52520223
  -Hartree energ DENC   =     -1264.15281775
  -exchange      EXHF   =         0.00000000
  -V(xc)+E(xc)   XCENC  =        69.64404003
  PAW double counting   =      1534.39530891    -1538.83678891
  entropy T*S    EENTRO =        -0.00000000
  eigenvalues    EBANDS =      -252.23923515
  atomic energy  EATOM  =      1011.90834462
  ---------------------------------------------------
  free energy    TOTEN  =       -22.97595222 eV

  energy without entropy =      -22.97595222  energy(sigma->0) =      -22.97595222


--------------------------------------------------------------------------------------------------------




--------------------------------------- Iteration      1(  21)  ---------------------------------------


    POTLOK:  cpu time      0.7832: real time      0.8417
    SETDIJ:  cpu time      0.0140: real time      0.0140
    TRIAL :  cpu time      0.6085: real time      0.6187
    CORREC:  cpu time      1.1205: real time      1.1239
    EDDIAG:  cpu time      0.2145: real time      0.2151
    CHARGE:  cpu time      0.2687: real time      0.2694
    --------------------------------------------
      LOOP:  cpu time      3.0110: real time      3.0907

 eigenvalue-minimisations  :     0
 total energy-change (2. order) :-0.3546461E-07  ( 0.2577358E-07)
 number of electron      16.0000001 magnetization 
 augmentation part        1.3324993 magnetization 

 Free energy of the ion-electron system (eV)
  ---------------------------------------------------
  alpha Z        PSCENC =         0.77999380
  Ewald energy   TEWEN  =       415.52520223
  -Hartree energ DENC   =     -1264.15044536
  -exchange      EXHF   =         0.00000000
  -V(xc)+E(xc)   XCENC  =        69.64389579
  PAW double counting   =      1534.38547282    -1538.82696962
  entropy T*S    EENTRO =        -0.00000000
  eigenvalues    EBANDS =      -252.24144653
  atomic energy  EATOM  =      1011.90834462
  ---------------------------------------------------
  free energy    TOTEN  =       -22.97595225 eV

  energy without entropy =      -22.97595225  energy(sigma->0) =      -22.97595225


--------------------------------------------------------------------------------------------------------


  average scaling for gradient   1.2279


 average (electrostatic) potential at core
  the test charge radii are     0.6991  0.7215
  (the norm of the test charge is              1.0000)
       1 -63.5665       2 -82.5158       3 -82.6392
 
 
 
 E-fermi :  -8.4290     XC(G=0):  -0.5219     alpha+bet : -0.1823

 Fermi energy:        -8.4290452569

 k-point     1 :       0.0000    0.0000    0.0000
  band No.  band energies     occupation 
      1     -29.0531      2.00000
      2     -28.0063      2.00000
      3     -13.6621      2.00000
      4     -12.5185      2.00000
      5     -12.5183      2.00000
      6     -12.4697      2.00000
      7      -8.9466      2.00000
      8      -8.9456      2.00000
      9      -1.1014      0.00000
     10      -0.4993      0.00000
     11      -0.4860      0.00000
     12       0.3507      0.00000
     13       0.5520      0.00000
     14       0.6064      0.00000
     15       0.9401      0.00000
     16       0.9562      0.00000
     17       1.0322      0.00000
     18       1.9591      0.00000
     19       2.3274      0.00000
     20       2.3538      0.00000
     21       2.4623      0.00000
     22       2.4715      0.00000
     23       2.5107      0.00000
     24       2.5765      0.00000
     25       2.6433      0.00000
     26       3.1947      0.00000
     27       3.3018      0.00000
     28       3.3369      0.00000
     29       3.3868      0.00000
     30       3.3928      0.00000
     31       3.4225      0.00000
     32       3.4354      0.00000
     33       3.4384      0.00000
     34       3.4691      0.00000
     35       3.5103      0.00000
     36       3.8673      0.00000
     37       3.9830      0.00000
     38       4.0654      0.00000
     39       4.1346      0.00000
     40       4.1459      0.00000


--------------------------------------------------------------------------------------------------------


 soft charge-density along one line, spin component           1
         0         1         2         3         4         5         6         7         8         9
 total charge-density along one line
 
 pseudopotential strength for first ion, spin component:           1
 10.545  14.031  -0.000   0.000  -0.001   0.000  -0.001   0.003
 14.031  18.668  -0.000   0.000  -0.001   0.000  -0.001   0.003
 -0.000  -0.000  -4.620   0.003  -0.007   9.039  -0.005   0.011
  0.000   0.000   0.003  -4.629   0.019  -0.005   9.053  -0.031
 -0.001  -0.001  -0.007   0.019  -4.658   0.011  -0.031   9.099
  0.000   0.000   9.039  -0.005   0.011 -19.837   0.009  -0.017
 -0.001  -0.001  -0.005   9.053  -0.031   0.009 -19.859   0.049
  0.003   0.003   0.011  -0.031   9.099  -0.017   0.049 -19.932
 total augmentation occupancy for first ion, spin component:           1
 10.892  -5.474   0.027   0.008  -0.104   0.005   0.001  -0.018
 -5.474   2.960  -0.018  -0.004   0.065  -0.003  -0.001   0.011
  0.027  -0.018   1.260  -0.092   0.183   0.087  -0.017   0.034
  0.008  -0.004  -0.092   1.490  -0.521  -0.017   0.129  -0.096
 -0.104   0.065   0.183  -0.521   2.264   0.034  -0.096   0.272
  0.005  -0.003   0.087  -0.017   0.034   0.006  -0.003   0.006
  0.001  -0.001  -0.017   0.129  -0.096  -0.003   0.014  -0.018
 -0.018   0.011   0.034  -0.096   0.272   0.006  -0.018   0.040


------------------------ aborting loop because EDIFF is reached ----------------------------------------


    FORLOC:  cpu time      0.0260: real time      0.0261
    FORNL :  cpu time      0.3296: real time      0.3307
    STRESS:  cpu time      0.9632: real time      0.9660
    FORCOR:  cpu time      0.6174: real time      0.6193
    OFIELD:  cpu time      0.0036: real time      0.0036

 ---------------------------------------------------------------------------------------------

         DFTD3 V3.0 Rev 1        
 IVDW         = 11
 DF pbe       
 parameters
 VDW_S6       =    1.0000
 VDW_S8       =    0.7220
 VDW_SR       =    1.2170
 rs18     =    1.0000
 alpha6   =   14.0000
 alpha8   =   16.0000
 k1-k3    =   16.0000    1.3333   -4.0000
 VDW_RADIUS   =   50.2022 A
 VDW_CNRADIUS =   21.1671 A
 Edisp (eV)   -0.00340

 E6    (eV) :    -0.0011
 E8    (eV) :    -0.0023
 % E8        : 67.80
    FORVDW:  cpu time      0.0073: real time      0.0074

  FORCE on cell =-STRESS in cart. coord.  units (eV):
  Direction    XX          YY          ZZ          XY          YZ          ZX
  --------------------------------------------------------------------------------------
  Alpha Z     0.77999     0.77999     0.77999
  Ewald     393.71205  -215.65409   237.46715   131.27770    34.38024  -255.85009
  Hartree   494.30093   199.77224   570.07822    73.30107    60.45502   -93.76521
  E(xc)     -73.42672   -75.01307   -74.64953     0.28951    -0.14582    -0.82383
  Local   -1066.23716  -216.48081 -1027.50386  -194.71032   -99.81704   321.50070
  n-local   -53.08004   -48.59760   -49.62611    -0.81325     0.40729     2.32212
  augment    11.13690    13.18353    12.71544    -0.37386     0.18977     1.06336
  Kinetic   292.75711   341.99329   330.72197    -8.99466     4.55035    25.58518
  Fock        0.00000     0.00000     0.00000     0.00000     0.00000     0.00000
  vdW         0.01295    -0.00011    -0.00138     0.00209    -0.00245    -0.00768
  -------------------------------------------------------------------------------------
  Total      -0.04398    -0.01662    -0.01811    -0.02171     0.01735     0.02455
  in kB      -0.05138    -0.01941    -0.02116    -0.02537     0.02027     0.02868
  external pressure =       -0.03 kB  Pullay stress =        0.00 kB


 VOLUME and BASIS-vectors are now :
 -----------------------------------------------------------------------------
  energy-cutoff  :     1000.00
  volume of cell :     1371.39
      direct lattice vectors                 reciprocal lattice vectors
    15.258013385  0.006374814  0.024579381     0.065314117  0.034130566  0.130953070
    -7.105142985 13.502791256  0.024499078    -0.000241744  0.073693958  0.130953351
    -7.105097270-11.773071197  6.612175988    -0.000241896 -0.000399920  0.150264152

  length of vectors
    15.258034514 15.258080769 15.258062915     0.150264886  0.150265226  0.150264879


 FORCES acting on ions:
    Electron-Ion                     Ewald-Force                    Non-Local-Force
 -----------------------------------------------------------------------------------------------
   -.707E+01 0.518E+01 -.266E+01   0.814E+01 -.501E+01 0.214E+01   -.150E+00 0.181E+00 -.130E+00
   -.248E+03 -.474E+02 0.121E+03   0.302E+03 0.580E+02 -.150E+03   -.555E+02 -.108E+02 0.288E+02
   0.253E+03 0.437E+02 -.119E+03   -.311E+03 -.530E+02 0.147E+03   0.572E+02 0.914E+01 -.278E+02
 -----------------------------------------------------------------------------------------------
   -.162E+01 0.148E+01 -.922E+00   0.000E+00 0.000E+00 0.000E+00   0.162E+01 -.148E+01 0.923E+00
 
 
 POSITION                                       TOTAL-FORCE (eV/Angst)
 -----------------------------------------------------------------------------------
     -3.59386     10.19391      1.31209         0.908442      0.354957     -0.648922
     -2.55808     10.39235      0.77596        -0.469905     -0.190250      0.336635
     -4.63417     10.02485      1.82070        -0.438537     -0.164707      0.312287
 -----------------------------------------------------------------------------------
    total drift:                                0.001799      0.000852      0.001272


--------------------------------------------------------------------------------------------------------



  FREE ENERGIE OF THE ION-ELECTRON SYSTEM (eV)
  ---------------------------------------------------
  free  energy   TOTEN  =       -22.97934783 eV

  energy  without entropy=      -22.97934783  energy(sigma->0) =      -22.97934783
 


--------------------------------------------------------------------------------------------------------


    POTLOK:  cpu time      0.7335: real time      0.7357


--------------------------------------------------------------------------------------------------------


 writing wavefunctions
     LOOP+:  cpu time     83.0792: real time     83.7536
    4ORBIT:  cpu time      0.0000: real time      0.0000

 total amount of memory used by VASP MPI-rank0   289212. kBytes
=======================================================================

   base      :      30000. kBytes
   nonlr-proj:       2297. kBytes
   fftplans  :      44218. kBytes
   grid      :     210329. kBytes
   one-center:          4. kBytes
   wavefun   :       2364. kBytes
 
  
  
 General timing and accounting informations for this job:
 ========================================================
  
                  Total CPU time used (sec):      119.467
                            User time (sec):       98.529
                          System time (sec):       20.938
                         Elapsed time (sec):      120.857
  
                   Maximum memory used (kb):      574112.
                   Average memory used (kb):          N/A
  
                          Minor page faults:       150781
                          Major page faults:            2
                 Voluntary context switches:         3369
