 vasp.6.3.2 27Jun22 (build Jul 28 2023 19:28:36) gamma-only                     
  
 executed on             LinuxIFC date 2024.06.16  14:50:11
 running on   40 total cores
 distrk:  each k-point on   40 cores,    1 groups
 distr:  one band on NCORE=   1 cores,   40 groups


--------------------------------------------------------------------------------------------------------


 INCAR:
   SYSTEM = MOFCO2
   ISTART = 0
   ICHARG = 2
   ISMEAR = 0
   SIGMA = 0.1
   ENCUT = 1000.0
   PREC = Accurate
   EDIFF = 1E-7
   NELM = 500
   IBRION = -1
   NSW = 0
   ALGO = All
   TIME = 0.05
   LREAL = Auto
   IVDW = 11
   LWAVE = .TRUE.
   LCHARG = .TRUE.
   NWRITE = 1

 POTCAR:    PAW_PBE C 08Apr2002                   
 POTCAR:    PAW_PBE H 15Jun2001                   
 POTCAR:    PAW_PBE O 08Apr2002                   
 POTCAR:    PAW_PBE Mg 13Apr2007                  
 -----------------------------------------------------------------------------
|                                                                             |
|           W    W    AA    RRRRR   N    N  II  N    N   GGGG   !!!           |
|           W    W   A  A   R    R  NN   N  II  NN   N  G    G  !!!           |
|           W    W  A    A  R    R  N N  N  II  N N  N  G       !!!           |
|           W WW W  AAAAAA  RRRRR   N  N N  II  N  N N  G  GGG   !            |
|           WW  WW  A    A  R   R   N   NN  II  N   NN  G    G                |
|           W    W  A    A  R    R  N    N  II  N    N   GGGG   !!!           |
|                                                                             |
|     For optimal performance we recommend to set                             |
|       NCORE = 2 up to number-of-cores-per-socket                            |
|     NCORE specifies how many cores store one orbital (NPAR=cpu/NCORE).      |
|     This setting can greatly improve the performance of VASP for DFT.       |
|     The default, NCORE=1 might be grossly inefficient on modern             |
|     multi-core architectures or massively parallel machines. Do your        |
|     own testing! More info at https://www.vasp.at/wiki/index.php/NCORE      |
|     Unfortunately you need to use the default for GW and RPA                |
|     calculations (for HF NCORE is supported but not extensively tested      |
|     yet).                                                                   |
|                                                                             |
 -----------------------------------------------------------------------------

 POTCAR:    PAW_PBE C 08Apr2002                   
  local pseudopotential read in
  partial core-charges read in
  partial kinetic energy density read in
  atomic valenz-charges read in
  non local Contribution for L=           0  read in
    real space projection operators read in
  non local Contribution for L=           0  read in
    real space projection operators read in
  non local Contribution for L=           1  read in
    real space projection operators read in
  non local Contribution for L=           1  read in
    real space projection operators read in
    PAW grid and wavefunctions read in
 
   number of l-projection  operators is LMAX  =           4
   number of lm-projection operators is LMMAX =           8
 
 POTCAR:    PAW_PBE H 15Jun2001                   
  local pseudopotential read in
  atomic valenz-charges read in
  non local Contribution for L=           0  read in
    real space projection operators read in
  non local Contribution for L=           0  read in
    real space projection operators read in
  non local Contribution for L=           1  read in
    real space projection operators read in
    PAW grid and wavefunctions read in
 
   number of l-projection  operators is LMAX  =           3
   number of lm-projection operators is LMMAX =           5
 
 POTCAR:    PAW_PBE O 08Apr2002                   
  local pseudopotential read in
  partial core-charges read in
  partial kinetic energy density read in
  kinetic energy density of atom read in
  atomic valenz-charges read in
  non local Contribution for L=           0  read in
    real space projection operators read in
  non local Contribution for L=           0  read in
    real space projection operators read in
  non local Contribution for L=           1  read in
    real space projection operators read in
  non local Contribution for L=           1  read in
    real space projection operators read in
    PAW grid and wavefunctions read in
 
   number of l-projection  operators is LMAX  =           4
   number of lm-projection operators is LMMAX =           8
 
 POTCAR:    PAW_PBE Mg 13Apr2007                  
  local pseudopotential read in
  partial core-charges read in
  partial kinetic energy density read in
  atomic valenz-charges read in
  non local Contribution for L=           0  read in
    real space projection operators read in
  non local Contribution for L=           0  read in
    real space projection operators read in
  non local Contribution for L=           1  read in
    real space projection operators read in
  non local Contribution for L=           1  read in
    real space projection operators read in
  non local Contribution for L=           2  read in
    real space projection operators read in
    PAW grid and wavefunctions read in
 
   number of l-projection  operators is LMAX  =           5
   number of lm-projection operators is LMMAX =          13
 
 Optimization of the real space projectors (new method)

 maximal supplied QI-value         = 25.13
 optimisation between [QCUT,QGAM] = [ 16.09, 32.17] = [ 72.45,289.82] Ry 
 Optimized for a Real-space Cutoff    0.98 Angstroem

   l    n(q)    QCUT    max X(q) W(low)/X(q) W(high)/X(q)  e(spline) 
   0      9    16.085   115.676    0.97E-04    0.82E-04    0.14E-06
   0      9    16.085    87.132    0.96E-04    0.82E-04    0.14E-06
   1      9    16.085     4.429    0.14E-03    0.12E-03    0.10E-06
   1      9    16.085     2.733    0.11E-03    0.89E-04    0.96E-07
 Optimization of the real space projectors (new method)

 maximal supplied QI-value         = 34.20
 optimisation between [QCUT,QGAM] = [ 16.08, 32.15] = [ 72.37,289.48] Ry 
 Optimized for a Real-space Cutoff    0.90 Angstroem

   l    n(q)    QCUT    max X(q) W(low)/X(q) W(high)/X(q)  e(spline) 
   0      9    16.076    19.460    0.59E-04    0.17E-03    0.11E-06
   0      9    16.076    12.209    0.53E-04    0.16E-03    0.11E-06
   1      8    16.076     4.655    0.15E-03    0.16E-03    0.15E-06
 Optimization of the real space projectors (new method)

 maximal supplied QI-value         = 24.76
 optimisation between [QCUT,QGAM] = [ 16.09, 32.18] = [ 72.51,290.02] Ry 
 Optimized for a Real-space Cutoff    0.95 Angstroem

   l    n(q)    QCUT    max X(q) W(low)/X(q) W(high)/X(q)  e(spline) 
   0      9    16.091    20.381    0.21E-03    0.16E-03    0.13E-06
   0      9    16.091    15.268    0.23E-03    0.17E-03    0.14E-06
   1      9    16.091     5.964    0.15E-03    0.23E-03    0.12E-06
   1      9    16.091     5.382    0.12E-03    0.19E-03    0.11E-06
 Optimization of the real space projectors (new method)

 maximal supplied QI-value         = 18.90
 optimisation between [QCUT,QGAM] = [ 16.06, 32.31] = [ 72.25,292.41] Ry 
 Optimized for a Real-space Cutoff    1.14 Angstroem

   l    n(q)    QCUT    max X(q) W(low)/X(q) W(high)/X(q)  e(spline) 
   0     11    16.063    28.265    0.53E-04    0.32E-04    0.26E-06
   0     11    16.063    10.429    0.41E-04    0.26E-04    0.19E-06
   1     11    16.063    13.073    0.29E-04    0.84E-04    0.50E-06
   1     11    16.063     9.625    0.26E-04    0.67E-04    0.41E-06
   2     10    16.063     4.652    0.36E-04    0.11E-03    0.12E-06
  PAW_PBE C 08Apr2002                   :
 energy of atom  1       EATOM= -147.1560
 kinetic energy error for atom=    0.0010 (will be added to EATOM!!)
  PAW_PBE H 15Jun2001                   :
 energy of atom  2       EATOM=  -12.4884
 kinetic energy error for atom=    0.0001 (will be added to EATOM!!)
  PAW_PBE O 08Apr2002                   :
 energy of atom  3       EATOM= -432.3788
 kinetic energy error for atom=    0.0022 (will be added to EATOM!!)
  PAW_PBE Mg 13Apr2007                  :
 energy of atom  4       EATOM=  -23.0369
 kinetic energy error for atom=    0.0000 (will be added to EATOM!!)
 
 
 POSCAR:  C  H  O Mg
  positions in direct lattice
  No initial velocities read in
 exchange correlation table for  LEXCH =        8
   RHO(1)=    0.500       N(1)  =     2000
   RHO(2)=  100.500       N(2)  =     4000
 


--------------------------------------------------------------------------------------------------------


 ion  position               nearest neighbor table
   1  0.285  0.924  0.194-  33 1.17  32 1.18
   2  0.742  0.349  0.176-  35 1.27  34 1.29   3 1.49
   3  0.615  0.166  0.079-  17 1.40   4 1.43   2 1.49
   4  0.432  0.967  0.866-  36 1.35   5 1.40   3 1.43
   5  0.323  0.808  0.795-  26 1.09   4 1.40  15 1.40
   6  0.176  0.742  0.349-  38 1.27  37 1.29   7 1.49
   7  0.079  0.615  0.166-  21 1.40   8 1.43   6 1.49
   8  0.866  0.432  0.967-  39 1.35   9 1.40   7 1.43
   9  0.795  0.323  0.808-  27 1.09   8 1.40  19 1.40
  10  0.349  0.176  0.742-  41 1.27  40 1.29  11 1.49
  11  0.166  0.079  0.615-  25 1.40  12 1.43  10 1.49
  12  0.967  0.866  0.432-  42 1.35  13 1.40  11 1.43
  13  0.808  0.795  0.323-  28 1.09  12 1.40  23 1.40
  14  0.258  0.651  0.824-  44 1.27  43 1.29  15 1.49
  15  0.385  0.834  0.921-   5 1.40  16 1.43  14 1.49
  16  0.568  0.033  0.134-  45 1.35  17 1.40  15 1.43
  17  0.677  0.193  0.205-  29 1.09  16 1.40   3 1.40
  18  0.824  0.258  0.651-  47 1.27  46 1.29  19 1.49
  19  0.921  0.385  0.834-   9 1.40  20 1.43  18 1.49
  20  0.134  0.568  0.033-  48 1.35  21 1.40  19 1.43
  21  0.205  0.677  0.192-  30 1.09  20 1.40   7 1.40
  22  0.651  0.824  0.258-  50 1.27  49 1.29  23 1.49
  23  0.834  0.921  0.385-  13 1.40  24 1.43  22 1.49
  24  0.033  0.134  0.568-  51 1.35  25 1.40  23 1.43
  25  0.192  0.205  0.677-  31 1.09  24 1.40  11 1.40
  26  0.184  0.655  0.634-   5 1.09
  27  0.634  0.184  0.655-   9 1.09
  28  0.655  0.634  0.184-  13 1.09
  29  0.816  0.345  0.366-  17 1.09
  30  0.366  0.816  0.345-  21 1.09
  31  0.345  0.366  0.816-  25 1.09
  32  0.289  0.868  0.113-   1 1.18  55 2.39
  33  0.278  0.978  0.271-   1 1.17
  34  0.690  0.327  0.062-   2 1.29  53 2.02  52 2.08
  35  0.897  0.522  0.364-   2 1.27  54 2.04
  36  0.360  0.927  0.734-   4 1.35  54 2.02  52 2.04
  37  0.062  0.690  0.327-   6 1.29  54 2.02  53 2.08
  38  0.364  0.897  0.522-   6 1.27  52 2.04
  39  0.734  0.360  0.927-   8 1.35  52 2.02  53 2.04
  40  0.327  0.062  0.690-  10 1.29  52 2.02  54 2.08
  41  0.522  0.364  0.897-  10 1.27  53 2.04
  42  0.927  0.734  0.360-  12 1.35  53 2.02  54 2.04
  43  0.310  0.673  0.938-  14 1.29  56 2.02  55 2.08
  44  0.103  0.478  0.636-  14 1.27  57 2.04
  45  0.640  0.073  0.266-  16 1.35  57 2.02  55 2.04
  46  0.938  0.310  0.673-  18 1.29  57 2.02  56 2.08
  47  0.637  0.103  0.478-  18 1.27  55 2.04
  48  0.266  0.640  0.073-  20 1.35  55 2.02  56 2.04
  49  0.673  0.938  0.310-  22 1.29  55 2.02  57 2.08
  50  0.478  0.636  0.103-  22 1.27  56 2.04
  51  0.073  0.266  0.640-  24 1.35  56 2.02  57 2.04
  52  0.514  0.109  0.782-  40 2.02  39 2.02  36 2.04  38 2.04  34 2.08  53 2.94  54 2.94
  53  0.782  0.514  0.108-  34 2.02  42 2.02  39 2.04  41 2.04  37 2.08  52 2.94  54 2.94
  54  0.108  0.782  0.514-  37 2.02  36 2.02  42 2.04  35 2.04  40 2.08  52 2.94  53 2.94
  55  0.486  0.892  0.218-  49 2.02  48 2.02  45 2.04  47 2.04  43 2.08  32 2.39  57 2.94  56 2.94

  56  0.218  0.486  0.892-  43 2.02  51 2.02  48 2.04  50 2.04  46 2.08  57 2.94  55 2.94
  57  0.892  0.218  0.486-  46 2.02  45 2.02  51 2.04  44 2.04  49 2.08  55 2.94  56 2.94
 
  LATTYP: Found a trigonal (rhomboedric) cell.
 ALAT       =    15.2580629150
 COS(alpha) =    -0.4652854440
  
  Lattice vectors:
  
 A1 = (  15.2580133847,   0.0063748139,   0.0245793813)
 A2 = (  -7.1051429847,  13.5027912564,   0.0244990776)
 A3 = (  -7.1050972695, -11.7730711972,   6.6121759879)


Analysis of symmetry for initial positions (statically):
=====================================================================
 Subroutine PRICEL returns:
 Original cell was already a primitive cell.
 

 Routine SETGRP: Setting up the symmetry group for a 
 trigonal (rhombohedral) supercell.


 Subroutine GETGRP returns: Found  1 space group operations
 (whereof  1 operations were pure point group operations)
 out of a pool of 12 trial point group operations.


The static configuration has the point symmetry C_1 .


Analysis of symmetry for dynamics (positions and initial velocities):
=====================================================================
 Subroutine PRICEL returns:
 Original cell was already a primitive cell.
 

 Routine SETGRP: Setting up the symmetry group for a 
 trigonal (rhombohedral) supercell.


 Subroutine GETGRP returns: Found  1 space group operations
 (whereof  1 operations were pure point group operations)
 out of a pool of 12 trial point group operations.


The dynamic configuration has the point symmetry C_1 .


 Subroutine INISYM returns: Found  1 space group operations
 (whereof  1 operations are pure point group operations),
 and found     1 'primitive' translations


----------------------------------------------------------------------------------------

                                     Primitive cell                                     

  volume of cell :    1371.3921

  direct lattice vectors                    reciprocal lattice vectors
    15.258013385  0.006374814  0.024579381     0.065314117  0.034130566  0.130953070
    -7.105142985 13.502791256  0.024499078    -0.000241744  0.073693958  0.130953351
    -7.105097270-11.773071197  6.612175988    -0.000241896 -0.000399920  0.150264152

  length of vectors
    15.258034514 15.258080769 15.258062915     0.150264886  0.150265226  0.150264879

  position of ions in fractional coordinates (direct lattice)
     0.285016706  0.923921231  0.193952621
     0.742014629  0.348856862  0.175631722
     0.614737524  0.165760157  0.079266010
     0.431866833  0.967146544  0.866357394
     0.323426239  0.807528718  0.795039545
     0.175643119  0.742030584  0.348836056
     0.079288672  0.614759186  0.165750997
     0.866378386  0.431887658  0.967136793
     0.795050085  0.323434695  0.807507662
     0.348844082  0.175654491  0.742009552
     0.165757245  0.079294396  0.614737504
     0.967146759  0.866386509  0.431869766
     0.807527866  0.795064117  0.323426635
     0.257997242  0.651177639  0.824359558
     0.385278725  0.834271091  0.920721278
     0.568151099  0.032884201  0.133630597
     0.676588120  0.192500595  0.204950051
     0.824378159  0.258021185  0.651163243
     0.920727875  0.385284889  0.834247949
     0.133651182  0.568172843  0.032877126
     0.204967516  0.676607365  0.192491024
     0.651166334  0.824380287  0.257996396
     0.834264817  0.920745497  0.385273715
     0.032884585  0.133658688  0.568147370
     0.192498695  0.204973580  0.676584145
     0.184346186  0.655111609  0.633967985
     0.633990768  0.184365023  0.655100302
     0.655100725  0.633992740  0.184340173
     0.815660221  0.344921385  0.366012712
     0.366025548  0.815668040  0.344893598
     0.344905088  0.366036147  0.815648698
     0.289232368  0.868085903  0.113061372
     0.277903362  0.978317722  0.270697466
     0.690035352  0.327096246  0.062389255
     0.897468252  0.521719207  0.363522843
     0.359899457  0.926825036  0.733650689
     0.062416671  0.690061449  0.327089376
     0.363540124  0.897494510  0.521700504
     0.733667396  0.359921155  0.926810583
     0.327098709  0.062430124  0.690049476
     0.521703281  0.363537920  0.897455141
     0.926814389  0.733676598  0.359892517
     0.309969235  0.672930044  0.937593791
     0.102540517  0.478317794  0.636472783
     0.640118158  0.073204996  0.266331859
     0.937620652  0.309979890  0.672925434
     0.636500080  0.102595403  0.478308979
     0.266360937  0.640148723  0.073196549
     0.672927425  0.937623414  0.309972911
     0.478307570  0.636484145  0.102544947
     0.073202609  0.266366054  0.640108405
     0.514132669  0.108518374  0.782412062
     0.782415681  0.514143460  0.108492112
     0.108499851  0.782421723  0.514119197
     0.485895590  0.891540695  0.217600628
     0.217613719  0.485909109  0.891517919
     0.891519652  0.217610760  0.485881812

  ion indices of the primitive-cell ions
   primitive index   ion index
                 1           1
                 2           2
                 3           3
                 4           4
                 5           5
                 6           6
                 7           7
                 8           8
                 9           9
                10          10
                11          11
                12          12
                13          13
                14          14
                15          15
                16          16
                17          17
                18          18
                19          19
                20          20
                21          21
                22          22
                23          23
                24          24
                25          25
                26          26
                27          27
                28          28
                29          29
                30          30
                31          31
                32          32
                33          33
                34          34
                35          35
                36          36
                37          37
                38          38
                39          39
                40          40
                41          41
                42          42
                43          43
                44          44
                45          45
                46          46
                47          47
                48          48
                49          49
                50          50
                51          51
                52          52
                53          53
                54          54
                55          55
                56          56
                57          57

----------------------------------------------------------------------------------------

 
 
 KPOINTS: KPOINTS                                 

Automatic generation of k-mesh.
 Grid dimensions read from file:
 generate k-points for:    1    1    1

 Generating k-lattice:

  Cartesian coordinates                     Fractional coordinates (reciprocal lattice)
     0.065314117  0.034130566  0.130953070     1.000000000  0.000000000  0.000000000
    -0.000241744  0.073693958  0.130953351     0.000000000  1.000000000  0.000000000
    -0.000241896 -0.000399920  0.150264152     0.000000000 -0.000000000  1.000000000

  Length of vectors
     0.150264886  0.150265226  0.150264879

  Shift w.r.t. Gamma in fractional coordinates (k-lattice)
     0.000000000  0.000000000  0.000000000

 
 Subroutine IBZKPT returns following result:
 ===========================================
 
 Found      1 irreducible k-points:
 
 Following reciprocal coordinates:
            Coordinates               Weight
  0.000000  0.000000  0.000000      1.000000
 
 Following cartesian coordinates:
            Coordinates               Weight
  0.000000  0.000000  0.000000      1.000000
 


--------------------------------------------------------------------------------------------------------




 Dimension of arrays:
   k-points           NKPTS =      1   k-points in BZ     NKDIM =      1   number of bands    NBANDS=    160
   number of dos      NEDOS =    301   number of ions     NIONS =     57
   non local maximal  LDIM  =      5   non local SUM 2l+1 LMDIM =     13
   total plane-waves  NPLWV = ******
   max r-space proj   IRMAX =  18547   max aug-charges    IRDMAX= 127061
   dimension x,y,z NGX =   160 NGY =  160 NGZ =  160
   dimension x,y,z NGXF=   320 NGYF=  320 NGZF=  320
   support grid    NGXF=   320 NGYF=  320 NGZF=  320
   ions per type =              25   6  20   6
   NGX,Y,Z   is equivalent  to a cutoff of  17.43, 17.43, 17.43 a.u.
   NGXF,Y,Z  is equivalent  to a cutoff of  34.87, 34.87, 34.87 a.u.

 SYSTEM =  MOFCO2                                  
 POSCAR =   C  H  O Mg                             

 Startparameter for this run:
   NWRITE =      1    write-flag & timer
   PREC   = accura    normal or accurate (medium, high low for compatibility)
   ISTART =      0    job   : 0-new  1-cont  2-samecut
   ICHARG =      2    charge: 1-file 2-atom 10-const
   ISPIN  =      1    spin polarized calculation?
   LNONCOLLINEAR =      F non collinear calculations
   LSORBIT =      F    spin-orbit coupling
   INIWAV =      1    electr: 0-lowe 1-rand  2-diag
   LASPH  =      F    aspherical Exc in radial PAW
 Electronic Relaxation 1
   ENCUT  = 1000.0 eV  73.50 Ry    8.57 a.u.  39.34 39.34 39.34*2*pi/ulx,y,z
   ENINI  = 1000.0     initial cutoff
   ENAUG  =  644.9 eV  augmentation charge cutoff
   NELM   =    500;   NELMIN=  2; NELMDL= -5     # of ELM steps 
   EDIFF  = 0.1E-06   stopping-criterion for ELM
   LREAL  =      T    real-space projection
   NLSPLINE    = F    spline interpolate recip. space projectors
   LCOMPAT=      F    compatible to vasp.4.4
   GGA_COMPAT  = T    GGA compatible to vasp.4.4-vasp.4.6
   LMAXPAW     = -100 max onsite density
   LMAXMIX     =    2 max onsite mixed and CHGCAR
   VOSKOWN=      0    Vosko Wilk Nusair interpolation
   ROPT   =   -0.00025  -0.00025  -0.00025  -0.00025
 Ionic relaxation
   EDIFFG = 0.1E-05   stopping-criterion for IOM
   NSW    =      0    number of steps for IOM
   NBLOCK =      1;   KBLOCK =      1    inner block; outer block 
   IBRION =     -1    ionic relax: 0-MD 1-quasi-New 2-CG
   NFREE  =      0    steps in history (QN), initial steepest desc. (CG)
   ISIF   =      2    stress and relaxation
   IWAVPR =     10    prediction:  0-non 1-charg 2-wave 3-comb
   ISYM   =      2    0-nonsym 1-usesym 2-fastsym
   LCORR  =      T    Harris-Foulkes like correction to forces

   POTIM  = 0.5000    time-step for ionic-motion
   TEIN   =    0.0    initial temperature
   TEBEG  =    0.0;   TEEND  =   0.0 temperature during run
   SMASS  =  -3.00    Nose mass-parameter (am)
   estimated Nose-frequenzy (Omega)   =  0.10E-29 period in steps = 0.13E+47 mass=  -0.532E-26a.u.
   SCALEE = 1.0000    scale energy and forces
   NPACO  =    256;   APACO  = 10.0  distance and # of slots for P.C.
   PSTRESS=    0.0 pullay stress

  Mass of Ions in am
   POMASS =  12.01  1.00 16.00 24.30
  Ionic Valenz
   ZVAL   =   4.00  1.00  6.00  2.00
  Atomic Wigner-Seitz radii
   RWIGS  =  -1.00 -1.00 -1.00 -1.00
  virtual crystal weights 
   VCA    =   1.00  1.00  1.00  1.00
   NELECT =     238.0000    total number of electrons
   NUPDOWN=      -1.0000    fix difference up-down

 DOS related values:
   EMIN   =  10.00;   EMAX   =-10.00  energy-range for DOS
   EFERMI =   0.00
   ISMEAR =     0;   SIGMA  =   0.10  broadening in eV -4-tet -1-fermi 0-gaus

 Electronic relaxation 2 (details)
   IALGO  =     58    algorithm
   LDIAG  =      T    sub-space diagonalisation (order eigenvalues)
   LSUBROT=      F    optimize rotation matrix (better conditioning)
   TURBO    =      0    0=normal 1=particle mesh
   IRESTART =      0    0=no restart 2=restart with 2 vectors
   NREBOOT  =      0    no. of reboots
   NMIN     =      0    reboot dimension
   EREF     =   0.00    reference energy to select bands
   IMIX   =      4    mixing-type and parameters
     AMIX     =   0.40;   BMIX     =  1.00
     AMIX_MAG =   1.60;   BMIX_MAG =  1.00
     AMIN     =   0.10
     WC   =   100.;   INIMIX=   1;  MIXPRE=   1;  MAXMIX= -45

 Intra band minimization:
   WEIMIN = 0.0000     energy-eigenvalue tresh-hold
   EBREAK =  0.16E-09  absolut break condition
   DEPER  =   0.30     relativ break condition  

   TIME   =   0.05     timestep for ELM

  volume/ion in A,a.u.               =      24.06       162.36
  Fermi-wavevector in a.u.,A,eV,Ry     =   0.913159  1.725621 11.345356  0.833860
  Thomas-Fermi vector in A             =   2.037639
 
 Write flags
   LWAVE        =      T    write WAVECAR
   LDOWNSAMPLE  =      F    k-point downsampling of WAVECAR
   LCHARG       =      T    write CHGCAR
   LVTOT        =      F    write LOCPOT, total local potential
   LVHAR        =      F    write LOCPOT, Hartree potential only
   LELF         =      F    write electronic localiz. function (ELF)
   LORBIT       =      0    0 simple, 1 ext, 2 COOP (PROOUT), +10 PAW based schemes


 Dipole corrections
   LMONO  =      F    monopole corrections only (constant potential shift)
   LDIPOL =      F    correct potential (dipole corrections)
   IDIPOL =      0    1-x, 2-y, 3-z, 4-all directions 
   EPSILON=  1.0000000 bulk dielectric constant

 Exchange correlation treatment:
   GGA     =    --    GGA type
   LEXCH   =     8    internal setting for exchange type
   LIBXC   =     F    Libxc                    
   VOSKOWN =     0    Vosko Wilk Nusair interpolation
   LHFCALC =     F    Hartree Fock is set to
   LHFONE  =     F    Hartree Fock one center treatment
   AEXX    =    0.0000 exact exchange contribution

 Linear response parameters
   LEPSILON=     F    determine dielectric tensor
   LRPA    =     F    only Hartree local field effects (RPA)
   LNABLA  =     F    use nabla operator in PAW spheres
   LVEL    =     F    velocity operator in full k-point grid
   CSHIFT  =0.1000    complex shift for real part using Kramers Kronig
   OMEGAMAX=  -1.0    maximum frequency
   DEG_THRESHOLD= 0.2000000E-02 threshold for treating states as degnerate
   RTIME   =   -0.100 relaxation time in fs
  (WPLASMAI=    0.000 imaginary part of plasma frequency in eV, 0.658/RTIME)
   DFIELD  = 0.0000000 0.0000000 0.0000000 field for delta impulse in time
 
  Optional k-point grid parameters
   LKPOINTS_OPT  =     F    use optional k-point grid
   KPOINTS_OPT_MODE=     1    mode for optional k-point grid
 
 Orbital magnetization related:
   ORBITALMAG=     F  switch on orbital magnetization
   LCHIMAG   =     F  perturbation theory with respect to B field
   DQ        =  0.001000  dq finite difference perturbation B field
   LLRAUG    =     F  two centre corrections for induced B field



--------------------------------------------------------------------------------------------------------


 Static calculation
 charge density and potential will be updated during run
 non-spin polarized calculation
 Conjugate gradient for all bands (Freysoldt, et al. PRB 79, 241103 (2009))
 preconditioned conjugated gradient                                        
 perform sub-space diagonalisation
    before iterative eigenvector-optimisation
 modified Broyden-mixing scheme, WC =      100.0
 initial mixing is a Kerker type mixing with AMIX =  0.4000 and BMIX =      1.0000
 Hartree-type preconditioning will be used
 using additional bands           41
 real space projection scheme for non local part
 use partial core corrections
 no Harris-corrections to forces 
 use gradient corrections 
 use of overlap-Matrix (Vanderbilt PP)
 Gauss-broadening in eV      SIGMA  =   0.10


--------------------------------------------------------------------------------------------------------


  energy-cutoff  :     1000.00
  volume of cell :     1371.39
      direct lattice vectors                 reciprocal lattice vectors
    15.258013385  0.006374814  0.024579381     0.065314117  0.034130566  0.130953070
    -7.105142985 13.502791256  0.024499078    -0.000241744  0.073693958  0.130953351
    -7.105097270-11.773071197  6.612175988    -0.000241896 -0.000399920  0.150264152

  length of vectors
    15.258034514 15.258080769 15.258062915     0.150264886  0.150265226  0.150264879


 
 k-points in units of 2pi/SCALE and weight: KPOINTS                                 
   0.00000000  0.00000000  0.00000000       1.000
 
 k-points in reciprocal lattice and weights: KPOINTS                                 
   0.00000000  0.00000000  0.00000000       1.000
 
 position of ions in fractional coordinates (direct lattice) 
   0.28501671  0.92392123  0.19395262
   0.74201463  0.34885686  0.17563172
   0.61473752  0.16576016  0.07926601
   0.43186683  0.96714654  0.86635739
   0.32342624  0.80752872  0.79503954
   0.17564312  0.74203058  0.34883606
   0.07928867  0.61475919  0.16575100
   0.86637839  0.43188766  0.96713679
   0.79505009  0.32343470  0.80750766
   0.34884408  0.17565449  0.74200955
   0.16575725  0.07929440  0.61473750
   0.96714676  0.86638651  0.43186977
   0.80752787  0.79506412  0.32342664
   0.25799724  0.65117764  0.82435956
   0.38527872  0.83427109  0.92072128
   0.56815110  0.03288420  0.13363060
   0.67658812  0.19250060  0.20495005
   0.82437816  0.25802118  0.65116324
   0.92072788  0.38528489  0.83424795
   0.13365118  0.56817284  0.03287713
   0.20496752  0.67660737  0.19249102
   0.65116633  0.82438029  0.25799640
   0.83426482  0.92074550  0.38527371
   0.03288459  0.13365869  0.56814737
   0.19249870  0.20497358  0.67658414
   0.18434619  0.65511161  0.63396798
   0.63399077  0.18436502  0.65510030
   0.65510072  0.63399274  0.18434017
   0.81566022  0.34492138  0.36601271
   0.36602555  0.81566804  0.34489360
   0.34490509  0.36603615  0.81564870
   0.28923237  0.86808590  0.11306137
   0.27790336  0.97831772  0.27069747
   0.69003535  0.32709625  0.06238926
   0.89746825  0.52171921  0.36352284
   0.35989946  0.92682504  0.73365069
   0.06241667  0.69006145  0.32708938
   0.36354012  0.89749451  0.52170050
   0.73366740  0.35992116  0.92681058
   0.32709871  0.06243012  0.69004948
   0.52170328  0.36353792  0.89745514
   0.92681439  0.73367660  0.35989252
   0.30996923  0.67293004  0.93759379
   0.10254052  0.47831779  0.63647278
   0.64011816  0.07320500  0.26633186
   0.93762065  0.30997989  0.67292543
   0.63650008  0.10259540  0.47830898
   0.26636094  0.64014872  0.07319655
   0.67292743  0.93762341  0.30997291
   0.47830757  0.63648415  0.10254495
   0.07320261  0.26636605  0.64010841
   0.51413267  0.10851837  0.78241206
   0.78241568  0.51414346  0.10849211
   0.10849985  0.78242172  0.51411920
   0.48589559  0.89154069  0.21760063
   0.21761372  0.48590911  0.89151792
   0.89151965  0.21761076  0.48588181
 
 position of ions in cartesian coordinates  (Angst):
  -3.59385598 10.19391444  1.31208961
   7.59511078  2.64754683  1.18809279
   7.63873105  1.30893925  0.54329165
  -6.43783813  2.86224369  5.76281678
  -6.45159843  1.54589633  5.28467471
  -5.07078245  5.91373205  2.32906165
  -4.33584125  6.35007213  1.11298466
   3.27898846 -5.54895842  6.42675457
   4.09541460 -5.13450572  5.36684846
  -1.19743264 -6.36168155  4.91917549
  -2.40204151 -6.16559605  4.07076941
   5.53246148  6.62036805  2.90059644
   4.37424905  6.93300785  2.17788070
  -6.54733970 -0.91088336  5.47310514
  -6.59084169  0.42772732  6.11787991
   7.48575173 -1.12559217  0.89835946
   7.49945629  0.19071693  1.37651201
   6.11851738 -4.17692977  4.33218995
   5.38356119 -4.61336960  5.54826430
  -2.23129294  7.28570654  0.23459412
  -3.04766241  6.87118412  1.29439876
   2.24507534  8.09817606  1.74211940
   3.44978811  7.90209766  2.59056074
  -4.48465298 -4.88386445  3.76077320
  -3.32641508 -5.19653070  4.48344660
  -6.34630927  1.38326026  4.21248863
   3.70894842 -5.21905851  4.35173836
   4.18117170  6.39459778  1.25052387
   7.39408289  0.35350742  2.44863915
  -2.66111790  6.95567174  2.30947696
  -3.13343604 -4.65798180  5.41065783
  -2.55807517 10.39234695  0.77595815
  -4.63416591 10.02485103  1.82069786
   7.76122131  3.68659803  0.43750293
   7.40382788  2.77060643  2.43851787
  -6.30653318  3.87969749  4.88257993
  -6.27463269  5.46730709  2.18121255
  -4.53665957  5.97898135  3.48049893
   2.05193633 -6.04678976  6.15508551
  -0.35556713 -7.27893549  4.57229794
  -0.99933933 -5.65370086  5.95586082
   6.37139789  5.67555000  2.42042758
  -6.71344453 -1.94994854  6.22364017
  -6.35615277 -1.03396038  4.22270878
   7.35448569 -2.14299152  1.77856029
   7.32257635 -3.73082814  4.48014175
   5.58433991 -4.24178379  3.18082142
  -1.00427807  7.78374439  0.50621851
   1.40319956  9.01548987  2.08910649
   2.04712062  7.39009271  0.70539501
  -5.32367499 -3.93888995  4.24083442
   1.51449077 -7.74281446  5.18874191
   7.51419913  5.67007421  0.74919627
  -7.55659294  4.51280695  3.42128208
  -0.46679633  9.47955771  1.47259858
  -6.46642219 -3.93338742  5.91212651
   8.60442569 -2.77628522  3.23998031
 


--------------------------------------------------------------------------------------------------------


 use serial FFT for orbitals x direction half grid
 k-point   1 :   0.0000 0.0000 0.0000  plane waves:   49218

 maximum and minimum number of plane-waves per node :     49218    49218

 maximum number of plane-waves:     49218
 maximum index in each direction: 
   IXMAX=   39   IYMAX=   34   IZMAX=   34
   IXMIN=    0   IYMIN=  -39   IZMIN=  -39


 serial   3D FFT for wavefunctions
 parallel 3D FFT for charge:
    minimum data exchange during FFTs selected (reduces bandwidth)


 total amount of memory used by VASP MPI-rank0   357248. kBytes
=======================================================================

   base      :      30000. kBytes
   nonlr-proj:      49783. kBytes
   fftplans  :      44218. kBytes
   grid      :     223518. kBytes
   one-center:        231. kBytes
   wavefun   :       9498. kBytes
 
     INWAV:  cpu time      0.0001: real time      0.0004
 Broyden mixing: mesh for mixing (old mesh)
   NGX = 79   NGY = 79   NGZ = 79
  (NGX  =320   NGY  =320   NGZ  =320)
  gives a total of 493039 points

 initial charge density was supplied:
 charge density of overlapping atoms calculated
 number of electron     238.0000000 magnetization 
 keeping initial charge density in first step


--------------------------------------------------------------------------------------------------------


 Maximum index for non-local projection operator        17929
 Maximum index for augmentation-charges         3172 (set IRDMAX)


--------------------------------------------------------------------------------------------------------


 First call to EWALD:  gamma=   0.160
 Maximum number of real-space cells 4x 4x 4
 Maximum number of reciprocal cells 4x 4x 4

    FEWALD:  cpu time      0.0031: real time      0.0031


--------------------------------------- Iteration      1(   1)  ---------------------------------------


    POTLOK:  cpu time      0.7690: real time      0.7848
    SETDIJ:  cpu time      0.0657: real time      0.0660
    TRIAL :  cpu time      3.5780: real time      3.7248
    CORREC:  cpu time      0.0001: real time      0.0001
    --------------------------------------------
      LOOP:  cpu time      4.4214: real time      4.5865

 eigenvalue-minimisations  :   320
 total energy-change (2. order) : 0.3268785E+04  (-0.1703077E+05)
 number of electron     238.0000000 magnetization 
 augmentation part      238.0000000 magnetization 

 Free energy of the ion-electron system (eV)
  ---------------------------------------------------
  alpha Z        PSCENC =       195.45349252
  Ewald energy   TEWEN  =      9593.36728307
  -Hartree energ DENC   =    -20262.05755912
  -exchange      EXHF   =         0.00000000
  -V(xc)+E(xc)   XCENC  =       604.46591609
  PAW double counting   =     10048.68503353    -9787.77043958
  entropy T*S    EENTRO =        -0.08682149
  eigenvalues    EBANDS =       337.16766162
  atomic energy  EATOM  =     12539.56019330
  ---------------------------------------------------
  free energy    TOTEN  =      3268.78475994 eV

  energy without entropy =     3268.87158143  energy(sigma->0) =     3268.82817068


--------------------------------------------------------------------------------------------------------




--------------------------------------- Iteration      1(   2)  ---------------------------------------


    TRIAL :  cpu time      5.4981: real time      5.5155
    CORREC:  cpu time      0.0001: real time      0.0001
    --------------------------------------------
      LOOP:  cpu time      5.5098: real time      5.5286

 eigenvalue-minimisations  :   560
 total energy-change (2. order) :-0.3270627E+04  (-0.3131945E+04)
 number of electron     238.0000000 magnetization 
 augmentation part      238.0000000 magnetization 

 Free energy of the ion-electron system (eV)
  ---------------------------------------------------
  alpha Z        PSCENC =       195.45349252
  Ewald energy   TEWEN  =      9593.36728307
  -Hartree energ DENC   =    -20262.05755912
  -exchange      EXHF   =         0.00000000
  -V(xc)+E(xc)   XCENC  =       604.46591609
  PAW double counting   =     10048.68503353    -9787.77043958
  entropy T*S    EENTRO =        -0.00000000
  eigenvalues    EBANDS =     -2933.54644926
  atomic energy  EATOM  =     12539.56019330
  ---------------------------------------------------
  free energy    TOTEN  =        -1.84252945 eV

  energy without entropy =       -1.84252945  energy(sigma->0) =       -1.84252945


--------------------------------------------------------------------------------------------------------




--------------------------------------- Iteration      1(   3)  ---------------------------------------


    TRIAL :  cpu time      3.8624: real time      3.8755
    CORREC:  cpu time      0.0001: real time      0.0001
    --------------------------------------------
      LOOP:  cpu time      3.8649: real time      3.8890

 eigenvalue-minimisations  :   360
 total energy-change (2. order) :-0.4401789E+03  (-0.4374749E+03)
 number of electron     238.0000000 magnetization 
 augmentation part      238.0000000 magnetization 

 Free energy of the ion-electron system (eV)
  ---------------------------------------------------
  alpha Z        PSCENC =       195.45349252
  Ewald energy   TEWEN  =      9593.36728307
  -Hartree energ DENC   =    -20262.05755912
  -exchange      EXHF   =         0.00000000
  -V(xc)+E(xc)   XCENC  =       604.46591609
  PAW double counting   =     10048.68503353    -9787.77043958
  entropy T*S    EENTRO =        -0.00000000
  eigenvalues    EBANDS =     -3373.72533530
  atomic energy  EATOM  =     12539.56019330
  ---------------------------------------------------
  free energy    TOTEN  =      -442.02141548 eV

  energy without entropy =     -442.02141548  energy(sigma->0) =     -442.02141548


--------------------------------------------------------------------------------------------------------




--------------------------------------- Iteration      1(   4)  ---------------------------------------


    TRIAL :  cpu time      4.1879: real time      4.2012
    CORREC:  cpu time      0.0001: real time      0.0001
    --------------------------------------------
      LOOP:  cpu time      4.1884: real time      4.2154

 eigenvalue-minimisations  :   400
 total energy-change (2. order) :-0.1220278E+02  (-0.1213904E+02)
 number of electron     238.0000000 magnetization 
 augmentation part      238.0000000 magnetization 

 Free energy of the ion-electron system (eV)
  ---------------------------------------------------
  alpha Z        PSCENC =       195.45349252
  Ewald energy   TEWEN  =      9593.36728307
  -Hartree energ DENC   =    -20262.05755912
  -exchange      EXHF   =         0.00000000
  -V(xc)+E(xc)   XCENC  =       604.46591609
  PAW double counting   =     10048.68503353    -9787.77043958
  entropy T*S    EENTRO =        -0.00000000
  eigenvalues    EBANDS =     -3385.92811558
  atomic energy  EATOM  =     12539.56019330
  ---------------------------------------------------
  free energy    TOTEN  =      -454.22419577 eV

  energy without entropy =     -454.22419577  energy(sigma->0) =     -454.22419577


--------------------------------------------------------------------------------------------------------




--------------------------------------- Iteration      1(   5)  ---------------------------------------


    TRIAL :  cpu time      4.5171: real time      4.5323
    CORREC:  cpu time      0.0001: real time      0.0001
    CHARGE:  cpu time      0.6081: real time      0.6096
    --------------------------------------------
      LOOP:  cpu time      5.1344: real time      5.1569

 eigenvalue-minimisations  :   440
 total energy-change (2. order) :-0.3358568E+00  (-0.3356251E+00)
 number of electron     238.0000003 magnetization 
 augmentation part       17.8376201 magnetization 

 Free energy of the ion-electron system (eV)
  ---------------------------------------------------
  alpha Z        PSCENC =       195.45349252
  Ewald energy   TEWEN  =      9593.36728307
  -Hartree energ DENC   =    -20262.05755912
  -exchange      EXHF   =         0.00000000
  -V(xc)+E(xc)   XCENC  =       604.46591609
  PAW double counting   =     10048.68503353    -9787.77043958
  entropy T*S    EENTRO =        -0.00000000
  eigenvalues    EBANDS =     -3386.26397233
  atomic energy  EATOM  =     12539.56019330
  ---------------------------------------------------
  free energy    TOTEN  =      -454.56005252 eV

  energy without entropy =     -454.56005252  energy(sigma->0) =     -454.56005252


--------------------------------------------------------------------------------------------------------




--------------------------------------- Iteration      1(   6)  ---------------------------------------


    POTLOK:  cpu time      0.7208: real time      0.7232
    SETDIJ:  cpu time      0.0642: real time      0.0645
    TRIAL :  cpu time      2.2678: real time      2.2756
    CORREC:  cpu time      7.4123: real time      7.4370
    CHARGE:  cpu time      0.6031: real time      0.6048
    --------------------------------------------
      LOOP:  cpu time     11.0702: real time     11.1187

 eigenvalue-minimisations  :     0
 total energy-change (2. order) : 0.8312585E+02  (-0.2084722E+01)
 number of electron     238.0000003 magnetization 
 augmentation part       16.0392020 magnetization 

 Free energy of the ion-electron system (eV)
  ---------------------------------------------------
  alpha Z        PSCENC =       195.45349252
  Ewald energy   TEWEN  =      9593.36728307
  -Hartree energ DENC   =    -21886.33104458
  -exchange      EXHF   =         0.00000000
  -V(xc)+E(xc)   XCENC  =       685.64360796
  PAW double counting   =     21103.61231567   -20861.73220112
  entropy T*S    EENTRO =        -0.00000000
  eigenvalues    EBANDS =     -1741.00785237
  atomic energy  EATOM  =     12539.56019330
  ---------------------------------------------------
  free energy    TOTEN  =      -371.43420554 eV

  energy without entropy =     -371.43420554  energy(sigma->0) =     -371.43420554


--------------------------------------------------------------------------------------------------------




--------------------------------------- Iteration      1(   7)  ---------------------------------------


    POTLOK:  cpu time      0.7237: real time      0.7256
    SETDIJ:  cpu time      0.0652: real time      0.0653
    TRIAL :  cpu time      2.2632: real time      2.2721
    CORREC:  cpu time      7.4298: real time      7.4609
    CHARGE:  cpu time      0.6027: real time      0.6043
    --------------------------------------------
      LOOP:  cpu time     11.0853: real time     11.1414

 eigenvalue-minimisations  :     0
 total energy-change (2. order) :-0.3879034E+02  (-0.9815024E-02)
 number of electron     238.0000003 magnetization 
 augmentation part       15.5600011 magnetization 

 Free energy of the ion-electron system (eV)
  ---------------------------------------------------
  alpha Z        PSCENC =       195.45349252
  Ewald energy   TEWEN  =      9593.36728307
  -Hartree energ DENC   =    -21119.51414953
  -exchange      EXHF   =         0.00000000
  -V(xc)+E(xc)   XCENC  =       645.54088549
  PAW double counting   =     20572.41301740   -20322.30865645
  entropy T*S    EENTRO =        -0.00000000
  eigenvalues    EBANDS =     -2514.73661597
  atomic energy  EATOM  =     12539.56019330
  ---------------------------------------------------
  free energy    TOTEN  =      -410.22455017 eV

  energy without entropy =     -410.22455017  energy(sigma->0) =     -410.22455017


--------------------------------------------------------------------------------------------------------




--------------------------------------- Iteration      1(   8)  ---------------------------------------


    POTLOK:  cpu time      0.7258: real time      0.7279
    SETDIJ:  cpu time      0.0642: real time      0.0643
    TRIAL :  cpu time      2.2733: real time      2.2815
    CORREC:  cpu time      1.8621: real time      1.8690
    CHARGE:  cpu time      0.6027: real time      0.6045
    --------------------------------------------
      LOOP:  cpu time      5.5303: real time      5.5614

 eigenvalue-minimisations  :     0
 total energy-change (2. order) :-0.3767648E+01  (-0.1361964E+01)
 number of electron     238.0000003 magnetization 
 augmentation part       15.4606070 magnetization 

 Free energy of the ion-electron system (eV)
  ---------------------------------------------------
  alpha Z        PSCENC =       195.45349252
  Ewald energy   TEWEN  =      9593.36728307
  -Hartree energ DENC   =    -21119.45121626
  -exchange      EXHF   =         0.00000000
  -V(xc)+E(xc)   XCENC  =       644.58999740
  PAW double counting   =     20794.70800418   -20541.38684386
  entropy T*S    EENTRO =        -0.00000000
  eigenvalues    EBANDS =     -2520.83310831
  atomic energy  EATOM  =     12539.56019330
  ---------------------------------------------------
  free energy    TOTEN  =      -413.99219796 eV

  energy without entropy =     -413.99219796  energy(sigma->0) =     -413.99219796


--------------------------------------------------------------------------------------------------------




--------------------------------------- Iteration      1(   9)  ---------------------------------------


    POTLOK:  cpu time      0.7273: real time      0.7294
    SETDIJ:  cpu time      0.0639: real time      0.0641
    TRIAL :  cpu time      2.2663: real time      2.2743
    CORREC:  cpu time      1.8675: real time      1.8742
    CHARGE:  cpu time      0.5913: real time      0.6244
    --------------------------------------------
      LOOP:  cpu time      5.5253: real time      5.5813

 eigenvalue-minimisations  :     0
 total energy-change (2. order) :-0.1338155E+01  (-0.6050052E+00)
 number of electron     238.0000003 magnetization 
 augmentation part       15.5121823 magnetization 

 Free energy of the ion-electron system (eV)
  ---------------------------------------------------
  alpha Z        PSCENC =       195.45349252
  Ewald energy   TEWEN  =      9593.36728307
  -Hartree energ DENC   =    -21110.40179878
  -exchange      EXHF   =         0.00000000
  -V(xc)+E(xc)   XCENC  =       643.76543213
  PAW double counting   =     20912.84773572   -20658.90868772
  entropy T*S    EENTRO =        -0.00000000
  eigenvalues    EBANDS =     -2531.01400357
  atomic energy  EATOM  =     12539.56019330
  ---------------------------------------------------
  free energy    TOTEN  =      -415.33035332 eV

  energy without entropy =     -415.33035332  energy(sigma->0) =     -415.33035332


--------------------------------------------------------------------------------------------------------




--------------------------------------- Iteration      1(  10)  ---------------------------------------


    POTLOK:  cpu time      0.7325: real time      0.7349
    SETDIJ:  cpu time      0.0645: real time      0.0647
    TRIAL :  cpu time      2.2689: real time      2.2772
    CORREC:  cpu time      1.8694: real time      1.8774
    CHARGE:  cpu time      0.6014: real time      0.6031
    --------------------------------------------
      LOOP:  cpu time      5.5375: real time      5.5708

 eigenvalue-minimisations  :     0
 total energy-change (2. order) :-0.5999920E+00  (-0.2190965E+00)
 number of electron     238.0000003 magnetization 
 augmentation part       15.5682951 magnetization 

 Free energy of the ion-electron system (eV)
  ---------------------------------------------------
  alpha Z        PSCENC =       195.45349252
  Ewald energy   TEWEN  =      9593.36728307
  -Hartree energ DENC   =    -21106.17524355
  -exchange      EXHF   =         0.00000000
  -V(xc)+E(xc)   XCENC  =       643.81031386
  PAW double counting   =     20938.45948968   -20684.82076441
  entropy T*S    EENTRO =        -0.00000000
  eigenvalues    EBANDS =     -2535.58510979
  atomic energy  EATOM  =     12539.56019330
  ---------------------------------------------------
  free energy    TOTEN  =      -415.93034533 eV

  energy without entropy =     -415.93034533  energy(sigma->0) =     -415.93034533


--------------------------------------------------------------------------------------------------------




--------------------------------------- Iteration      1(  11)  ---------------------------------------


    POTLOK:  cpu time      0.7303: real time      0.7328
    SETDIJ:  cpu time      0.0653: real time      0.0655
    TRIAL :  cpu time      2.2662: real time      2.2745
    CORREC:  cpu time      1.8663: real time      1.8742
    CHARGE:  cpu time      0.6024: real time      0.6048
    --------------------------------------------
      LOOP:  cpu time      5.5323: real time      5.5645

 eigenvalue-minimisations  :     0
 total energy-change (2. order) :-0.2184362E+00  (-0.8062985E-01)
 number of electron     238.0000003 magnetization 
 augmentation part       15.5728483 magnetization 

 Free energy of the ion-electron system (eV)
  ---------------------------------------------------
  alpha Z        PSCENC =       195.45349252
  Ewald energy   TEWEN  =      9593.36728307
  -Hartree energ DENC   =    -21114.50633627
  -exchange      EXHF   =         0.00000000
  -V(xc)+E(xc)   XCENC  =       644.46461236
  PAW double counting   =     20928.14844221   -20674.77794714
  entropy T*S    EENTRO =        -0.00000000
  eigenvalues    EBANDS =     -2527.85852155
  atomic energy  EATOM  =     12539.56019330
  ---------------------------------------------------
  free energy    TOTEN  =      -416.14878150 eV

  energy without entropy =     -416.14878150  energy(sigma->0) =     -416.14878150


--------------------------------------------------------------------------------------------------------




--------------------------------------- Iteration      1(  12)  ---------------------------------------


    POTLOK:  cpu time      0.7367: real time      0.7391
    SETDIJ:  cpu time      0.0649: real time      0.0652
    TRIAL :  cpu time      2.2685: real time      2.2768
    CORREC:  cpu time      1.8723: real time      1.8790
    CHARGE:  cpu time      0.6044: real time      0.6064
    --------------------------------------------
      LOOP:  cpu time      5.5476: real time      5.5811

 eigenvalue-minimisations  :     0
 total energy-change (2. order) :-0.8047331E-01  (-0.2447433E-01)
 number of electron     238.0000003 magnetization 
 augmentation part       15.5629624 magnetization 

 Free energy of the ion-electron system (eV)
  ---------------------------------------------------
  alpha Z        PSCENC =       195.45349252
  Ewald energy   TEWEN  =      9593.36728307
  -Hartree energ DENC   =    -21106.30730284
  -exchange      EXHF   =         0.00000000
  -V(xc)+E(xc)   XCENC  =       644.07271091
  PAW double counting   =     20890.86187745   -20637.57209927
  entropy T*S    EENTRO =        -0.00000000
  eigenvalues    EBANDS =     -2535.66540995
  atomic energy  EATOM  =     12539.56019330
  ---------------------------------------------------
  free energy    TOTEN  =      -416.22925481 eV

  energy without entropy =     -416.22925481  energy(sigma->0) =     -416.22925481


--------------------------------------------------------------------------------------------------------




--------------------------------------- Iteration      1(  13)  ---------------------------------------


    POTLOK:  cpu time      0.7335: real time      0.7357
    SETDIJ:  cpu time      0.0652: real time      0.0654
    TRIAL :  cpu time      2.2673: real time      2.2756
    CORREC:  cpu time      1.8683: real time      1.8746
    CHARGE:  cpu time      0.6021: real time      0.6045
    --------------------------------------------
      LOOP:  cpu time      5.5378: real time      5.5700

 eigenvalue-minimisations  :     0
 total energy-change (2. order) :-0.2447879E-01  (-0.7217481E-02)
 number of electron     238.0000003 magnetization 
 augmentation part       15.5650774 magnetization 

 Free energy of the ion-electron system (eV)
  ---------------------------------------------------
  alpha Z        PSCENC =       195.45349252
  Ewald energy   TEWEN  =      9593.36728307
  -Hartree energ DENC   =    -21099.57485665
  -exchange      EXHF   =         0.00000000
  -V(xc)+E(xc)   XCENC  =       643.71805299
  PAW double counting   =     20867.92550179   -20614.63143958
  entropy T*S    EENTRO =        -0.00000000
  eigenvalues    EBANDS =     -2542.07196104
  atomic energy  EATOM  =     12539.56019330
  ---------------------------------------------------
  free energy    TOTEN  =      -416.25373360 eV

  energy without entropy =     -416.25373360  energy(sigma->0) =     -416.25373360


--------------------------------------------------------------------------------------------------------




--------------------------------------- Iteration      1(  14)  ---------------------------------------


    POTLOK:  cpu time      0.7357: real time      0.7380
    SETDIJ:  cpu time      0.0652: real time      0.0654
    TRIAL :  cpu time      2.2644: real time      2.2737
    CORREC:  cpu time      1.8771: real time      1.8841
    CHARGE:  cpu time      0.6058: real time      0.6076
    --------------------------------------------
      LOOP:  cpu time      5.5494: real time      5.5849

 eigenvalue-minimisations  :     0
 total energy-change (2. order) :-0.7215865E-02  (-0.1969902E-02)
 number of electron     238.0000003 magnetization 
 augmentation part       15.5668019 magnetization 

 Free energy of the ion-electron system (eV)
  ---------------------------------------------------
  alpha Z        PSCENC =       195.45349252
  Ewald energy   TEWEN  =      9593.36728307
  -Hartree energ DENC   =    -21100.63307554
  -exchange      EXHF   =         0.00000000
  -V(xc)+E(xc)   XCENC  =       643.78018911
  PAW double counting   =     20863.10165925   -20609.82220314
  entropy T*S    EENTRO =        -0.00000000
  eigenvalues    EBANDS =     -2541.06848804
  atomic energy  EATOM  =     12539.56019330
  ---------------------------------------------------
  free energy    TOTEN  =      -416.26094946 eV

  energy without entropy =     -416.26094946  energy(sigma->0) =     -416.26094946


--------------------------------------------------------------------------------------------------------




--------------------------------------- Iteration      1(  15)  ---------------------------------------


    POTLOK:  cpu time      0.7357: real time      0.7378
    SETDIJ:  cpu time      0.0655: real time      0.0657
    TRIAL :  cpu time      2.3530: real time      2.3615
    CORREC:  cpu time      1.8834: real time      1.8937
    CHARGE:  cpu time      0.6058: real time      0.6075
    --------------------------------------------
      LOOP:  cpu time      5.6453: real time      5.6793

 eigenvalue-minimisations  :     0
 total energy-change (2. order) :-0.1972633E-02  (-0.5559691E-03)
 number of electron     238.0000003 magnetization 
 augmentation part       15.5654859 magnetization 

 Free energy of the ion-electron system (eV)
  ---------------------------------------------------
  alpha Z        PSCENC =       195.45349252
  Ewald energy   TEWEN  =      9593.36728307
  -Hartree energ DENC   =    -21101.04051018
  -exchange      EXHF   =         0.00000000
  -V(xc)+E(xc)   XCENC  =       643.80498648
  PAW double counting   =     20861.42628006   -20608.15503640
  entropy T*S    EENTRO =        -0.00000000
  eigenvalues    EBANDS =     -2540.67961095
  atomic energy  EATOM  =     12539.56019330
  ---------------------------------------------------
  free energy    TOTEN  =      -416.26292209 eV

  energy without entropy =     -416.26292209  energy(sigma->0) =     -416.26292209


--------------------------------------------------------------------------------------------------------




--------------------------------------- Iteration      1(  16)  ---------------------------------------


    POTLOK:  cpu time      0.7350: real time      0.7377
    SETDIJ:  cpu time      0.0653: real time      0.0654
    TRIAL :  cpu time      2.2765: real time      2.2868
    CORREC:  cpu time      1.8870: real time      1.8944
    CHARGE:  cpu time      0.6053: real time      0.6086
    --------------------------------------------
      LOOP:  cpu time      5.5700: real time      5.6049

 eigenvalue-minimisations  :     0
 total energy-change (2. order) :-0.5588794E-03  (-0.1679358E-03)
 number of electron     238.0000003 magnetization 
 augmentation part       15.5653262 magnetization 

 Free energy of the ion-electron system (eV)
  ---------------------------------------------------
  alpha Z        PSCENC =       195.45349252
  Ewald energy   TEWEN  =      9593.36728307
  -Hartree energ DENC   =    -21100.24328562
  -exchange      EXHF   =         0.00000000
  -V(xc)+E(xc)   XCENC  =       643.76612477
  PAW double counting   =     20859.84794988   -20606.57257007
  entropy T*S    EENTRO =        -0.00000000
  eigenvalues    EBANDS =     -2541.44266883
  atomic energy  EATOM  =     12539.56019330
  ---------------------------------------------------
  free energy    TOTEN  =      -416.26348097 eV

  energy without entropy =     -416.26348097  energy(sigma->0) =     -416.26348097


--------------------------------------------------------------------------------------------------------




--------------------------------------- Iteration      1(  17)  ---------------------------------------


    POTLOK:  cpu time      0.7360: real time      0.7384
    SETDIJ:  cpu time      0.0654: real time      0.0656
    TRIAL :  cpu time      2.2328: real time      2.3104
    CORREC:  cpu time      1.8731: real time      1.8798
    CHARGE:  cpu time      0.6067: real time      0.6083
    --------------------------------------------
      LOOP:  cpu time      5.5177: real time      5.6169

 eigenvalue-minimisations  :     0
 total energy-change (2. order) :-0.1683853E-03  (-0.5479542E-04)
 number of electron     238.0000003 magnetization 
 augmentation part       15.5658247 magnetization 

 Free energy of the ion-electron system (eV)
  ---------------------------------------------------
  alpha Z        PSCENC =       195.45349252
  Ewald energy   TEWEN  =      9593.36728307
  -Hartree energ DENC   =    -21100.22602983
  -exchange      EXHF   =         0.00000000
  -V(xc)+E(xc)   XCENC  =       643.76598975
  PAW double counting   =     20859.78915076   -20606.51316177
  entropy T*S    EENTRO =        -0.00000000
  eigenvalues    EBANDS =     -2541.46056716
  atomic energy  EATOM  =     12539.56019330
  ---------------------------------------------------
  free energy    TOTEN  =      -416.26364936 eV

  energy without entropy =     -416.26364936  energy(sigma->0) =     -416.26364936


--------------------------------------------------------------------------------------------------------




--------------------------------------- Iteration      1(  18)  ---------------------------------------


    POTLOK:  cpu time      0.7327: real time      0.7348
    SETDIJ:  cpu time      0.0660: real time      0.0661
    TRIAL :  cpu time      2.2694: real time      2.2772
    CORREC:  cpu time      1.8619: real time      1.8810
    CHARGE:  cpu time      0.6052: real time      0.6070
    --------------------------------------------
      LOOP:  cpu time      5.5364: real time      5.5786

 eigenvalue-minimisations  :     0
 total energy-change (2. order) :-0.5490123E-04  (-0.1978709E-04)
 number of electron     238.0000003 magnetization 
 augmentation part       15.5657442 magnetization 

 Free energy of the ion-electron system (eV)
  ---------------------------------------------------
  alpha Z        PSCENC =       195.45349252
  Ewald energy   TEWEN  =      9593.36728307
  -Hartree energ DENC   =    -21100.48535755
  -exchange      EXHF   =         0.00000000
  -V(xc)+E(xc)   XCENC  =       643.77836184
  PAW double counting   =     20860.16971746   -20606.89559182
  entropy T*S    EENTRO =        -0.00000000
  eigenvalues    EBANDS =     -2541.21180309
  atomic energy  EATOM  =     12539.56019330
  ---------------------------------------------------
  free energy    TOTEN  =      -416.26370426 eV

  energy without entropy =     -416.26370426  energy(sigma->0) =     -416.26370426


--------------------------------------------------------------------------------------------------------




--------------------------------------- Iteration      1(  19)  ---------------------------------------


    POTLOK:  cpu time      0.7312: real time      0.7336
    SETDIJ:  cpu time      0.0656: real time      0.0660
    TRIAL :  cpu time      2.2608: real time      2.2693
    CORREC:  cpu time      1.8650: real time      1.8725
    CHARGE:  cpu time      0.6052: real time      0.6069
    --------------------------------------------
      LOOP:  cpu time      5.5296: real time      5.5610

 eigenvalue-minimisations  :     0
 total energy-change (2. order) :-0.1994369E-04  (-0.7430655E-05)
 number of electron     238.0000003 magnetization 
 augmentation part       15.5656550 magnetization 

 Free energy of the ion-electron system (eV)
  ---------------------------------------------------
  alpha Z        PSCENC =       195.45349252
  Ewald energy   TEWEN  =      9593.36728307
  -Hartree energ DENC   =    -21100.44444382
  -exchange      EXHF   =         0.00000000
  -V(xc)+E(xc)   XCENC  =       643.77599907
  PAW double counting   =     20860.17358409   -20606.89918763
  entropy T*S    EENTRO =        -0.00000000
  eigenvalues    EBANDS =     -2541.25064481
  atomic energy  EATOM  =     12539.56019330
  ---------------------------------------------------
  free energy    TOTEN  =      -416.26372420 eV

  energy without entropy =     -416.26372420  energy(sigma->0) =     -416.26372420


--------------------------------------------------------------------------------------------------------




--------------------------------------- Iteration      1(  20)  ---------------------------------------


    POTLOK:  cpu time      0.7314: real time      0.7333
    SETDIJ:  cpu time      0.0651: real time      0.0653
    TRIAL :  cpu time      2.2733: real time      2.2802
    CORREC:  cpu time      1.8686: real time      1.8756
    CHARGE:  cpu time      0.5994: real time      0.6013
    --------------------------------------------
      LOOP:  cpu time      5.5394: real time      5.5696

 eigenvalue-minimisations  :     0
 total energy-change (2. order) :-0.7303965E-05  (-0.2863667E-05)
 number of electron     238.0000003 magnetization 
 augmentation part       15.5657604 magnetization 

 Free energy of the ion-electron system (eV)
  ---------------------------------------------------
  alpha Z        PSCENC =       195.45349252
  Ewald energy   TEWEN  =      9593.36728307
  -Hartree energ DENC   =    -21100.40823505
  -exchange      EXHF   =         0.00000000
  -V(xc)+E(xc)   XCENC  =       643.77405424
  PAW double counting   =     20860.14850828   -20606.87384833
  entropy T*S    EENTRO =        -0.00000000
  eigenvalues    EBANDS =     -2541.28517954
  atomic energy  EATOM  =     12539.56019330
  ---------------------------------------------------
  free energy    TOTEN  =      -416.26373151 eV

  energy without entropy =     -416.26373151  energy(sigma->0) =     -416.26373151


--------------------------------------------------------------------------------------------------------




--------------------------------------- Iteration      1(  21)  ---------------------------------------


    POTLOK:  cpu time      0.7311: real time      0.7337
    SETDIJ:  cpu time      0.0649: real time      0.0650
    TRIAL :  cpu time      2.2689: real time      2.2770
    CORREC:  cpu time      1.8530: real time      1.8787
    CHARGE:  cpu time      0.5967: real time      0.5984
    --------------------------------------------
      LOOP:  cpu time      5.5159: real time      5.5652

 eigenvalue-minimisations  :     0
 total energy-change (2. order) :-0.2638317E-05  (-0.1005362E-05)
 number of electron     238.0000003 magnetization 
 augmentation part       15.5657304 magnetization 

 Free energy of the ion-electron system (eV)
  ---------------------------------------------------
  alpha Z        PSCENC =       195.45349252
  Ewald energy   TEWEN  =      9593.36728307
  -Hartree energ DENC   =    -21100.46664887
  -exchange      EXHF   =         0.00000000
  -V(xc)+E(xc)   XCENC  =       643.77659262
  PAW double counting   =     20860.19772593   -20606.92357744
  entropy T*S    EENTRO =        -0.00000000
  eigenvalues    EBANDS =     -2541.22879529
  atomic energy  EATOM  =     12539.56019330
  ---------------------------------------------------
  free energy    TOTEN  =      -416.26373415 eV

  energy without entropy =     -416.26373415  energy(sigma->0) =     -416.26373415


--------------------------------------------------------------------------------------------------------




--------------------------------------- Iteration      1(  22)  ---------------------------------------


    POTLOK:  cpu time      0.7293: real time      0.7314
    SETDIJ:  cpu time      0.0660: real time      0.0662
    TRIAL :  cpu time      2.2654: real time      2.2733
    CORREC:  cpu time      1.9541: real time      2.0268
    CHARGE:  cpu time      0.5965: real time      0.5986
    --------------------------------------------
      LOOP:  cpu time      5.6122: real time      5.7085

 eigenvalue-minimisations  :     0
 total energy-change (2. order) :-0.8749230E-06  (-0.3840864E-06)
 number of electron     238.0000003 magnetization 
 augmentation part       15.5657112 magnetization 

 Free energy of the ion-electron system (eV)
  ---------------------------------------------------
  alpha Z        PSCENC =       195.45349252
  Ewald energy   TEWEN  =      9593.36728307
  -Hartree energ DENC   =    -21100.45822319
  -exchange      EXHF   =         0.00000000
  -V(xc)+E(xc)   XCENC  =       643.77620165
  PAW double counting   =     20860.14048500   -20606.86622103
  entropy T*S    EENTRO =        -0.00000000
  eigenvalues    EBANDS =     -2541.23694635
  atomic energy  EATOM  =     12539.56019330
  ---------------------------------------------------
  free energy    TOTEN  =      -416.26373502 eV

  energy without entropy =     -416.26373502  energy(sigma->0) =     -416.26373502


--------------------------------------------------------------------------------------------------------




--------------------------------------- Iteration      1(  23)  ---------------------------------------


    POTLOK:  cpu time      0.7291: real time      0.7310
    SETDIJ:  cpu time      0.0643: real time      0.0645
    TRIAL :  cpu time      2.2608: real time      2.2678
    CORREC:  cpu time      1.8580: real time      1.8642
    CHARGE:  cpu time      0.5980: real time      0.5995
    --------------------------------------------
      LOOP:  cpu time      5.5118: real time      5.5408

 eigenvalue-minimisations  :     0
 total energy-change (2. order) :-0.2869347E-06  (-0.1978615E-06)
 number of electron     238.0000003 magnetization 
 augmentation part       15.5657182 magnetization 

 Free energy of the ion-electron system (eV)
  ---------------------------------------------------
  alpha Z        PSCENC =       195.45349252
  Ewald energy   TEWEN  =      9593.36728307
  -Hartree energ DENC   =    -21100.45152897
  -exchange      EXHF   =         0.00000000
  -V(xc)+E(xc)   XCENC  =       643.77589064
  PAW double counting   =     20860.07398705   -20606.79959658
  entropy T*S    EENTRO =        -0.00000000
  eigenvalues    EBANDS =     -2541.24345635
  atomic energy  EATOM  =     12539.56019330
  ---------------------------------------------------
  free energy    TOTEN  =      -416.26373531 eV

  energy without entropy =     -416.26373531  energy(sigma->0) =     -416.26373531


--------------------------------------------------------------------------------------------------------




--------------------------------------- Iteration      1(  24)  ---------------------------------------


    POTLOK:  cpu time      0.7298: real time      0.7328
    SETDIJ:  cpu time      0.0642: real time      0.0645
    TRIAL :  cpu time      2.2639: real time      2.2709
    CORREC:  cpu time      1.8577: real time      1.8640
    CHARGE:  cpu time      0.5967: real time      0.5990
    --------------------------------------------
      LOOP:  cpu time      5.5132: real time      5.5442

 eigenvalue-minimisations  :     0
 total energy-change (2. order) :-0.5804759E-07  (-0.1292792E-06)
 number of electron     238.0000003 magnetization 
 augmentation part       15.5657070 magnetization 

 Free energy of the ion-electron system (eV)
  ---------------------------------------------------
  alpha Z        PSCENC =       195.45349252
  Ewald energy   TEWEN  =      9593.36728307
  -Hartree energ DENC   =    -21100.45865178
  -exchange      EXHF   =         0.00000000
  -V(xc)+E(xc)   XCENC  =       643.77622863
  PAW double counting   =     20860.02082295   -20606.74643183
  entropy T*S    EENTRO =        -0.00000000
  eigenvalues    EBANDS =     -2541.23667224
  atomic energy  EATOM  =     12539.56019330
  ---------------------------------------------------
  free energy    TOTEN  =      -416.26373537 eV

  energy without entropy =     -416.26373537  energy(sigma->0) =     -416.26373537


--------------------------------------------------------------------------------------------------------




--------------------------------------- Iteration      1(  25)  ---------------------------------------


    POTLOK:  cpu time      0.7284: real time      0.7305
    SETDIJ:  cpu time      0.0662: real time      0.0664
    TRIAL :  cpu time      2.2676: real time      2.2747
    CORREC:  cpu time      1.8281: real time      1.8340
    CHARGE:  cpu time      0.5957: real time      0.5974
    --------------------------------------------
      LOOP:  cpu time      5.4877: real time      5.5165

 eigenvalue-minimisations  :     0
 total energy-change (2. order) :-0.1052140E-06  ( 0.1352740E-06)
 number of electron     238.0000003 magnetization 
 augmentation part       15.5657098 magnetization 

 Free energy of the ion-electron system (eV)
  ---------------------------------------------------
  alpha Z        PSCENC =       195.45349252
  Ewald energy   TEWEN  =      9593.36728307
  -Hartree energ DENC   =    -21100.45067736
  -exchange      EXHF   =         0.00000000
  -V(xc)+E(xc)   XCENC  =       643.77590358
  PAW double counting   =     20860.01080676   -20606.73638038
  entropy T*S    EENTRO =        -0.00000000
  eigenvalues    EBANDS =     -2541.24435697
  atomic energy  EATOM  =     12539.56019330
  ---------------------------------------------------
  free energy    TOTEN  =      -416.26373547 eV

  energy without entropy =     -416.26373547  energy(sigma->0) =     -416.26373547


--------------------------------------------------------------------------------------------------------




--------------------------------------- Iteration      1(  26)  ---------------------------------------


    POTLOK:  cpu time      0.7304: real time      0.7323
    SETDIJ:  cpu time      0.0648: real time      0.0650
    TRIAL :  cpu time      2.2646: real time      2.2715
    CORREC:  cpu time      1.8499: real time      1.8590
    EDDIAG:  cpu time      0.8127: real time      0.8152
    CHARGE:  cpu time      0.5983: real time      0.6001
    --------------------------------------------
      LOOP:  cpu time      6.3224: real time      6.3553

 eigenvalue-minimisations  :     0
 total energy-change (2. order) :-0.2166416E-07  ( 0.3115477E-08)
 number of electron     238.0000003 magnetization 
 augmentation part       15.5657120 magnetization 

 Free energy of the ion-electron system (eV)
  ---------------------------------------------------
  alpha Z        PSCENC =       195.45349252
  Ewald energy   TEWEN  =      9593.36728307
  -Hartree energ DENC   =    -21100.45219333
  -exchange      EXHF   =         0.00000000
  -V(xc)+E(xc)   XCENC  =       643.77596354
  PAW double counting   =     20860.01243619   -20606.73802403
  entropy T*S    EENTRO =        -0.00000000
  eigenvalues    EBANDS =     -2541.24288676
  atomic energy  EATOM  =     12539.56019330
  ---------------------------------------------------
  free energy    TOTEN  =      -416.26373549 eV

  energy without entropy =     -416.26373549  energy(sigma->0) =     -416.26373549


--------------------------------------------------------------------------------------------------------


  average scaling for gradient   0.6653


 average (electrostatic) potential at core
  the test charge radii are     0.6991  0.5201  0.7215  1.0714
  (the norm of the test charge is              1.0000)
       1 -61.2489       2 -59.1400       3 -56.3113       4 -57.3103       5 -55.8052
       6 -59.2161       7 -56.4476       8 -57.4454       9 -55.9686      10 -59.1630
      11 -56.3556      12 -57.3552      13 -55.8570      14 -59.0644      15 -56.2874
      16 -57.2812      17 -55.8031      18 -59.2241      19 -56.4426      20 -57.4290
      21 -55.9534      22 -59.1424      23 -56.3507      24 -57.3488      25 -55.8562
      26 -39.0135      27 -39.1812      28 -39.0612      29 -39.0133      30 -39.1738
      31 -39.0586      32 -80.2972      33 -80.1851      34 -77.8877      35 -77.5765
      36 -77.1045      37 -77.9388      38 -77.6468      39 -77.1882      40 -77.9021
      41 -77.5978      42 -77.1316      43 -77.7664      44 -77.5090      45 -76.9956
      46 -77.9331      47 -77.6706      48 -77.0883      49 -77.8709      50 -77.5761
      51 -77.1122      52 -42.3966      53 -42.3943      54 -42.3756      55 -42.1532
      56 -42.3474      57 -42.3265
 
 
 
 E-fermi :  -1.5380     XC(G=0):  -4.7162     alpha+bet : -3.7880

 Fermi energy:        -1.5379789952

 k-point     1 :       0.0000    0.0000    0.0000
  band No.  band energies     occupation 
      1     -26.6795      2.00000
      2     -25.6814      2.00000
      3     -24.4622      2.00000
      4     -24.4479      2.00000
      5     -24.3353      2.00000
      6     -24.3163      2.00000
      7     -24.3016      2.00000
      8     -24.2251      2.00000
      9     -22.2940      2.00000
     10     -22.2411      2.00000
     11     -22.2326      2.00000
     12     -22.1947      2.00000
     13     -22.1794      2.00000
     14     -22.1034      2.00000
     15     -21.9472      2.00000
     16     -21.9207      2.00000
     17     -21.8945      2.00000
     18     -21.8749      2.00000
     19     -21.8555      2.00000
     20     -21.7786      2.00000
     21     -18.2139      2.00000
     22     -18.1126      2.00000
     23     -18.0524      2.00000
     24     -16.3922      2.00000
     25     -16.2929      2.00000
     26     -16.2339      2.00000
     27     -14.9654      2.00000
     28     -14.8479      2.00000
     29     -14.7788      2.00000
     30     -13.8186      2.00000
     31     -13.7348      2.00000
     32     -13.6817      2.00000
     33     -12.0314      2.00000
     34     -11.9399      2.00000
     35     -11.8849      2.00000
     36     -11.7002      2.00000
     37     -11.5815      2.00000
     38     -11.5645      2.00000
     39     -11.5051      2.00000
     40     -11.3777      2.00000
     41     -10.7431      2.00000
     42     -10.6900      2.00000
     43     -10.3757      2.00000
     44     -10.1737      2.00000
     45     -10.1453      2.00000
     46     -10.0005      2.00000
     47      -9.9658      2.00000
     48      -9.9435      2.00000
     49      -9.9183      2.00000
     50      -9.8522      2.00000
     51      -9.6348      2.00000
     52      -9.4198      2.00000
     53      -9.3284      2.00000
     54      -9.2959      2.00000
     55      -9.2147      2.00000
     56      -9.1868      2.00000
     57      -9.0018      2.00000
     58      -8.7768      2.00000
     59      -8.7334      2.00000
     60      -8.6321      2.00000
     61      -8.5992      2.00000
     62      -8.5680      2.00000
     63      -8.5047      2.00000
     64      -8.4041      2.00000
     65      -8.3370      2.00000
     66      -8.2211      2.00000
     67      -8.1907      2.00000
     68      -8.1727      2.00000
     69      -8.0288      2.00000
     70      -7.4525      2.00000
     71      -7.3900      2.00000
     72      -7.3567      2.00000
     73      -7.3181      2.00000
     74      -7.2464      2.00000
     75      -7.1935      2.00000
     76      -7.1747      2.00000
     77      -7.0862      2.00000
     78      -7.0320      2.00000
     79      -6.8613      2.00000
     80      -6.7502      2.00000
     81      -6.6680      2.00000
     82      -6.5760      2.00000
     83      -6.4476      2.00000
     84      -6.3216      2.00000
     85      -6.2617      2.00000
     86      -6.2100      2.00000
     87      -5.7459      2.00000
     88      -5.4994      2.00000
     89      -5.4487      2.00000
     90      -5.4129      2.00000
     91      -5.3386      2.00000
     92      -5.2870      2.00000
     93      -5.1041      2.00000
     94      -5.0716      2.00000
     95      -4.9305      2.00000
     96      -4.8718      2.00000
     97      -4.6371      2.00000
     98      -4.5569      2.00000
     99      -4.5150      2.00000
    100      -4.4777      2.00000
    101      -4.4143      2.00000
    102      -4.3596      2.00000
    103      -4.3049      2.00000
    104      -4.2464      2.00000
    105      -4.1806      2.00000
    106      -4.1320      2.00000
    107      -4.0438      2.00000
    108      -3.8122      2.00000
    109      -3.7795      2.00000
    110      -3.7352      2.00000
    111      -3.7097      2.00000
    112      -3.6434      2.00000
    113      -3.5613      2.00000
    114      -3.4900      2.00000
    115      -3.4333      2.00000
    116      -3.3222      2.00000
    117      -2.2570      2.00000
    118      -2.1755      2.00000
    119      -2.0414      2.00000
    120      -0.0730      0.00000
    121       0.0254      0.00000
    122       0.0821      0.00000
    123       1.5143      0.00000
    124       1.6616      0.00000
    125       1.7366      0.00000
    126       1.7913      0.00000
    127       1.8304      0.00000
    128       1.8546      0.00000
    129       1.9203      0.00000
    130       2.0130      0.00000
    131       2.0635      0.00000
    132       2.1753      0.00000
    133       2.2738      0.00000
    134       2.5644      0.00000
    135       2.5745      0.00000
    136       2.6081      0.00000
    137       3.4031      0.00000
    138       3.4882      0.00000
    139       3.5767      0.00000
    140       3.8552      0.00000
    141       3.9352      0.00000
    142       4.0647      0.00000
    143       4.1602      0.00000
    144       4.2570      0.00000
    145       4.2707      0.00000
    146       4.4066      0.00000
    147       4.4969      0.00000
    148       4.5725      0.00000
    149       4.7083      0.00000
    150       4.7933      0.00000
    151       5.1049      0.00000
    152       5.1313      0.00000
    153       5.2210      0.00000
    154       5.4389      0.00000
    155       5.4926      0.00000
    156       5.5860      0.00000
    157       5.7771      0.00000
    158       5.7889      0.00000
    159       5.9352      0.00000
    160       6.0468      0.00000


--------------------------------------------------------------------------------------------------------


 soft charge-density along one line, spin component           1
         0         1         2         3         4         5         6         7         8         9
 total charge-density along one line
 
 pseudopotential strength for first ion, spin component:           1
 10.403  13.838   0.000  -0.000   0.000  -0.001   0.001  -0.000
 13.838  18.407   0.000  -0.001   0.000  -0.001   0.002  -0.000
  0.000   0.000  -4.497   0.004  -0.007   8.799  -0.006   0.011
 -0.000  -0.001   0.004  -4.505   0.019  -0.006   8.813  -0.031
  0.000   0.000  -0.007   0.019  -4.534   0.011  -0.031   8.859
 -0.001  -0.001   8.799  -0.006   0.011 -19.362   0.010  -0.017
  0.001   0.002  -0.006   8.813  -0.031   0.010 -19.384   0.050
 -0.000  -0.000   0.011  -0.031   8.859  -0.017   0.050 -19.457
 total augmentation occupancy for first ion, spin component:           1
 10.804  -5.418   0.034  -0.004  -0.097   0.006  -0.000  -0.017
 -5.418   2.922  -0.025   0.008   0.056  -0.003  -0.000   0.011
  0.034  -0.025   1.249  -0.086   0.184   0.085  -0.017   0.034
 -0.004   0.008  -0.086   1.475  -0.523  -0.017   0.127  -0.097
 -0.097   0.056   0.184  -0.523   2.261   0.034  -0.096   0.271
  0.006  -0.003   0.085  -0.017   0.034   0.006  -0.003   0.006
 -0.000  -0.000  -0.017   0.127  -0.096  -0.003   0.014  -0.018
 -0.017   0.011   0.034  -0.097   0.271   0.006  -0.018   0.040


------------------------ aborting loop because EDIFF is reached ----------------------------------------


    FORLOC:  cpu time      0.2247: real time      0.2252
    FORNL :  cpu time      2.0838: real time      2.0903
    STRESS:  cpu time      6.1189: real time      6.1381
    FORCOR:  cpu time      0.7885: real time      0.7906
    OFIELD:  cpu time      0.0030: real time      0.0030

 ---------------------------------------------------------------------------------------------

         DFTD3 V3.0 Rev 1        
 IVDW         = 11
 DF pbe       
 parameters
 VDW_S6       =    1.0000
 VDW_S8       =    0.7220
 VDW_SR       =    1.2170
 rs18     =    1.0000
 alpha6   =   14.0000
 alpha8   =   16.0000
 k1-k3    =   16.0000    1.3333   -4.0000
 VDW_RADIUS   =   50.2022 A
 VDW_CNRADIUS =   21.1671 A
 Edisp (eV)   -2.66699

 E6    (eV) :    -1.4068
 E8    (eV) :    -1.2602
 % E8        : 47.25
    FORVDW:  cpu time      0.6404: real time      0.6421

  FORCE on cell =-STRESS in cart. coord.  units (eV):
  Direction    XX          YY          ZZ          XY          YZ          ZX
  --------------------------------------------------------------------------------------
  Alpha Z   195.45349   195.45349   195.45349
  Ewald   -1809.93018 -2353.16598 13756.42528  2148.92829  4297.01791  1993.24521
  Hartree  2489.66579  2227.10425 16383.68350  1990.11888  3788.86350  1833.29359
  E(xc)   -1032.04573 -1033.36271 -1026.98644     0.49165     1.53835     0.24500
  Local   -3724.22123 -2970.30436-33130.27826 -4125.69660 -8064.72656 -3839.00106
  n-local  -552.59898  -549.26447  -565.71070    -1.62591    -3.90877    -0.25463
  augment   124.47002   126.69628   127.20367    -0.31630     0.46899     1.22400
  Kinetic  4309.04510  4357.22253  4260.83216   -11.98237   -19.10341    11.01323
  Fock        0.00000     0.00000     0.00000     0.00000     0.00000     0.00000
  vdW        -1.20496    -1.33655    -1.81787    -0.05366    -0.17533    -0.08106
  -------------------------------------------------------------------------------------
  Total      -1.36667    -0.95752    -1.19516    -0.13601    -0.02533    -0.31573
  in kB      -1.59666    -1.11865    -1.39629    -0.15890    -0.02959    -0.36886
  external pressure =       -1.37 kB  Pullay stress =        0.00 kB


 VOLUME and BASIS-vectors are now :
 -----------------------------------------------------------------------------
  energy-cutoff  :     1000.00
  volume of cell :     1371.39
      direct lattice vectors                 reciprocal lattice vectors
    15.258013385  0.006374814  0.024579381     0.065314117  0.034130566  0.130953070
    -7.105142985 13.502791256  0.024499078    -0.000241744  0.073693958  0.130953351
    -7.105097270-11.773071197  6.612175988    -0.000241896 -0.000399920  0.150264152

  length of vectors
    15.258034514 15.258080769 15.258062915     0.150264886  0.150265226  0.150264879


 FORCES acting on ions:
    Electron-Ion                     Ewald-Force                    Non-Local-Force
 -----------------------------------------------------------------------------------------------
   0.186E+03 -.185E+03 0.202E+02   -.186E+03 0.184E+03 -.198E+02   -.274E-01 0.361E+00 -.413E+00
   0.325E+02 0.133E+03 -.151E+02   -.323E+02 -.139E+03 0.130E+02   -.156E+00 0.600E+01 0.201E+01
   -.312E+01 0.309E+02 -.328E+02   0.303E+01 -.321E+02 0.323E+02   0.875E-01 0.121E+01 0.438E+00
   -.421E+02 0.715E+02 -.124E+01   0.416E+02 -.759E+02 0.424E+01   0.515E+00 0.446E+01 -.300E+01
   -.701E+02 0.846E+01 0.118E+03   0.707E+02 -.837E+01 -.120E+03   -.568E+00 -.946E-01 0.214E+01
   -.121E+03 0.109E+02 0.434E+02   0.125E+03 -.881E+01 -.480E+02   -.364E+01 -.209E+01 0.462E+01
   -.473E+02 0.374E+02 -.158E+02   0.480E+02 -.372E+02 0.149E+02   -.715E+00 -.236E+00 0.903E+00
   -.404E+02 -.184E+02 0.292E+02   0.452E+02 0.204E+02 -.287E+02   -.491E+01 -.199E+01 -.456E+00
   0.514E+02 0.166E+02 0.953E+02   -.527E+02 -.167E+02 -.971E+02   0.128E+01 0.957E-01 0.178E+01
   0.118E+03 -.842E+02 0.274E+02   -.124E+03 0.855E+02 -.304E+02   0.536E+01 -.134E+01 0.304E+01
   0.442E+02 -.371E+02 -.217E+02   -.452E+02 0.374E+02 0.210E+02   0.984E+00 -.335E+00 0.691E+00
   0.948E+02 -.608E+01 -.240E+01   -.984E+02 0.973E+01 0.378E+01   0.368E+01 -.366E+01 -.138E+01
   0.471E+02 0.884E+02 0.772E+02   -.472E+02 -.899E+02 -.788E+02   0.151E+00 0.154E+01 0.160E+01
   -.769E+02 -.147E+03 0.323E+02   0.767E+02 0.153E+03 -.302E+02   0.161E+00 -.594E+01 -.200E+01
   -.440E+02 -.632E+02 0.494E+02   0.440E+02 0.643E+02 -.489E+02   -.628E-01 -.109E+01 -.462E+00
   -.994E+01 -.106E+03 0.118E+02   0.104E+02 0.110E+03 -.147E+02   -.492E+00 -.438E+01 0.299E+01
   0.282E+02 -.443E+02 -.104E+03   -.287E+02 0.442E+02 0.107E+03   0.554E+00 0.204E+00 -.215E+01
   0.937E+02 0.589E+02 -.614E+02   -.972E+02 -.609E+02 0.661E+02   0.364E+01 0.208E+01 -.460E+01
   0.336E+02 0.676E+02 0.135E+02   -.342E+02 -.679E+02 -.126E+02   0.626E+00 0.307E+00 -.929E+00
   0.206E+02 0.130E+03 -.267E+02   -.251E+02 -.132E+03 0.262E+02   0.481E+01 0.202E+01 0.465E+00
   -.674E+02 0.102E+03 -.113E+03   0.687E+02 -.102E+03 0.115E+03   -.138E+01 0.104E+00 -.177E+01
   -.122E+03 0.102E+03 -.334E+02   0.127E+03 -.103E+03 0.364E+02   -.533E+01 0.133E+01 -.303E+01
   -.396E+02 0.480E+02 0.174E+02   0.405E+02 -.483E+02 -.167E+02   -.959E+00 0.313E+00 -.679E+00
   -.915E+02 0.160E+02 -.663E+00   0.951E+02 -.197E+02 -.712E+00   -.367E+01 0.365E+01 0.138E+01
   -.405E+02 -.798E+02 -.806E+02   0.406E+02 0.814E+02 0.822E+02   -.141E+00 -.156E+01 -.160E+01
   -.330E+02 0.636E+01 0.606E+02   0.336E+02 -.726E+01 -.663E+02   -.565E+00 0.902E+00 0.579E+01
   0.310E+02 -.332E+01 0.471E+02   -.331E+02 0.285E+01 -.526E+02   0.208E+01 0.459E+00 0.549E+01
   0.222E+02 0.485E+02 0.405E+02   -.233E+02 -.514E+02 -.456E+02   0.106E+01 0.290E+01 0.502E+01
   0.236E+02 -.145E+02 -.573E+02   -.241E+02 0.154E+02 0.631E+02   0.563E+00 -.896E+00 -.579E+01
   -.366E+02 0.320E+02 -.601E+02   0.387E+02 -.316E+02 0.656E+02   -.208E+01 -.440E+00 -.549E+01
   -.207E+02 -.465E+02 -.413E+02   0.218E+02 0.494E+02 0.463E+02   -.106E+01 -.290E+01 -.502E+01
   0.130E+03 -.299E+03 0.144E+03   -.790E+02 0.311E+03 -.174E+03   -.512E+02 -.122E+02 0.294E+02
   0.447E+03 -.265E+03 -.713E+02   -.504E+03 0.255E+03 0.997E+02   0.574E+02 0.964E+01 -.284E+02
   -.227E+01 -.206E+02 0.497E+02   0.614E+01 0.472E+02 -.710E+02   -.387E+01 -.265E+02 0.213E+02
   0.173E+03 0.118E+03 -.269E+03   -.181E+03 -.123E+03 0.311E+03   0.801E+01 0.538E+01 -.423E+02
   -.127E+03 0.681E+02 0.103E+03   0.133E+03 -.483E+02 -.125E+03   -.627E+01 -.197E+02 0.218E+02
   0.631E+02 0.525E+02 0.231E+02   -.947E+02 -.648E+02 -.286E+02   0.317E+02 0.123E+02 0.557E+01
   -.295E+03 0.969E+02 -.194E+03   0.321E+03 -.922E+02 0.228E+03   -.260E+02 -.462E+01 -.344E+02
   0.708E+02 -.681E+02 0.109E+03   -.985E+02 0.606E+02 -.118E+03   0.278E+02 0.751E+01 0.940E+01
   -.517E+01 0.574E+02 0.283E+02   0.269E+02 -.817E+02 -.391E+02   -.217E+02 0.243E+02 0.109E+02
   0.530E+02 -.312E+03 -.139E+03   -.540E+02 0.341E+03 0.171E+03   0.989E+00 -.290E+02 -.323E+02
   0.130E+03 0.126E+03 0.484E+02   -.115E+03 -.149E+03 -.603E+02   -.145E+02 0.236E+02 0.118E+02
   -.759E+02 0.363E+02 -.287E+02   0.717E+02 -.628E+02 0.502E+02   0.436E+01 0.265E+02 -.216E+02
   -.223E+03 -.141E+03 0.288E+03   0.231E+03 0.146E+03 -.330E+03   -.801E+01 -.528E+01 0.422E+02
   0.339E+02 -.927E+02 -.107E+03   -.406E+02 0.727E+02 0.129E+03   0.682E+01 0.201E+02 -.215E+02
   -.105E+03 0.119E+02 -.264E+02   0.136E+03 0.487E+00 0.321E+02   -.318E+02 -.124E+02 -.571E+01
   0.213E+03 0.175E+02 0.108E+03   -.238E+03 -.219E+02 -.142E+03   0.252E+02 0.438E+01 0.348E+02
   -.123E+03 0.192E+03 -.114E+03   0.151E+03 -.184E+03 0.123E+03   -.277E+02 -.824E+01 -.940E+01
   -.254E+02 -.243E+02 -.394E+02   0.367E+01 0.487E+02 0.502E+02   0.218E+02 -.244E+02 -.108E+02
   -.534E+02 0.340E+03 0.131E+03   0.543E+02 -.369E+03 -.163E+03   -.934E+00 0.290E+02 0.323E+02
   -.140E+03 -.108E+03 -.500E+02   0.125E+03 0.132E+03 0.618E+02   0.146E+02 -.237E+02 -.118E+02
   -.770E+02 0.256E+02 -.790E+00   0.752E+02 -.253E+02 0.457E+00   0.210E+01 -.360E+00 0.415E+00
   0.323E+02 -.696E+02 0.830E+01   -.319E+02 0.679E+02 -.845E+01   -.485E+00 0.210E+01 0.180E+00
   0.539E+02 0.576E+02 -.288E+02   -.528E+02 -.566E+02 0.279E+02   -.130E+01 -.124E+01 0.117E+01
   0.315E+02 -.294E+00 -.958E+01   -.304E+02 0.367E+00 0.958E+01   -.178E+01 0.251E+00 -.330E+00
   -.401E+02 0.855E+02 -.825E+01   0.397E+02 -.838E+02 0.844E+01   0.492E+00 -.211E+01 -.184E+00
   -.683E+02 -.553E+02 0.294E+02   0.673E+02 0.544E+02 -.285E+02   0.131E+01 0.122E+01 -.116E+01
 -----------------------------------------------------------------------------------------------
   -.662E+01 0.255E+01 -.989E+00   -.341E-12 0.313E-12 0.174E-12   0.662E+01 -.255E+01 0.990E+00
 
 
 POSITION                                       TOTAL-FORCE (eV/Angst)
 -----------------------------------------------------------------------------------
     -3.59386     10.19391      1.31209         0.072084      0.006522     -0.040797
      7.59511      2.64755      1.18809        -0.004676     -0.069670     -0.008325
      7.63873      1.30894      0.54329        -0.004079      0.022362      0.009434
     -6.43784      2.86224      5.76282        -0.004997     -0.042692      0.014347
     -6.45160      1.54590      5.28467        -0.004556      0.007349     -0.009724
     -5.07078      5.91373      2.32906        -0.037063     -0.011667      0.020817
     -4.33584      6.35007      1.11298        -0.020945     -0.006409     -0.010551
      3.27899     -5.54896      6.42675        -0.054871     -0.025108      0.016257
      4.09541     -5.13451      5.36685         0.024532      0.012613     -0.021473
     -1.19743     -6.36168      4.91918        -0.020211      0.013952     -0.013901
     -2.40204     -6.16560      4.07077         0.003801      0.001306      0.008002
      5.53246      6.62037      2.90060        -0.013661      0.010582     -0.006724
      4.37425      6.93301      2.17788         0.005233     -0.005042     -0.015469
     -6.54734     -0.91088      5.47311        -0.028566     -0.085712      0.100420
     -6.59084      0.42773      6.11788        -0.006155      0.008089     -0.009488
      7.48575     -1.12559      0.89836        -0.016810     -0.096613      0.077079
      7.49946      0.19072      1.37651        -0.004948      0.010622      0.017156
      6.11852     -4.17693      4.33219         0.080658      0.012328      0.110495
      5.38356     -4.61337      5.54826        -0.038361      0.002683     -0.026669
     -2.23129      7.28571      0.23459         0.262979      0.057789      0.048064
     -3.04766      6.87118      1.29440        -0.015587      0.032265      0.025515
      2.24508      8.09818      1.74212        -0.007332      0.010032      0.007065
      3.44979      7.90210      2.59056         0.005749     -0.006479     -0.005942
     -4.48465     -4.88386      3.76077        -0.005755      0.005797      0.009236
     -3.32642     -5.19653      4.48345        -0.005896      0.006256      0.018229
     -6.34631      1.38326      4.21249        -0.006607      0.009522     -0.015655
      3.70895     -5.21906      4.35174        -0.025465     -0.021755     -0.006923
      4.18117      6.39460      1.25052         0.013393     -0.006431     -0.012951
      7.39408      0.35351      2.44864         0.010113     -0.014718      0.016626
     -2.66112      6.95567      2.30948         0.020465      0.002502      0.014009
     -3.13344     -4.65798      5.41066        -0.013289      0.008363      0.014230
     -2.55808     10.39235      0.77596        -0.142684     -0.015128      0.070277
     -4.63417     10.02485      1.82070         0.054004      0.011661     -0.021671
      7.76122      3.68660      0.43750         0.009391      0.056584     -0.014257
      7.40383      2.77061      2.43852         0.003056      0.034641      0.025935
     -6.30653      3.87970      4.88258         0.003886      0.053563     -0.054764
     -6.27463      5.46731      2.18121         0.029125      0.010706     -0.008062
     -4.53666      5.97898      3.48050         0.012589      0.020099      0.003479
      2.05194     -6.04679      6.15509         0.040602      0.015704     -0.013094
     -0.35557     -7.27894      4.57230         0.026441     -0.007667     -0.005709
     -0.99934     -5.65370      5.95586         0.018360      0.001203      0.029848
      6.37140      5.67555      2.42043         0.021391     -0.018256     -0.025233
     -6.71344     -1.94995      6.22364         0.124920      0.001106     -0.077056
     -6.35615     -1.03396      4.22271        -0.004744     -0.012152     -0.070383
      7.35449     -2.14299      1.77856         0.167274      0.090289      0.059602
      7.32258     -3.73083      4.48014        -0.104351     -0.060405     -0.036075
      5.58434     -4.24178      3.18082         0.010935     -0.034954      0.113823
     -1.00428      7.78374      0.50622        -0.081244     -0.274893     -0.051371
      1.40320      9.01549      2.08911         0.002130     -0.024630      0.013303
      2.04712      7.39009      0.70540        -0.006506     -0.007578     -0.021149
     -5.32367     -3.93889      4.24083         0.000118     -0.012367      0.017346
      1.51449     -7.74281      5.18874        -0.002457     -0.024437      0.012098
      7.51420      5.67007      0.74920        -0.049522      0.013184      0.013933
     -7.55659      4.51281      3.42128        -0.010582     -0.045245      0.031860
     -0.46680      9.47956      1.47260        -0.304080      0.260050     -0.281618
     -6.46642     -3.93339      5.91213         0.022215      0.036652      0.019238
      8.60443     -2.77629      3.23998         0.000558      0.083634     -0.052688
 -----------------------------------------------------------------------------------
    total drift:                                0.002552     -0.002566      0.001358


--------------------------------------------------------------------------------------------------------



  FREE ENERGIE OF THE ION-ELECTRON SYSTEM (eV)
  ---------------------------------------------------
  free  energy   TOTEN  =      -418.93072536 eV

  energy  without entropy=     -418.93072536  energy(sigma->0) =     -418.93072536
 


--------------------------------------------------------------------------------------------------------


    POTLOK:  cpu time      0.8031: real time      0.8053


--------------------------------------------------------------------------------------------------------


 writing wavefunctions
     LOOP+:  cpu time    189.8704: real time    191.4937
    4ORBIT:  cpu time      0.0000: real time      0.0000

 total amount of memory used by VASP MPI-rank0   357248. kBytes
=======================================================================

   base      :      30000. kBytes
   nonlr-proj:      49783. kBytes
   fftplans  :      44218. kBytes
   grid      :     223518. kBytes
   one-center:        231. kBytes
   wavefun   :       9498. kBytes
 
  
  
 General timing and accounting informations for this job:
 ========================================================
  
                  Total CPU time used (sec):      226.800
                            User time (sec):      203.444
                          System time (sec):       23.356
                         Elapsed time (sec):      229.526
  
                   Maximum memory used (kb):      791236.
                   Average memory used (kb):          N/A
  
                          Minor page faults:       147972
                          Major page faults:            2
                 Voluntary context switches:         4501
