 C  H  O Fe                             
   1.00000000000000     
    15.4392177517044988    0.0044658318981230   -0.0383768915123673
    -7.1862829238812331   13.6309283770724861   -0.0014160987290529
    -7.1828348115560150  -11.8906390916327585    6.7003592787752853
   C    H    O    Fe
    25     6    20     6
Selective dynamics
Direct
  0.2908047246193611  0.9395630015804269  0.2158201710183315 T T T
  0.0321402045934025  0.1315964723247230  0.5672430744351445 F F F
  0.0809394000656639  0.6171366197714947  0.1660812824646196 F F F
  0.1313116599741072  0.5661314008105992  0.0320723698543104 F F F
  0.1660524675688842  0.0808901738899088  0.6166569511211675 F F F
  0.1789341434757931  0.7471364057318117  0.3493587413570055 F F F
  0.1922233835936003  0.2050991345857930  0.6777532529438076 F F F
  0.2048170947674408  0.6772089880766520  0.1921724308344100 F F F
  0.2528954362359190  0.6507289929327026  0.8215838509949609 F F F
  0.3223077236299952  0.8075972987407967  0.7950163619892467 F F F
  0.3493194580231874  0.1788911094319423  0.7465567554707507 F F F
  0.3829220594852519  0.8339473204381613  0.9192928995680184 F F F
  0.4333062156900478  0.9677043789674392  0.8683141741920264 F F F
  0.5666937543131900  0.0322956400319409  0.1316858258099773 F F F
  0.6170779405118201  0.1660526945650977  0.0807071234320438 F F F
  0.6506805719729994  0.8211088755634915  0.2534432745293795 F F F
  0.6776922763599432  0.1924027012541941  0.2049836529975279 F F F
  0.7471045937765253  0.3492710070803292  0.1784161790149106 F F F
  0.7951829052348334  0.3227910419241112  0.8078275841717909 F F F
  0.8077766024090067  0.7949008654201470  0.3222467470626081 F F F
  0.8210658415217005  0.2528635942656229  0.6506412286361708 F F F
  0.8339475174309688  0.9191098111108325  0.3833430198796013 F F F
  0.8686883400272571  0.4338685991939346  0.9679276201494121 F F F
  0.9190605769300744  0.3828633802266509  0.8339187025344877 F F F
  0.9678598194072886  0.8684035276723779  0.4327569255584319 F F F
  0.1824794276816488  0.6555657635828293  0.6339450570886570 F F F
  0.3441032088913856  0.3662705242251534  0.8176629574336779 F F F
  0.3657914288620294  0.8167359382378213  0.3440896507682684 F F F
  0.6342085711375297  0.1832640467629696  0.6559103792286211 F F F
  0.6558967910990436  0.6337294757623340  0.1823370275584301 F F F
  0.8175205723220670  0.3444342064206359  0.3660549429188465 F F F
  0.3026164101381867  0.0035544311197617  0.3100686995920389 T T T
  0.2765200929552958  0.8742449748185608  0.1185463829756990 T T T
  0.0674219325336963  0.6960110398159169  0.3282292243095473 F F F
  0.0731851695933041  0.2643011998591747  0.6398673536295479 F F F
  0.0976688667311011  0.4787585068254361  0.6334981446004571 F F F
  0.2641483265584069  0.6378727954806833  0.0736591827136238 F F F
  0.3027153181109731  0.6714963383823304  0.9328469889815562 F F F
  0.3284905569421540  0.0674841040440605  0.6964790214107403 F F F
  0.3613530310165856  0.9263732010583505  0.7355413721929898 F F F
  0.3673021896016718  0.9033694677539746  0.5214137490652566 F F F
  0.4789457733426982  0.6330237957746770  0.0981610170841615 F F F
  0.5210542266539341  0.3669761742204679  0.9018389599149373 F F F
  0.6326978103948395  0.0966305392467187  0.4785862209345569 F F F
  0.6386469689707245  0.0736267839365356  0.2644586277942346 F F F
  0.6715094730603851  0.9325159179613771  0.3035210075890594 F F F
  0.6972847118818029  0.3285036316149598  0.0671530180154493 F F F
  0.7358516734383177  0.3621272045170998  0.9263408172833211 F F F
  0.9023311482622458  0.5212415231665517  0.3665018843873983 F F F
  0.9268148524079202  0.7356988001385579  0.3601326763664537 F F F
  0.9325780894671365  0.3039889901892016  0.6717708056908812 F F F
  0.1071744849275030  0.7833073271475890  0.5153345580448333 F F F
  0.5153371620059828  0.1067953233628258  0.7828014617164415 F F F
  0.7833723189700696  0.5157712950663164  0.1063564643406840 F F F
  0.2166276960410478  0.4842287049414575  0.8936435286641649 F F F
  0.4846628379957084  0.8932046696390603  0.2171985082883095 F F F
  0.8928255080646983  0.2166926728447159  0.4846654119471988 F F F
