 vasp.6.3.2 27Jun22 (build Jul 28 2023 19:28:36) gamma-only                     
  
 executed on             LinuxIFC date 2024.06.16  01:43:58
 running on   40 total cores
 distrk:  each k-point on   40 cores,    1 groups
 distr:  one band on NCORE=   1 cores,   40 groups


--------------------------------------------------------------------------------------------------------


 INCAR:
   SYSTEM = CO2
   ISTART = 0
   ICHARG = 2
   ISMEAR = 0
   SIGMA = 0.1
   ENCUT = 1000.0
   ENAUG = 644.9
   PREC = Accurate
   GGA = ML
   AGGAC = 0.0
   LUSE_VDW = .TRUE.
   ZAB_VDW = -1.8867
   LASPH = .TRUE.
   LUSE_VDW = .TRUE.
   EDIFF = 1E-7
   NELM = 500
   ALGO = All
   TIME = 0.05
   LREAL = Auto
   LWAVE = .TRUE.
   LCHARG = .TRUE.
   NWRITE = 1

 POTCAR:    PAW_PBE C 08Apr2002                   
 POTCAR:    PAW_PBE O 08Apr2002                   
 -----------------------------------------------------------------------------
|                                                                             |
|           W    W    AA    RRRRR   N    N  II  N    N   GGGG   !!!           |
|           W    W   A  A   R    R  NN   N  II  NN   N  G    G  !!!           |
|           W    W  A    A  R    R  N N  N  II  N N  N  G       !!!           |
|           W WW W  AAAAAA  RRRRR   N  N N  II  N  N N  G  GGG   !            |
|           WW  WW  A    A  R   R   N   NN  II  N   NN  G    G                |
|           W    W  A    A  R    R  N    N  II  N    N   GGGG   !!!           |
|                                                                             |
|     For optimal performance we recommend to set                             |
|       NCORE = 2 up to number-of-cores-per-socket                            |
|     NCORE specifies how many cores store one orbital (NPAR=cpu/NCORE).      |
|     This setting can greatly improve the performance of VASP for DFT.       |
|     The default, NCORE=1 might be grossly inefficient on modern             |
|     multi-core architectures or massively parallel machines. Do your        |
|     own testing! More info at https://www.vasp.at/wiki/index.php/NCORE      |
|     Unfortunately you need to use the default for GW and RPA                |
|     calculations (for HF NCORE is supported but not extensively tested      |
|     yet).                                                                   |
|                                                                             |
 -----------------------------------------------------------------------------

 -----------------------------------------------------------------------------
|                                                                             |
|               ----> ADVICE to this user running VASP <----                  |
|                                                                             |
|     You have switched on vdW-DFT.                                           |
|     This routine was written and supplied by Jiri Klimes. We recommend      |
|     that you carefully read and cite the following publications:            |
|       J. Klimes, D.R. Bowler, A. Michelides                                 |
|          J. Phys.: Cond Matt. 22 022201 (2010)                              |
|       J. Klimes, D.R. Bowler, A. Michelides                                 |
|          Phys. Rev. B. 83, 195131 (2011)                                    |
|     and references therein.                                                 |
|                                                                             |
 -----------------------------------------------------------------------------

 POTCAR:    PAW_PBE C 08Apr2002                   
  local pseudopotential read in
  partial core-charges read in
  partial kinetic energy density read in
  atomic valenz-charges read in
  non local Contribution for L=           0  read in
    real space projection operators read in
  non local Contribution for L=           0  read in
    real space projection operators read in
  non local Contribution for L=           1  read in
    real space projection operators read in
  non local Contribution for L=           1  read in
    real space projection operators read in
    PAW grid and wavefunctions read in
 
   number of l-projection  operators is LMAX  =           4
   number of lm-projection operators is LMMAX =           8
 
 POTCAR:    PAW_PBE O 08Apr2002                   
  local pseudopotential read in
  partial core-charges read in
  partial kinetic energy density read in
  kinetic energy density of atom read in
  atomic valenz-charges read in
  non local Contribution for L=           0  read in
    real space projection operators read in
  non local Contribution for L=           0  read in
    real space projection operators read in
  non local Contribution for L=           1  read in
    real space projection operators read in
  non local Contribution for L=           1  read in
    real space projection operators read in
    PAW grid and wavefunctions read in
 
   number of l-projection  operators is LMAX  =           4
   number of lm-projection operators is LMMAX =           8
 
 -----------------------------------------------------------------------------
|                                                                             |
|               ----> ADVICE to this user running VASP <----                  |
|                                                                             |
|     You have a (more or less) 'small supercell' and for smaller cells       |
|     it is recommended to use the reciprocal-space projection scheme!        |
|     The real-space optimization is not efficient for small cells and it     |
|     is also less accurate ...                                               |
|     Therefore, set LREAL=.FALSE. in the INCAR file.                         |
|                                                                             |
 -----------------------------------------------------------------------------

 Optimization of the real space projectors (new method)

 maximal supplied QI-value         = 25.13
 optimisation between [QCUT,QGAM] = [ 16.09, 32.17] = [ 72.45,289.82] Ry 
 Optimized for a Real-space Cutoff    0.98 Angstroem

   l    n(q)    QCUT    max X(q) W(low)/X(q) W(high)/X(q)  e(spline) 
   0      9    16.085   115.676    0.97E-04    0.82E-04    0.14E-06
   0      9    16.085    87.132    0.96E-04    0.82E-04    0.14E-06
   1      9    16.085     4.429    0.14E-03    0.12E-03    0.10E-06
   1      9    16.085     2.733    0.11E-03    0.89E-04    0.96E-07
 Optimization of the real space projectors (new method)

 maximal supplied QI-value         = 24.76
 optimisation between [QCUT,QGAM] = [ 16.09, 32.18] = [ 72.51,290.02] Ry 
 Optimized for a Real-space Cutoff    0.95 Angstroem

   l    n(q)    QCUT    max X(q) W(low)/X(q) W(high)/X(q)  e(spline) 
   0      9    16.091    20.381    0.21E-03    0.16E-03    0.13E-06
   0      9    16.091    15.268    0.23E-03    0.17E-03    0.14E-06
   1      9    16.091     5.964    0.15E-03    0.23E-03    0.12E-06
   1      9    16.091     5.382    0.12E-03    0.19E-03    0.11E-06
 -----------------------------------------------------------------------------
|                                                                             |
|               ----> ADVICE to this user running VASP <----                  |
|                                                                             |
|     You enforced a specific xc type in the INCAR file but a different       |
|     type was found in the POTCAR file.                                      |
|     I HOPE YOU KNOW WHAT YOU ARE DOING!                                     |
|                                                                             |
 -----------------------------------------------------------------------------

  PAW_PBE C 08Apr2002                   :
 energy of atom  1       EATOM= -147.1560
 kinetic energy error for atom=    0.0010 (will be added to EATOM!!)
  PAW_PBE O 08Apr2002                   :
 energy of atom  2       EATOM= -432.3788
 kinetic energy error for atom=    0.0022 (will be added to EATOM!!)
 
 
 POSCAR:  C  O
  positions in direct lattice
  No initial velocities read in
 exchange correlation table for  LEXCH =       44
   RHO(1)=    0.500       N(1)  =     2000
   RHO(2)=  100.500       N(2)  =     4000
 


--------------------------------------------------------------------------------------------------------


 ion  position               nearest neighbor table
   1  0.285  0.924  0.194-   3 1.17   2 1.18
   2  0.289  0.868  0.113-   1 1.18
   3  0.278  0.978  0.271-   1 1.17
 
  LATTYP: Found a trigonal (rhomboedric) cell.
 ALAT       =    15.2580629150
 COS(alpha) =    -0.4652854440
  
  Lattice vectors:
  
 A1 = (  15.2580133847,   0.0063748139,   0.0245793813)
 A2 = (  -7.1051429847,  13.5027912564,   0.0244990776)
 A3 = (  -7.1050972695, -11.7730711972,   6.6121759879)


Analysis of symmetry for initial positions (statically):
=====================================================================
 Subroutine PRICEL returns:
 Original cell was already a primitive cell.
 

 Routine SETGRP: Setting up the symmetry group for a 
 trigonal (rhombohedral) supercell.


 Subroutine GETGRP returns: Found  1 space group operations
 (whereof  1 operations were pure point group operations)
 out of a pool of 12 trial point group operations.


The static configuration has the point symmetry C_1 .


Analysis of symmetry for dynamics (positions and initial velocities):
=====================================================================
 Subroutine PRICEL returns:
 Original cell was already a primitive cell.
 

 Routine SETGRP: Setting up the symmetry group for a 
 trigonal (rhombohedral) supercell.


 Subroutine GETGRP returns: Found  1 space group operations
 (whereof  1 operations were pure point group operations)
 out of a pool of 12 trial point group operations.


The dynamic configuration has the point symmetry C_1 .


 Subroutine INISYM returns: Found  1 space group operations
 (whereof  1 operations are pure point group operations),
 and found     1 'primitive' translations


----------------------------------------------------------------------------------------

                                     Primitive cell                                     

  volume of cell :    1371.3921

  direct lattice vectors                    reciprocal lattice vectors
    15.258013385  0.006374814  0.024579381     0.065314117  0.034130566  0.130953070
    -7.105142985 13.502791256  0.024499078    -0.000241744  0.073693958  0.130953351
    -7.105097270-11.773071197  6.612175988    -0.000241896 -0.000399920  0.150264152

  length of vectors
    15.258034514 15.258080769 15.258062915     0.150264886  0.150265226  0.150264879

  position of ions in fractional coordinates (direct lattice)
     0.285016706  0.923921231  0.193952621
     0.289232368  0.868085903  0.113061372
     0.277903362  0.978317722  0.270697466

  ion indices of the primitive-cell ions
   primitive index   ion index
                 1           1
                 2           2
                 3           3

----------------------------------------------------------------------------------------

 
 
 KPOINTS: KPOINTS                                 

Automatic generation of k-mesh.
 Grid dimensions read from file:
 generate k-points for:    1    1    1

 Generating k-lattice:

  Cartesian coordinates                     Fractional coordinates (reciprocal lattice)
     0.065314117  0.034130566  0.130953070     1.000000000  0.000000000  0.000000000
    -0.000241744  0.073693958  0.130953351     0.000000000  1.000000000  0.000000000
    -0.000241896 -0.000399920  0.150264152     0.000000000 -0.000000000  1.000000000

  Length of vectors
     0.150264886  0.150265226  0.150264879

  Shift w.r.t. Gamma in fractional coordinates (k-lattice)
     0.000000000  0.000000000  0.000000000

 
 Subroutine IBZKPT returns following result:
 ===========================================
 
 Found      1 irreducible k-points:
 
 Following reciprocal coordinates:
            Coordinates               Weight
  0.000000  0.000000  0.000000      1.000000
 
 Following cartesian coordinates:
            Coordinates               Weight
  0.000000  0.000000  0.000000      1.000000
 


--------------------------------------------------------------------------------------------------------




 Dimension of arrays:
   k-points           NKPTS =      1   k-points in BZ     NKDIM =      1   number of bands    NBANDS=     40
   number of dos      NEDOS =    301   number of ions     NIONS =      3
   non local maximal  LDIM  =      4   non local SUM 2l+1 LMDIM =      8
   total plane-waves  NPLWV = ******
   max r-space proj   IRMAX =  11923   max aug-charges    IRDMAX=  38945
   dimension x,y,z NGX =   160 NGY =  160 NGZ =  160
   dimension x,y,z NGXF=   320 NGYF=  320 NGZF=  320
   support grid    NGXF=   320 NGYF=  320 NGZF=  320
   ions per type =               1   2
   NGX,Y,Z   is equivalent  to a cutoff of  17.43, 17.43, 17.43 a.u.
   NGXF,Y,Z  is equivalent  to a cutoff of  34.87, 34.87, 34.87 a.u.

 SYSTEM =  CO2                                     
 POSCAR =   C  O                                   

 Startparameter for this run:
   NWRITE =      1    write-flag & timer
   PREC   = accura    normal or accurate (medium, high low for compatibility)
   ISTART =      0    job   : 0-new  1-cont  2-samecut
   ICHARG =      2    charge: 1-file 2-atom 10-const
   ISPIN  =      1    spin polarized calculation?
   LNONCOLLINEAR =      F non collinear calculations
   LSORBIT =      F    spin-orbit coupling
   INIWAV =      1    electr: 0-lowe 1-rand  2-diag
   LASPH  =      T    aspherical Exc in radial PAW
 Electronic Relaxation 1
   ENCUT  = 1000.0 eV  73.50 Ry    8.57 a.u.  39.34 39.34 39.34*2*pi/ulx,y,z
   ENINI  = 1000.0     initial cutoff
   ENAUG  =  644.9 eV  augmentation charge cutoff
   NELM   =    500;   NELMIN=  2; NELMDL= -5     # of ELM steps 
   EDIFF  = 0.1E-06   stopping-criterion for ELM
   LREAL  =      T    real-space projection
   NLSPLINE    = F    spline interpolate recip. space projectors
   LCOMPAT=      F    compatible to vasp.4.4
   GGA_COMPAT  = T    GGA compatible to vasp.4.4-vasp.4.6
   LMAXPAW     = -100 max onsite density
   LMAXMIX     =    2 max onsite mixed and CHGCAR
   VOSKOWN=      0    Vosko Wilk Nusair interpolation
   ROPT   =   -0.00025  -0.00025
 Ionic relaxation
   EDIFFG = 0.1E-05   stopping-criterion for IOM
   NSW    =      0    number of steps for IOM
   NBLOCK =      1;   KBLOCK =      1    inner block; outer block 
   IBRION =     -1    ionic relax: 0-MD 1-quasi-New 2-CG
   NFREE  =      0    steps in history (QN), initial steepest desc. (CG)
   ISIF   =      2    stress and relaxation
   IWAVPR =     10    prediction:  0-non 1-charg 2-wave 3-comb
   ISYM   =      2    0-nonsym 1-usesym 2-fastsym
   LCORR  =      T    Harris-Foulkes like correction to forces

   POTIM  = 0.5000    time-step for ionic-motion
   TEIN   =    0.0    initial temperature
   TEBEG  =    0.0;   TEEND  =   0.0 temperature during run
   SMASS  =  -3.00    Nose mass-parameter (am)
   estimated Nose-frequenzy (Omega)   =  0.10E-29 period in steps = 0.13E+47 mass=  -0.532E-26a.u.
   SCALEE = 1.0000    scale energy and forces
   NPACO  =    256;   APACO  = 10.0  distance and # of slots for P.C.
   PSTRESS=    0.0 pullay stress

  Mass of Ions in am
   POMASS =  12.01 16.00
  Ionic Valenz
   ZVAL   =   4.00  6.00
  Atomic Wigner-Seitz radii
   RWIGS  =  -1.00 -1.00
  virtual crystal weights 
   VCA    =   1.00  1.00
   NELECT =      16.0000    total number of electrons
   NUPDOWN=      -1.0000    fix difference up-down

 DOS related values:
   EMIN   =  10.00;   EMAX   =-10.00  energy-range for DOS
   EFERMI =   0.00
   ISMEAR =     0;   SIGMA  =   0.10  broadening in eV -4-tet -1-fermi 0-gaus

 Electronic relaxation 2 (details)
   IALGO  =     58    algorithm
   LDIAG  =      T    sub-space diagonalisation (order eigenvalues)
   LSUBROT=      F    optimize rotation matrix (better conditioning)
   TURBO    =      0    0=normal 1=particle mesh
   IRESTART =      0    0=no restart 2=restart with 2 vectors
   NREBOOT  =      0    no. of reboots
   NMIN     =      0    reboot dimension
   EREF     =   0.00    reference energy to select bands
   IMIX   =      4    mixing-type and parameters
     AMIX     =   0.40;   BMIX     =  1.00
     AMIX_MAG =   1.60;   BMIX_MAG =  1.00
     AMIN     =   0.10
     WC   =   100.;   INIMIX=   1;  MIXPRE=   1;  MAXMIX= -45

 Intra band minimization:
   WEIMIN = 0.0000     energy-eigenvalue tresh-hold
   EBREAK =  0.63E-09  absolut break condition
   DEPER  =   0.30     relativ break condition  

   TIME   =   0.05     timestep for ELM

  volume/ion in A,a.u.               =     457.13      3084.87
  Fermi-wavevector in a.u.,A,eV,Ry     =   0.371302  0.701660  1.875772  0.137865
  Thomas-Fermi vector in A             =   1.299325
 
 Write flags
   LWAVE        =      T    write WAVECAR
   LDOWNSAMPLE  =      F    k-point downsampling of WAVECAR
   LCHARG       =      T    write CHGCAR
   LVTOT        =      F    write LOCPOT, total local potential
   LVHAR        =      F    write LOCPOT, Hartree potential only
   LELF         =      F    write electronic localiz. function (ELF)
   LORBIT       =      0    0 simple, 1 ext, 2 COOP (PROOUT), +10 PAW based schemes


 Dipole corrections
   LMONO  =      F    monopole corrections only (constant potential shift)
   LDIPOL =      F    correct potential (dipole corrections)
   IDIPOL =      0    1-x, 2-y, 3-z, 4-all directions 
   EPSILON=  1.0000000 bulk dielectric constant

 Exchange correlation treatment:
   GGA     =    ML    GGA type
   LEXCH   =    44    internal setting for exchange type
   LIBXC   =     F    Libxc                    
   VOSKOWN =     0    Vosko Wilk Nusair interpolation
   LHFCALC =     F    Hartree Fock is set to
   LHFONE  =     F    Hartree Fock one center treatment
   AEXX    =    0.0000 exact exchange contribution

 vdW DFT:
   LUSE_VDW   =     T    switch on vdW DFT
   Zab_VDW    =******    correlation parameter
   PARAM1     =0.1234
   PARAM2     =1.0000
   PARAM3     =0.0000
   -- rVV10 --
   BPARAM     = 6.3000
   CPARAM     = 0.0093

 Linear response parameters
   LEPSILON=     F    determine dielectric tensor
   LRPA    =     F    only Hartree local field effects (RPA)
   LNABLA  =     F    use nabla operator in PAW spheres
   LVEL    =     F    velocity operator in full k-point grid
   CSHIFT  =0.1000    complex shift for real part using Kramers Kronig
   OMEGAMAX=  -1.0    maximum frequency
   DEG_THRESHOLD= 0.2000000E-02 threshold for treating states as degnerate
   RTIME   =   -0.100 relaxation time in fs
  (WPLASMAI=    0.000 imaginary part of plasma frequency in eV, 0.658/RTIME)
   DFIELD  = 0.0000000 0.0000000 0.0000000 field for delta impulse in time
 
  Optional k-point grid parameters
   LKPOINTS_OPT  =     F    use optional k-point grid
   KPOINTS_OPT_MODE=     1    mode for optional k-point grid
 
 Orbital magnetization related:
   ORBITALMAG=     F  switch on orbital magnetization
   LCHIMAG   =     F  perturbation theory with respect to B field
   DQ        =  0.001000  dq finite difference perturbation B field
   LLRAUG    =     F  two centre corrections for induced B field



--------------------------------------------------------------------------------------------------------


 Static calculation
 charge density and potential will be updated during run
 non-spin polarized calculation
 Conjugate gradient for all bands (Freysoldt, et al. PRB 79, 241103 (2009))
 preconditioned conjugated gradient                                        
 perform sub-space diagonalisation
    before iterative eigenvector-optimisation
 modified Broyden-mixing scheme, WC =      100.0
 initial mixing is a Kerker type mixing with AMIX =  0.4000 and BMIX =      1.0000
 Hartree-type preconditioning will be used
 using additional bands           32
 real space projection scheme for non local part
 use partial core corrections
 no Harris-corrections to forces 
 use gradient corrections 
 use of overlap-Matrix (Vanderbilt PP)
 Gauss-broadening in eV      SIGMA  =   0.10


--------------------------------------------------------------------------------------------------------


  energy-cutoff  :     1000.00
  volume of cell :     1371.39
      direct lattice vectors                 reciprocal lattice vectors
    15.258013385  0.006374814  0.024579381     0.065314117  0.034130566  0.130953070
    -7.105142985 13.502791256  0.024499078    -0.000241744  0.073693958  0.130953351
    -7.105097270-11.773071197  6.612175988    -0.000241896 -0.000399920  0.150264152

  length of vectors
    15.258034514 15.258080769 15.258062915     0.150264886  0.150265226  0.150264879


 
 k-points in units of 2pi/SCALE and weight: KPOINTS                                 
   0.00000000  0.00000000  0.00000000       1.000
 
 k-points in reciprocal lattice and weights: KPOINTS                                 
   0.00000000  0.00000000  0.00000000       1.000
 
 position of ions in fractional coordinates (direct lattice) 
   0.28501671  0.92392123  0.19395262
   0.28923237  0.86808590  0.11306137
   0.27790336  0.97831772  0.27069747
 
 position of ions in cartesian coordinates  (Angst):
  -3.59385598 10.19391444  1.31208961
  -2.55807517 10.39234695  0.77595815
  -4.63416591 10.02485103  1.82069786
 


--------------------------------------------------------------------------------------------------------


 use serial FFT for orbitals x direction half grid
 k-point   1 :   0.0000 0.0000 0.0000  plane waves:   49218

 maximum and minimum number of plane-waves per node :     49218    49218

 maximum number of plane-waves:     49218
 maximum index in each direction: 
   IXMAX=   39   IYMAX=   34   IZMAX=   34
   IXMIN=    0   IYMIN=  -39   IZMIN=  -39


 serial   3D FFT for wavefunctions
 parallel 3D FFT for charge:
    minimum data exchange during FFTs selected (reduces bandwidth)


 total amount of memory used by VASP MPI-rank0   289212. kBytes
=======================================================================

   base      :      30000. kBytes
   nonlr-proj:       2297. kBytes
   fftplans  :      44218. kBytes
   grid      :     210329. kBytes
   one-center:          4. kBytes
   wavefun   :       2364. kBytes
 
     INWAV:  cpu time      0.0000: real time      0.0002
 Broyden mixing: mesh for mixing (old mesh)
   NGX = 79   NGY = 79   NGZ = 79
  (NGX  =320   NGY  =320   NGZ  =320)
  gives a total of 493039 points

 initial charge density was supplied:
 charge density of overlapping atoms calculated
 number of electron      16.0000000 magnetization 
 keeping initial charge density in first step


--------------------------------------------------------------------------------------------------------


 Maximum index for non-local projection operator        11534
 Maximum index for augmentation-charges         1013 (set IRDMAX)


--------------------------------------------------------------------------------------------------------


 First call to EWALD:  gamma=   0.160
 Maximum number of real-space cells 4x 4x 4
 Maximum number of reciprocal cells 4x 4x 4

    FEWALD:  cpu time      0.0016: real time      0.0016


--------------------------------------- Iteration      1(   1)  ---------------------------------------


vdW kernel read from vdw_kernel.bindat
  0.0000  0.2424  0.5071  0.7962  1.1119  1.4567  1.8333  2.2446  2.6937  3.1842
  3.7199  4.3049  4.9438  5.6415  6.4036  7.2358  8.1446  9.1372 10.2212 11.4050
 12.6979 14.1099 15.6519 17.3360 19.1751 21.1837 23.3773 25.7729 28.3892 31.2465
 34.3669 37.7748 41.4965 45.5611 50.0000
 
    POTLOK:  cpu time     17.9782: real time     18.1490
    SETDIJ:  cpu time      0.0537: real time      0.0539
    TRIAL :  cpu time      0.8317: real time      1.0988
    CORREC:  cpu time      0.0002: real time      0.0002
    --------------------------------------------
      LOOP:  cpu time     18.8700: real time     19.3101

 eigenvalue-minimisations  :    80
 total energy-change (2. order) : 0.1949387E+03  (-0.8236569E+03)
 number of electron      16.0000000 magnetization 
 augmentation part       16.0000000 magnetization 

 Free energy of the ion-electron system (eV)
  ---------------------------------------------------
  alpha Z        PSCENC =         0.77999380
  Ewald energy   TEWEN  =       415.52520223
  -Hartree energ DENC   =     -1225.50010194
  -exchange      EXHF   =         0.00000000
  -V(xc)+E(xc)   XCENC  =        66.01886962
  PAW double counting   =       803.28869630     -809.82440074
  entropy T*S    EENTRO =        -0.00273590
  eigenvalues    EBANDS =       -83.34921696
  atomic energy  EATOM  =      1028.00241598
  ---------------------------------------------------
  free energy    TOTEN  =       194.93872240 eV

  energy without entropy =      194.94145830  energy(sigma->0) =      194.94009035


--------------------------------------------------------------------------------------------------------




--------------------------------------- Iteration      1(   2)  ---------------------------------------


    TRIAL :  cpu time      1.0630: real time      1.1465
    CORREC:  cpu time      0.0000: real time      0.0000
    --------------------------------------------
      LOOP:  cpu time      1.0662: real time      1.1523

 eigenvalue-minimisations  :   120
 total energy-change (2. order) :-0.1922081E+03  (-0.1921634E+03)
 number of electron      16.0000000 magnetization 
 augmentation part       16.0000000 magnetization 

 Free energy of the ion-electron system (eV)
  ---------------------------------------------------
  alpha Z        PSCENC =         0.77999380
  Ewald energy   TEWEN  =       415.52520223
  -Hartree energ DENC   =     -1225.50010194
  -exchange      EXHF   =         0.00000000
  -V(xc)+E(xc)   XCENC  =        66.01886962
  PAW double counting   =       803.28869630     -809.82440074
  entropy T*S    EENTRO =        -0.00000000
  eigenvalues    EBANDS =      -275.56005175
  atomic energy  EATOM  =      1028.00241598
  ---------------------------------------------------
  free energy    TOTEN  =         2.73062351 eV

  energy without entropy =        2.73062351  energy(sigma->0) =        2.73062351


--------------------------------------------------------------------------------------------------------




--------------------------------------- Iteration      1(   3)  ---------------------------------------


    TRIAL :  cpu time      1.1112: real time      1.1143
    CORREC:  cpu time      0.0000: real time      0.0000
    --------------------------------------------
      LOOP:  cpu time      1.1117: real time      1.1200

 eigenvalue-minimisations  :   120
 total energy-change (2. order) :-0.2246639E+02  (-0.2246639E+02)
 number of electron      16.0000000 magnetization 
 augmentation part       16.0000000 magnetization 

 Free energy of the ion-electron system (eV)
  ---------------------------------------------------
  alpha Z        PSCENC =         0.77999380
  Ewald energy   TEWEN  =       415.52520223
  -Hartree energ DENC   =     -1225.50010194
  -exchange      EXHF   =         0.00000000
  -V(xc)+E(xc)   XCENC  =        66.01886962
  PAW double counting   =       803.28869630     -809.82440074
  entropy T*S    EENTRO =        -0.00000000
  eigenvalues    EBANDS =      -298.02644001
  atomic energy  EATOM  =      1028.00241598
  ---------------------------------------------------
  free energy    TOTEN  =       -19.73576475 eV

  energy without entropy =      -19.73576475  energy(sigma->0) =      -19.73576475


--------------------------------------------------------------------------------------------------------




--------------------------------------- Iteration      1(   4)  ---------------------------------------


    TRIAL :  cpu time      0.8162: real time      0.8205
    CORREC:  cpu time      0.0000: real time      0.0000
    --------------------------------------------
      LOOP:  cpu time      0.8168: real time      0.8260

 eigenvalue-minimisations  :    80
 total energy-change (2. order) :-0.4901520E-01  (-0.4901520E-01)
 number of electron      16.0000000 magnetization 
 augmentation part       16.0000000 magnetization 

 Free energy of the ion-electron system (eV)
  ---------------------------------------------------
  alpha Z        PSCENC =         0.77999380
  Ewald energy   TEWEN  =       415.52520223
  -Hartree energ DENC   =     -1225.50010194
  -exchange      EXHF   =         0.00000000
  -V(xc)+E(xc)   XCENC  =        66.01886962
  PAW double counting   =       803.28869630     -809.82440074
  entropy T*S    EENTRO =        -0.00000000
  eigenvalues    EBANDS =      -298.07545520
  atomic energy  EATOM  =      1028.00241598
  ---------------------------------------------------
  free energy    TOTEN  =       -19.78477994 eV

  energy without entropy =      -19.78477994  energy(sigma->0) =      -19.78477994


--------------------------------------------------------------------------------------------------------




--------------------------------------- Iteration      1(   5)  ---------------------------------------


    TRIAL :  cpu time      1.1118: real time      1.1158
    CORREC:  cpu time      0.0001: real time      0.0001
    CHARGE:  cpu time      0.2736: real time      0.2743
    --------------------------------------------
      LOOP:  cpu time      1.3859: real time      1.3958

 eigenvalue-minimisations  :   120
 total energy-change (2. order) :-0.2026286E-03  (-0.2026306E-03)
 number of electron      16.0000001 magnetization 
 augmentation part        1.5687923 magnetization 

 Free energy of the ion-electron system (eV)
  ---------------------------------------------------
  alpha Z        PSCENC =         0.77999380
  Ewald energy   TEWEN  =       415.52520223
  -Hartree energ DENC   =     -1225.50010194
  -exchange      EXHF   =         0.00000000
  -V(xc)+E(xc)   XCENC  =        66.01886962
  PAW double counting   =       803.28869630     -809.82440074
  entropy T*S    EENTRO =        -0.00000000
  eigenvalues    EBANDS =      -298.07565783
  atomic energy  EATOM  =      1028.00241598
  ---------------------------------------------------
  free energy    TOTEN  =       -19.78498257 eV

  energy without entropy =      -19.78498257  energy(sigma->0) =      -19.78498257


--------------------------------------------------------------------------------------------------------




--------------------------------------- Iteration      1(   6)  ---------------------------------------


    POTLOK:  cpu time     17.5267: real time     17.6615
    SETDIJ:  cpu time      0.0443: real time      0.0444
    TRIAL :  cpu time      0.6233: real time      0.8530
    CORREC:  cpu time     72.1345: real time     73.1582
    CHARGE:  cpu time      0.2508: real time      0.2519
    --------------------------------------------
      LOOP:  cpu time     90.5823: real time     91.9943

 eigenvalue-minimisations  :     0
 total energy-change (2. order) : 0.5804555E+01  (-0.7575805E-01)
 number of electron      16.0000001 magnetization 
 augmentation part        1.3903290 magnetization 

 Free energy of the ion-electron system (eV)
  ---------------------------------------------------
  alpha Z        PSCENC =         0.77999380
  Ewald energy   TEWEN  =       415.52520223
  -Hartree energ DENC   =     -1318.30266396
  -exchange      EXHF   =         0.00000000
  -V(xc)+E(xc)   XCENC  =        71.55815407
  PAW double counting   =      1459.42916754    -1467.78899692
  entropy T*S    EENTRO =        -0.00000000
  eigenvalues    EBANDS =      -203.18369984
  atomic energy  EATOM  =      1028.00241598
  ---------------------------------------------------
  free energy    TOTEN  =       -13.98042709 eV

  energy without entropy =      -13.98042709  energy(sigma->0) =      -13.98042709


--------------------------------------------------------------------------------------------------------




--------------------------------------- Iteration      1(   7)  ---------------------------------------


    POTLOK:  cpu time     17.6092: real time     17.6950
    SETDIJ:  cpu time      0.0449: real time      0.0460
    TRIAL :  cpu time      0.5547: real time      0.5596
    CORREC:  cpu time     18.6045: real time     18.8413
    CHARGE:  cpu time      0.2679: real time      0.2688
    --------------------------------------------
      LOOP:  cpu time     37.0830: real time     37.4166

 eigenvalue-minimisations  :     0
 total energy-change (2. order) :-0.2983712E+01  (-0.4430273E+00)
 number of electron      16.0000001 magnetization 
 augmentation part        1.3630887 magnetization 

 Free energy of the ion-electron system (eV)
  ---------------------------------------------------
  alpha Z        PSCENC =         0.77999380
  Ewald energy   TEWEN  =       415.52520223
  -Hartree energ DENC   =     -1261.23675301
  -exchange      EXHF   =         0.00000000
  -V(xc)+E(xc)   XCENC  =        68.20405522
  PAW double counting   =      1389.75479850    -1397.17581020
  entropy T*S    EENTRO =        -0.00000000
  eigenvalues    EBANDS =      -260.81804149
  atomic energy  EATOM  =      1028.00241598
  ---------------------------------------------------
  free energy    TOTEN  =       -16.96413898 eV

  energy without entropy =      -16.96413898  energy(sigma->0) =      -16.96413898


--------------------------------------------------------------------------------------------------------




--------------------------------------- Iteration      1(   8)  ---------------------------------------


    POTLOK:  cpu time     17.6565: real time     17.7140
    SETDIJ:  cpu time      0.0444: real time      0.0445
    TRIAL :  cpu time      0.5566: real time      0.5586
    CORREC:  cpu time     18.1486: real time     18.2146
    CHARGE:  cpu time      0.2684: real time      0.2690
    --------------------------------------------
      LOOP:  cpu time     36.6763: real time     36.8083

 eigenvalue-minimisations  :     0
 total energy-change (2. order) :-0.4647123E+00  (-0.1665799E+00)
 number of electron      16.0000001 magnetization 
 augmentation part        1.3613177 magnetization 

 Free energy of the ion-electron system (eV)
  ---------------------------------------------------
  alpha Z        PSCENC =         0.77999380
  Ewald energy   TEWEN  =       415.52520223
  -Hartree energ DENC   =     -1267.96638802
  -exchange      EXHF   =         0.00000000
  -V(xc)+E(xc)   XCENC  =        68.43155841
  PAW double counting   =      1413.17764237    -1420.37626861
  entropy T*S    EENTRO =        -0.00000000
  eigenvalues    EBANDS =      -255.00300744
  atomic energy  EATOM  =      1028.00241598
  ---------------------------------------------------
  free energy    TOTEN  =       -17.42885127 eV

  energy without entropy =      -17.42885127  energy(sigma->0) =      -17.42885127


--------------------------------------------------------------------------------------------------------




--------------------------------------- Iteration      1(   9)  ---------------------------------------


    POTLOK:  cpu time     18.1098: real time     18.4467
    SETDIJ:  cpu time      0.0443: real time      0.0444
    TRIAL :  cpu time      0.5569: real time      0.5592
    CORREC:  cpu time     18.1464: real time     18.2035
    CHARGE:  cpu time      0.2683: real time      0.2689
    --------------------------------------------
      LOOP:  cpu time     37.1266: real time     37.5287

 eigenvalue-minimisations  :     0
 total energy-change (2. order) :-0.1662275E+00  (-0.6415025E-01)
 number of electron      16.0000001 magnetization 
 augmentation part        1.3516434 magnetization 

 Free energy of the ion-electron system (eV)
  ---------------------------------------------------
  alpha Z        PSCENC =         0.77999380
  Ewald energy   TEWEN  =       415.52520223
  -Hartree energ DENC   =     -1271.12985102
  -exchange      EXHF   =         0.00000000
  -V(xc)+E(xc)   XCENC  =        68.54729591
  PAW double counting   =      1431.58045226    -1438.74111971
  entropy T*S    EENTRO =        -0.00000000
  eigenvalues    EBANDS =      -252.15946826
  atomic energy  EATOM  =      1028.00241598
  ---------------------------------------------------
  free energy    TOTEN  =       -17.59507882 eV

  energy without entropy =      -17.59507882  energy(sigma->0) =      -17.59507882


--------------------------------------------------------------------------------------------------------




--------------------------------------- Iteration      1(  10)  ---------------------------------------


    POTLOK:  cpu time     17.6517: real time     17.7331
    SETDIJ:  cpu time      0.0443: real time      0.0455
    TRIAL :  cpu time      0.5582: real time      0.5601
    CORREC:  cpu time     18.6886: real time     18.9431
    CHARGE:  cpu time      0.2756: real time      0.2765
    --------------------------------------------
      LOOP:  cpu time     37.2196: real time     37.5648

 eigenvalue-minimisations  :     0
 total energy-change (2. order) :-0.6218169E-01  (-0.1843951E-01)
 number of electron      16.0000001 magnetization 
 augmentation part        1.3506389 magnetization 

 Free energy of the ion-electron system (eV)
  ---------------------------------------------------
  alpha Z        PSCENC =         0.77999380
  Ewald energy   TEWEN  =       415.52520223
  -Hartree energ DENC   =     -1267.19373905
  -exchange      EXHF   =         0.00000000
  -V(xc)+E(xc)   XCENC  =        68.32729902
  PAW double counting   =      1438.25545215    -1445.35787440
  entropy T*S    EENTRO =        -0.00000000
  eigenvalues    EBANDS =      -255.99601023
  atomic energy  EATOM  =      1028.00241598
  ---------------------------------------------------
  free energy    TOTEN  =       -17.65726051 eV

  energy without entropy =      -17.65726051  energy(sigma->0) =      -17.65726051


--------------------------------------------------------------------------------------------------------




--------------------------------------- Iteration      1(  11)  ---------------------------------------


    POTLOK:  cpu time     17.6954: real time     17.7528
    SETDIJ:  cpu time      0.0448: real time      0.0449
    TRIAL :  cpu time      0.5566: real time      0.5586
    CORREC:  cpu time     18.1066: real time     18.2148
    CHARGE:  cpu time      0.2680: real time      0.2697
    --------------------------------------------
      LOOP:  cpu time     36.6736: real time     36.8492

 eigenvalue-minimisations  :     0
 total energy-change (2. order) :-0.1823053E-01  (-0.6966974E-02)
 number of electron      16.0000001 magnetization 
 augmentation part        1.3536979 magnetization 

 Free energy of the ion-electron system (eV)
  ---------------------------------------------------
  alpha Z        PSCENC =         0.77999380
  Ewald energy   TEWEN  =       415.52520223
  -Hartree energ DENC   =     -1266.40264442
  -exchange      EXHF   =         0.00000000
  -V(xc)+E(xc)   XCENC  =        68.29427275
  PAW double counting   =      1443.44031777    -1450.53630227
  entropy T*S    EENTRO =        -0.00000000
  eigenvalues    EBANDS =      -256.77874688
  atomic energy  EATOM  =      1028.00241598
  ---------------------------------------------------
  free energy    TOTEN  =       -17.67549104 eV

  energy without entropy =      -17.67549104  energy(sigma->0) =      -17.67549104


--------------------------------------------------------------------------------------------------------




--------------------------------------- Iteration      1(  12)  ---------------------------------------


    POTLOK:  cpu time     18.1239: real time     18.4629
    SETDIJ:  cpu time      0.0444: real time      0.0445
    TRIAL :  cpu time      0.5558: real time      0.5594
    CORREC:  cpu time     18.1883: real time     18.3322
    CHARGE:  cpu time      0.2483: real time      0.2495
    --------------------------------------------
      LOOP:  cpu time     37.1628: real time     37.6838

 eigenvalue-minimisations  :     0
 total energy-change (2. order) :-0.6950454E-02  (-0.2253440E-02)
 number of electron      16.0000001 magnetization 
 augmentation part        1.3535558 magnetization 

 Free energy of the ion-electron system (eV)
  ---------------------------------------------------
  alpha Z        PSCENC =         0.77999380
  Ewald energy   TEWEN  =       415.52520223
  -Hartree energ DENC   =     -1266.53868173
  -exchange      EXHF   =         0.00000000
  -V(xc)+E(xc)   XCENC  =        68.31153715
  PAW double counting   =      1446.62038062    -1453.73990180
  entropy T*S    EENTRO =        -0.00000000
  eigenvalues    EBANDS =      -256.64338774
  atomic energy  EATOM  =      1028.00241598
  ---------------------------------------------------
  free energy    TOTEN  =       -17.68244149 eV

  energy without entropy =      -17.68244149  energy(sigma->0) =      -17.68244149


--------------------------------------------------------------------------------------------------------




--------------------------------------- Iteration      1(  13)  ---------------------------------------


    POTLOK:  cpu time     17.6347: real time     17.7046
    SETDIJ:  cpu time      0.0442: real time      0.0443
    TRIAL :  cpu time      0.5565: real time      0.5582
    CORREC:  cpu time     18.2590: real time     18.4160
    CHARGE:  cpu time      0.2734: real time      0.2747
    --------------------------------------------
      LOOP:  cpu time     36.7686: real time     37.0039

 eigenvalue-minimisations  :     0
 total energy-change (2. order) :-0.2247899E-02  (-0.6084208E-03)
 number of electron      16.0000001 magnetization 
 augmentation part        1.3532540 magnetization 

 Free energy of the ion-electron system (eV)
  ---------------------------------------------------
  alpha Z        PSCENC =         0.77999380
  Ewald energy   TEWEN  =       415.52520223
  -Hartree energ DENC   =     -1265.86322458
  -exchange      EXHF   =         0.00000000
  -V(xc)+E(xc)   XCENC  =        68.28150916
  PAW double counting   =      1446.25429162    -1453.37997760
  entropy T*S    EENTRO =        -0.00000000
  eigenvalues    EBANDS =      -257.28490001
  atomic energy  EATOM  =      1028.00241598
  ---------------------------------------------------
  free energy    TOTEN  =       -17.68468939 eV

  energy without entropy =      -17.68468939  energy(sigma->0) =      -17.68468939


--------------------------------------------------------------------------------------------------------




--------------------------------------- Iteration      1(  14)  ---------------------------------------


    POTLOK:  cpu time     17.9072: real time     18.0543
    SETDIJ:  cpu time      0.0443: real time      0.0444
    TRIAL :  cpu time      0.5575: real time      0.5595
    CORREC:  cpu time     18.0881: real time     18.1388
    CHARGE:  cpu time      0.2702: real time      0.2709
    --------------------------------------------
      LOOP:  cpu time     36.8721: real time     37.0748

 eigenvalue-minimisations  :     0
 total energy-change (2. order) :-0.6068632E-03  (-0.1552585E-03)
 number of electron      16.0000001 magnetization 
 augmentation part        1.3530355 magnetization 

 Free energy of the ion-electron system (eV)
  ---------------------------------------------------
  alpha Z        PSCENC =         0.77999380
  Ewald energy   TEWEN  =       415.52520223
  -Hartree energ DENC   =     -1265.77649995
  -exchange      EXHF   =         0.00000000
  -V(xc)+E(xc)   XCENC  =        68.27889086
  PAW double counting   =      1445.68527328    -1452.81129536
  entropy T*S    EENTRO =        -0.00000000
  eigenvalues    EBANDS =      -257.36927710
  atomic energy  EATOM  =      1028.00241598
  ---------------------------------------------------
  free energy    TOTEN  =       -17.68529626 eV

  energy without entropy =      -17.68529626  energy(sigma->0) =      -17.68529626


--------------------------------------------------------------------------------------------------------




--------------------------------------- Iteration      1(  15)  ---------------------------------------


    POTLOK:  cpu time     17.6102: real time     17.7023
    SETDIJ:  cpu time      0.0441: real time      0.0442
    TRIAL :  cpu time      0.5556: real time      0.5607
    CORREC:  cpu time     18.3939: real time     18.6946
    CHARGE:  cpu time      0.2706: real time      0.2713
    --------------------------------------------
      LOOP:  cpu time     36.8762: real time     37.2808

 eigenvalue-minimisations  :     0
 total energy-change (2. order) :-0.1547385E-03  (-0.3910774E-04)
 number of electron      16.0000001 magnetization 
 augmentation part        1.3527488 magnetization 

 Free energy of the ion-electron system (eV)
  ---------------------------------------------------
  alpha Z        PSCENC =         0.77999380
  Ewald energy   TEWEN  =       415.52520223
  -Hartree energ DENC   =     -1265.82150995
  -exchange      EXHF   =         0.00000000
  -V(xc)+E(xc)   XCENC  =        68.28131056
  PAW double counting   =      1445.15738313    -1452.28258369
  entropy T*S    EENTRO =        -0.00000000
  eigenvalues    EBANDS =      -257.32766305
  atomic energy  EATOM  =      1028.00241598
  ---------------------------------------------------
  free energy    TOTEN  =       -17.68545100 eV

  energy without entropy =      -17.68545100  energy(sigma->0) =      -17.68545100


--------------------------------------------------------------------------------------------------------




--------------------------------------- Iteration      1(  16)  ---------------------------------------


    POTLOK:  cpu time     17.8179: real time     17.9253
    SETDIJ:  cpu time      0.0546: real time      0.0547
    TRIAL :  cpu time      0.5821: real time      0.5843
    CORREC:  cpu time     18.1514: real time     18.2656
    CHARGE:  cpu time      0.2684: real time      0.2693
    --------------------------------------------
      LOOP:  cpu time     36.8759: real time     37.1052

 eigenvalue-minimisations  :     0
 total energy-change (2. order) :-0.3893619E-04  (-0.1137071E-04)
 number of electron      16.0000001 magnetization 
 augmentation part        1.3527430 magnetization 

 Free energy of the ion-electron system (eV)
  ---------------------------------------------------
  alpha Z        PSCENC =         0.77999380
  Ewald energy   TEWEN  =       415.52520223
  -Hartree energ DENC   =     -1265.76782639
  -exchange      EXHF   =         0.00000000
  -V(xc)+E(xc)   XCENC  =        68.27838749
  PAW double counting   =      1444.59876183    -1451.72242871
  entropy T*S    EENTRO =        -0.00000000
  eigenvalues    EBANDS =      -257.37999616
  atomic energy  EATOM  =      1028.00241598
  ---------------------------------------------------
  free energy    TOTEN  =       -17.68548993 eV

  energy without entropy =      -17.68548993  energy(sigma->0) =      -17.68548993


--------------------------------------------------------------------------------------------------------




--------------------------------------- Iteration      1(  17)  ---------------------------------------


    POTLOK:  cpu time     18.1314: real time     18.4455
    SETDIJ:  cpu time      0.0443: real time      0.0444
    TRIAL :  cpu time      0.5569: real time      0.5591
    CORREC:  cpu time     18.1565: real time     18.2137
    CHARGE:  cpu time      0.2673: real time      0.2680
    --------------------------------------------
      LOOP:  cpu time     37.1581: real time     37.5374

 eigenvalue-minimisations  :     0
 total energy-change (2. order) :-0.1133332E-04  (-0.3520634E-05)
 number of electron      16.0000001 magnetization 
 augmentation part        1.3527129 magnetization 

 Free energy of the ion-electron system (eV)
  ---------------------------------------------------
  alpha Z        PSCENC =         0.77999380
  Ewald energy   TEWEN  =       415.52520223
  -Hartree energ DENC   =     -1265.80161596
  -exchange      EXHF   =         0.00000000
  -V(xc)+E(xc)   XCENC  =        68.28028011
  PAW double counting   =      1444.25880870    -1451.38221725
  entropy T*S    EENTRO =        -0.00000000
  eigenvalues    EBANDS =      -257.34836888
  atomic energy  EATOM  =      1028.00241598
  ---------------------------------------------------
  free energy    TOTEN  =       -17.68550127 eV

  energy without entropy =      -17.68550127  energy(sigma->0) =      -17.68550127


--------------------------------------------------------------------------------------------------------




--------------------------------------- Iteration      1(  18)  ---------------------------------------


    POTLOK:  cpu time     17.6761: real time     17.7366
    SETDIJ:  cpu time      0.0443: real time      0.0444
    TRIAL :  cpu time      0.5575: real time      0.5595
    CORREC:  cpu time     18.5791: real time     18.8205
    CHARGE:  cpu time      0.2682: real time      0.2691
    --------------------------------------------
      LOOP:  cpu time     37.1275: real time     37.4367

 eigenvalue-minimisations  :     0
 total energy-change (2. order) :-0.3568613E-05  (-0.1041445E-05)
 number of electron      16.0000001 magnetization 
 augmentation part        1.3527040 magnetization 

 Free energy of the ion-electron system (eV)
  ---------------------------------------------------
  alpha Z        PSCENC =         0.77999380
  Ewald energy   TEWEN  =       415.52520223
  -Hartree energ DENC   =     -1265.80743683
  -exchange      EXHF   =         0.00000000
  -V(xc)+E(xc)   XCENC  =        68.28046702
  PAW double counting   =      1444.00523184    -1451.12842768
  entropy T*S    EENTRO =        -0.00000000
  eigenvalues    EBANDS =      -257.34295120
  atomic energy  EATOM  =      1028.00241598
  ---------------------------------------------------
  free energy    TOTEN  =       -17.68550483 eV

  energy without entropy =      -17.68550483  energy(sigma->0) =      -17.68550483


--------------------------------------------------------------------------------------------------------




--------------------------------------- Iteration      1(  19)  ---------------------------------------


    POTLOK:  cpu time     17.6916: real time     17.7482
    SETDIJ:  cpu time      0.0444: real time      0.0445
    TRIAL :  cpu time      0.5568: real time      0.5591
    CORREC:  cpu time     18.1108: real time     18.1782
    CHARGE:  cpu time      0.2693: real time      0.2700
    --------------------------------------------
      LOOP:  cpu time     36.6747: real time     36.8059

 eigenvalue-minimisations  :     0
 total energy-change (2. order) :-0.1080775E-05  (-0.2784223E-06)
 number of electron      16.0000001 magnetization 
 augmentation part        1.3527185 magnetization 

 Free energy of the ion-electron system (eV)
  ---------------------------------------------------
  alpha Z        PSCENC =         0.77999380
  Ewald energy   TEWEN  =       415.52520223
  -Hartree energ DENC   =     -1265.80834341
  -exchange      EXHF   =         0.00000000
  -V(xc)+E(xc)   XCENC  =        68.28042654
  PAW double counting   =      1443.86210458    -1450.98525521
  entropy T*S    EENTRO =        -0.00000000
  eigenvalues    EBANDS =      -257.34205041
  atomic energy  EATOM  =      1028.00241598
  ---------------------------------------------------
  free energy    TOTEN  =       -17.68550591 eV

  energy without entropy =      -17.68550591  energy(sigma->0) =      -17.68550591


--------------------------------------------------------------------------------------------------------




--------------------------------------- Iteration      1(  20)  ---------------------------------------


    POTLOK:  cpu time     17.7590: real time     17.8653
    SETDIJ:  cpu time      0.0694: real time      0.0765
    TRIAL :  cpu time      0.6757: real time      0.7176
    CORREC:  cpu time     18.2468: real time     18.4614
    CHARGE:  cpu time      0.2676: real time      0.2686
    --------------------------------------------
      LOOP:  cpu time     37.0202: real time     37.4011

 eigenvalue-minimisations  :     0
 total energy-change (2. order) :-0.2802435E-06  (-0.1254893E-06)
 number of electron      16.0000001 magnetization 
 augmentation part        1.3527150 magnetization 

 Free energy of the ion-electron system (eV)
  ---------------------------------------------------
  alpha Z        PSCENC =         0.77999380
  Ewald energy   TEWEN  =       415.52520223
  -Hartree energ DENC   =     -1265.81444643
  -exchange      EXHF   =         0.00000000
  -V(xc)+E(xc)   XCENC  =        68.28073357
  PAW double counting   =      1443.80669846    -1450.92992404
  entropy T*S    EENTRO =        -0.00000000
  eigenvalues    EBANDS =      -257.33617977
  atomic energy  EATOM  =      1028.00241598
  ---------------------------------------------------
  free energy    TOTEN  =       -17.68550619 eV

  energy without entropy =      -17.68550619  energy(sigma->0) =      -17.68550619


--------------------------------------------------------------------------------------------------------




--------------------------------------- Iteration      1(  21)  ---------------------------------------


    POTLOK:  cpu time     17.7035: real time     17.7896
    SETDIJ:  cpu time      0.0443: real time      0.0444
    TRIAL :  cpu time      0.5586: real time      0.5680
    CORREC:  cpu time     18.1078: real time     18.1668
    EDDIAG:  cpu time      0.2138: real time      0.2149
    CHARGE:  cpu time      0.2751: real time      0.2758
    --------------------------------------------
      LOOP:  cpu time     36.9052: real time     37.0658

 eigenvalue-minimisations  :     0
 total energy-change (2. order) :-0.8012148E-07  (-0.6243057E-07)
 number of electron      16.0000001 magnetization 
 augmentation part        1.3527327 magnetization 

 Free energy of the ion-electron system (eV)
  ---------------------------------------------------
  alpha Z        PSCENC =         0.77999380
  Ewald energy   TEWEN  =       415.52520223
  -Hartree energ DENC   =     -1265.81238641
  -exchange      EXHF   =         0.00000000
  -V(xc)+E(xc)   XCENC  =        68.28059379
  PAW double counting   =      1443.75964509    -1450.88286878
  entropy T*S    EENTRO =        -0.00000000
  eigenvalues    EBANDS =      -257.33810198
  atomic energy  EATOM  =      1028.00241598
  ---------------------------------------------------
  free energy    TOTEN  =       -17.68550627 eV

  energy without entropy =      -17.68550627  energy(sigma->0) =      -17.68550627


--------------------------------------------------------------------------------------------------------


  average scaling for gradient   1.0336


 average (electrostatic) potential at core
  the test charge radii are     0.6991  0.7215
  (the norm of the test charge is              1.0000)
       1 -63.7440       2 -83.1366       3 -83.2609
 
 
 
 E-fermi :  -8.8271     XC(G=0):  -0.8351     alpha+bet : -0.1823

 Fermi energy:        -8.8270575427

 k-point     1 :       0.0000    0.0000    0.0000
  band No.  band energies     occupation 
      1     -29.2912      2.00000
      2     -28.3069      2.00000
      3     -13.9828      2.00000
      4     -12.8759      2.00000
      5     -12.8065      2.00000
      6     -12.8064      2.00000
      7      -9.2999      2.00000
      8      -9.2989      2.00000
      9      -1.6288      0.00000
     10      -0.9340      0.00000
     11      -0.9226      0.00000
     12       0.0241      0.00000
     13       0.1318      0.00000
     14       0.2031      0.00000
     15       0.5422      0.00000
     16       0.5726      0.00000
     17       0.8661      0.00000
     18       1.6854      0.00000
     19       1.9321      0.00000
     20       1.9487      0.00000
     21       2.0008      0.00000
     22       2.1064      0.00000
     23       2.1144      0.00000
     24       2.1637      0.00000
     25       2.1707      0.00000
     26       2.7574      0.00000
     27       2.8763      0.00000
     28       3.0277      0.00000
     29       3.0500      0.00000
     30       3.0928      0.00000
     31       3.0985      0.00000
     32       3.1141      0.00000
     33       3.1363      0.00000
     34       3.1623      0.00000
     35       3.2316      0.00000
     36       3.5310      0.00000
     37       3.5925      0.00000
     38       3.7218      0.00000
     39       3.8227      0.00000
     40       3.8391      0.00000


--------------------------------------------------------------------------------------------------------


 soft charge-density along one line, spin component           1
         0         1         2         3         4         5         6         7         8         9
 total charge-density along one line
 
 pseudopotential strength for first ion, spin component:           1
 10.584  14.078  -0.000   0.000  -0.000   0.001  -0.001   0.002
 14.078  18.725  -0.000   0.000  -0.000   0.001  -0.002   0.003
 -0.000  -0.000  -4.709   0.003  -0.007   9.318  -0.004   0.008
  0.000   0.000   0.003  -4.717   0.019  -0.004   9.327  -0.021
 -0.000  -0.000  -0.007   0.019  -4.745   0.008  -0.021   9.359
  0.001   0.001   9.318  -0.004   0.008 -20.603   0.003  -0.006
 -0.001  -0.002  -0.004   9.327  -0.021   0.003 -20.611   0.017
  0.002   0.003   0.008  -0.021   9.359  -0.006   0.017 -20.636
 total augmentation occupancy for first ion, spin component:           1
  8.955  -4.355   0.027   0.008  -0.107   0.005   0.001  -0.017
 -4.355   2.380  -0.018  -0.004   0.068  -0.003  -0.001   0.010
  0.027  -0.018   1.216  -0.093   0.185   0.070  -0.017   0.033
  0.008  -0.004  -0.093   1.448  -0.527  -0.017   0.112  -0.094
 -0.107   0.068   0.185  -0.527   2.231   0.033  -0.094   0.252
  0.005  -0.003   0.070  -0.017   0.033   0.005  -0.003   0.006
  0.001  -0.001  -0.017   0.112  -0.094  -0.003   0.012  -0.017
 -0.017   0.010   0.033  -0.094   0.252   0.006  -0.017   0.037


------------------------ aborting loop because EDIFF is reached ----------------------------------------


    FORLOC:  cpu time      0.0261: real time      0.0261
    FORNL :  cpu time      0.3308: real time      0.3317
    STRESS:  cpu time      0.9571: real time      0.9794
    FORCOR:  cpu time     17.9223: real time     18.2741
    OFIELD:  cpu time      0.0037: real time      0.0037

  FORCE on cell =-STRESS in cart. coord.  units (eV):
  Direction    XX          YY          ZZ          XY          YZ          ZX
  --------------------------------------------------------------------------------------
  Alpha Z     0.77999     0.77999     0.77999
  Ewald     393.71205  -215.65409   237.46715   131.27770    34.38024  -255.85009
  Hartree   495.33047   200.07712   570.40970    73.43551    60.36454   -94.11724
  E(xc)     -75.15445   -78.55068   -77.77463     0.61955    -0.31257    -1.76375
  Local   -1065.44097  -213.47254 -1024.86056  -195.11544   -99.59066   322.62288
  n-local   -54.48977   -50.31064   -51.26949    -0.75759     0.37903     2.16418
  augment    11.42096    13.46278    12.99559    -0.37301     0.18926     1.06089
  Kinetic   293.87563   343.65633   332.26063    -9.09438     4.60100    25.86842
  Fock        0.00000     0.00000     0.00000     0.00000     0.00000     0.00000
  -------------------------------------------------------------------------------------
  Total       0.03392    -0.01174     0.00838    -0.00765     0.01083    -0.01470
  in kB       0.03962    -0.01371     0.00979    -0.00894     0.01265    -0.01718
  external pressure =        0.01 kB  Pullay stress =        0.00 kB


 VOLUME and BASIS-vectors are now :
 -----------------------------------------------------------------------------
  energy-cutoff  :     1000.00
  volume of cell :     1371.39
      direct lattice vectors                 reciprocal lattice vectors
    15.258013385  0.006374814  0.024579381     0.065314117  0.034130566  0.130953070
    -7.105142985 13.502791256  0.024499078    -0.000241744  0.073693958  0.130953351
    -7.105097270-11.773071197  6.612175988    -0.000241896 -0.000399920  0.150264152

  length of vectors
    15.258034514 15.258080769 15.258062915     0.150264886  0.150265226  0.150264879


 FORCES acting on ions:
    Electron-Ion                     Ewald-Force                    Non-Local-Force
 -----------------------------------------------------------------------------------------------
   -.709E+01 0.517E+01 -.264E+01   0.814E+01 -.501E+01 0.214E+01   -.184E+00 0.181E+00 -.119E+00
   -.247E+03 -.473E+02 0.121E+03   0.302E+03 0.580E+02 -.150E+03   -.557E+02 -.108E+02 0.290E+02
   0.253E+03 0.436E+02 -.119E+03   -.311E+03 -.530E+02 0.147E+03   0.575E+02 0.918E+01 -.279E+02
 -----------------------------------------------------------------------------------------------
   -.160E+01 0.148E+01 -.927E+00   0.000E+00 0.000E+00 0.000E+00   0.160E+01 -.148E+01 0.928E+00
 
 
 POSITION                                       TOTAL-FORCE (eV/Angst)
 -----------------------------------------------------------------------------------
     -3.59386     10.19391      1.31209         0.857238      0.339219     -0.616475
     -2.55808     10.39235      0.77596        -0.407048     -0.175406      0.300817
     -4.63417     10.02485      1.82070        -0.450190     -0.163813      0.315658
 -----------------------------------------------------------------------------------
    total drift:                                0.001885      0.000886      0.001114


--------------------------------------------------------------------------------------------------------



  FREE ENERGIE OF THE ION-ELECTRON SYSTEM (eV)
  ---------------------------------------------------
  free  energy   TOTEN  =       -17.68550627 eV

  energy  without entropy=      -17.68550627  energy(sigma->0) =      -17.68550627
 


--------------------------------------------------------------------------------------------------------


    POTLOK:  cpu time     17.6806: real time     17.7975


--------------------------------------------------------------------------------------------------------


 writing wavefunctions
     LOOP+:  cpu time    732.2995: real time    739.4239
    4ORBIT:  cpu time      0.0000: real time      0.0000

 total amount of memory used by VASP MPI-rank0   289212. kBytes
=======================================================================

   base      :      30000. kBytes
   nonlr-proj:       2297. kBytes
   fftplans  :      44218. kBytes
   grid      :     210329. kBytes
   one-center:          4. kBytes
   wavefun   :       2364. kBytes
 
  
  
 General timing and accounting informations for this job:
 ========================================================
  
                  Total CPU time used (sec):      768.614
                            User time (sec):      733.181
                          System time (sec):       35.433
                         Elapsed time (sec):      776.985
  
                   Maximum memory used (kb):      985224.
                   Average memory used (kb):          N/A
  
                          Minor page faults:       569596
                          Major page faults:            0
                 Voluntary context switches:        10264
