 vasp.6.2.1 16May21 (build Aug 03 2024 02:50:01) gamma-only                     
  
 executed on             LinuxIFC date 2024.10.28  13:20:44
 running on    8 total cores
 distrk:  each k-point on    8 cores,    1 groups
 distr:  one band on NCORE=   1 cores,    8 groups


--------------------------------------------------------------------------------------------------------


 INCAR:
   SYSTEM = MOF
   ISMEAR = 0
   SIGMA = 0.1
   ENCUT = 420.
   PREC = Accurate
   ISYM = -1
   NELM = 1
   IBRION = -1
   NSW = 0
   ALGO = sub
   NBANDS = 1128
   NBANDSHIGH = 1128
   NBANDSLOW = 131
   TIME = 0.05
   LHFCALC = .TRUE.
   AEXX = 1
   LASPH = .TRUE.
   PRECFOCK = Normal
   LWAVE = .TRUE.
   LCHARG = .TRUE.
   NWRITE = 1
   LORBIT = 11

 POTCAR:    PAW_PBE C_GW 28Sep2005                
 POTCAR:    PAW_PBE H_GW 21Apr2008                
 POTCAR:    PAW_PBE O_GW 28Sep2005                
 POTCAR:    PAW_PBE Fe_sv_GW 05Dec2013            
 -----------------------------------------------------------------------------
|                                                                             |
|           W    W    AA    RRRRR   N    N  II  N    N   GGGG   !!!           |
|           W    W   A  A   R    R  NN   N  II  NN   N  G    G  !!!           |
|           W    W  A    A  R    R  N N  N  II  N N  N  G       !!!           |
|           W WW W  AAAAAA  RRRRR   N  N N  II  N  N N  G  GGG   !            |
|           WW  WW  A    A  R   R   N   NN  II  N   NN  G    G                |
|           W    W  A    A  R    R  N    N  II  N    N   GGGG   !!!           |
|                                                                             |
|     For optimal performance we recommend to set                             |
|       NCORE = 2 up to number-of-cores-per-socket                            |
|     NCORE specifies how many cores store one orbital (NPAR=cpu/NCORE).      |
|     This setting can greatly improve the performance of VASP for DFT.       |
|     The default, NCORE=1 might be grossly inefficient on modern             |
|     multi-core architectures or massively parallel machines. Do your        |
|     own testing! More info at https://www.vasp.at/wiki/index.php/NCORE      |
|     Unfortunately you need to use the default for GW and RPA                |
|     calculations (for HF NCORE is supported but not extensively tested      |
|     yet).                                                                   |
|                                                                             |
 -----------------------------------------------------------------------------

 POTCAR:    PAW_PBE C_GW 28Sep2005                
  local pseudopotential read in
  kinetic energy density of atom read in
  atomic valenz-charges read in
  non local Contribution for L=           0  read in
    real space projection operators read in
  non local Contribution for L=           0  read in
    real space projection operators read in
  non local Contribution for L=           1  read in
    real space projection operators read in
  non local Contribution for L=           1  read in
    real space projection operators read in
    PAW grid and wavefunctions read in
 
   number of l-projection  operators is LMAX  =           4
   number of lm-projection operators is LMMAX =           8
 
 POTCAR:    PAW_PBE H_GW 21Apr2008                
  local pseudopotential read in
  kinetic energy density of atom read in
  atomic valenz-charges read in
  non local Contribution for L=           0  read in
    real space projection operators read in
  non local Contribution for L=           0  read in
    real space projection operators read in
  non local Contribution for L=           1  read in
    real space projection operators read in
  non local Contribution for L=           1  read in
    real space projection operators read in
  non local Contribution for L=           2  read in
    real space projection operators read in
    PAW grid and wavefunctions read in
 
   number of l-projection  operators is LMAX  =           5
   number of lm-projection operators is LMMAX =          13
 
 POTCAR:    PAW_PBE O_GW 28Sep2005                
  local pseudopotential read in
  kinetic energy density of atom read in
  atomic valenz-charges read in
  non local Contribution for L=           0  read in
    real space projection operators read in
  non local Contribution for L=           0  read in
    real space projection operators read in
  non local Contribution for L=           1  read in
    real space projection operators read in
  non local Contribution for L=           1  read in
    real space projection operators read in
    PAW grid and wavefunctions read in
 
   number of l-projection  operators is LMAX  =           4
   number of lm-projection operators is LMMAX =           8
 
 POTCAR:    PAW_PBE Fe_sv_GW 05Dec2013            
  local pseudopotential read in
  partial core-charges read in
  partial kinetic energy density read in
  kinetic energy density of atom read in
  atomic valenz-charges read in
  non local Contribution for L=           0  read in
    real space projection operators read in
  non local Contribution for L=           0  read in
    real space projection operators read in
  non local Contribution for L=           0  read in
    real space projection operators read in
  non local Contribution for L=           1  read in
    real space projection operators read in
  non local Contribution for L=           1  read in
    real space projection operators read in
  non local Contribution for L=           1  read in
    real space projection operators read in
  non local Contribution for L=           2  read in
    real space projection operators read in
  non local Contribution for L=           2  read in
    real space projection operators read in
  non local Contribution for L=           2  read in
    real space projection operators read in
  non local Contribution for L=           3  read in
    real space projection operators read in
  non local Contribution for L=           3  read in
    real space projection operators read in
    PAW grid and wavefunctions read in
 
   number of l-projection  operators is LMAX  =          11
   number of lm-projection operators is LMMAX =          41
 
 -----------------------------------------------------------------------------
|                                                                             |
|               ----> ADVICE to this user running VASP <----                  |
|                                                                             |
|     You have a (more or less) 'large supercell' and for larger cells it     |
|     might be more efficient to use real-space projection operators.         |
|     Therefore, try LREAL= Auto in the INCAR file.                           |
|     Mind: For very accurate calculation, you might also keep the            |
|     reciprocal projection scheme (i.e. LREAL=.FALSE.).                      |
|                                                                             |
 -----------------------------------------------------------------------------

  PAW_PBE C_GW 28Sep2005                :
 energy of atom  1       EATOM= -147.1560
 kinetic energy error for atom=    0.0192 (will be added to EATOM!!)
  PAW_PBE H_GW 21Apr2008                :
 energy of atom  2       EATOM=  -12.4884
 kinetic energy error for atom=    0.0256 (will be added to EATOM!!)
  PAW_PBE O_GW 28Sep2005                :
 energy of atom  3       EATOM= -432.3788
 kinetic energy error for atom=    0.0724 (will be added to EATOM!!)
  PAW_PBE Fe_sv_GW 05Dec2013            :
 energy of atom  4       EATOM=-3376.4015
 kinetic energy error for atom=    0.1308 (will be added to EATOM!!)
 
 
 POSCAR:  C  H  O Fe
  positions in direct lattice
  velocities in cartesian coordinates
 exchange correlation table for  LEXCH =        8
   RHO(1)=    0.500       N(1)  =     2000
   RHO(2)=  100.500       N(2)  =     4000
 


--------------------------------------------------------------------------------------------------------


 ion  position               nearest neighbor table
   1  0.032  0.132  0.567-  32 1.36   6 1.40  21 1.43
   2  0.081  0.617  0.166-   7 1.40  22 1.43   5 1.49
   3  0.131  0.566  0.032-  34 1.36   7 1.40  23 1.43
   4  0.166  0.081  0.617-   6 1.40  24 1.43  10 1.49
   5  0.179  0.747  0.349-  38 1.27  31 1.29   2 1.49
   6  0.192  0.205  0.678-  26 1.09   1 1.40   4 1.40
   7  0.205  0.677  0.192-  27 1.09   3 1.40   2 1.40
   8  0.253  0.651  0.822-  33 1.27  35 1.29  11 1.49
   9  0.322  0.808  0.795-  25 1.09  12 1.40  11 1.40
  10  0.349  0.179  0.747-  40 1.27  36 1.29   4 1.49
  11  0.383  0.834  0.919-   9 1.40  13 1.43   8 1.49
  12  0.433  0.968  0.868-  37 1.36   9 1.40  14 1.43
  13  0.567  0.032  0.132-  42 1.36  16 1.40  11 1.43
  14  0.617  0.166  0.081-  16 1.40  12 1.43  17 1.49
  15  0.651  0.821  0.253-  39 1.27  43 1.29  21 1.49
  16  0.678  0.192  0.205-  30 1.09  13 1.40  14 1.40
  17  0.747  0.349  0.178-  46 1.27  44 1.29  14 1.49
  18  0.795  0.323  0.808-  28 1.09  22 1.40  23 1.40
  19  0.808  0.795  0.322-  29 1.09  24 1.40  21 1.40
  20  0.821  0.253  0.651-  41 1.27  48 1.29  23 1.49
  21  0.834  0.919  0.383-  19 1.40   1 1.43  15 1.49
  22  0.869  0.434  0.968-  45 1.36  18 1.40   2 1.43
  23  0.919  0.383  0.834-  18 1.40   3 1.43  20 1.49
  24  0.968  0.868  0.433-  47 1.36  19 1.40   4 1.43
  25  0.182  0.656  0.634-   9 1.09
  26  0.344  0.366  0.818-   6 1.09
  27  0.366  0.817  0.344-   7 1.09
  28  0.634  0.183  0.656-  18 1.09
  29  0.656  0.634  0.182-  19 1.09
  30  0.818  0.344  0.366-  16 1.09
  31  0.067  0.696  0.328-   5 1.29  51 2.11  49 2.12
  32  0.073  0.264  0.640-   1 1.36  54 2.06  52 2.07
  33  0.098  0.479  0.633-   8 1.27  54 2.07
  34  0.264  0.638  0.074-   3 1.36  52 2.05  53 2.09
  35  0.303  0.671  0.933-   8 1.29  53 2.10  52 2.12
  36  0.328  0.067  0.696-  10 1.29  49 2.10  50 2.12
  37  0.361  0.926  0.736-  12 1.36  50 2.06  49 2.08
  38  0.367  0.903  0.521-   5 1.27  50 2.07
  39  0.479  0.633  0.098-  15 1.27  52 2.07
  40  0.521  0.367  0.902-  10 1.27  51 2.07
  41  0.633  0.097  0.479-  20 1.27  53 2.07
  42  0.639  0.074  0.264-  13 1.36  53 2.06  54 2.08
  43  0.672  0.933  0.304-  15 1.29  54 2.10  53 2.12
  44  0.697  0.329  0.067-  17 1.29  50 2.10  51 2.12
  45  0.736  0.362  0.926-  22 1.36  51 2.05  50 2.09
  46  0.902  0.521  0.367-  17 1.27  49 2.07
  47  0.927  0.736  0.360-  24 1.36  49 2.06  51 2.07
  48  0.933  0.304  0.672-  20 1.29  52 2.11  54 2.12
  49  0.107  0.783  0.515-  47 2.06  46 2.07  37 2.08  36 2.10  31 2.12
  50  0.515  0.107  0.783-  37 2.06  38 2.07  45 2.09  44 2.10  36 2.12
  51  0.783  0.516  0.106-  45 2.05  47 2.07  40 2.07  31 2.11  44 2.12
  52  0.217  0.484  0.894-  34 2.05  32 2.07  39 2.07  48 2.11  35 2.12
  53  0.485  0.893  0.217-  42 2.06  41 2.07  34 2.09  35 2.10  43 2.12
  54  0.893  0.217  0.485-  32 2.06  33 2.07  42 2.08  43 2.10  48 2.12
 

IMPORTANT INFORMATION: All symmetrisations will be switched off!
NOSYMM: (Re-)initialisation of all symmetry stuff for point group C_1.


----------------------------------------------------------------------------------------

                                     Primitive cell                                     

  volume of cell :    1403.0148

  direct lattice vectors                    reciprocal lattice vectors
    15.439217752  0.004465832 -0.038376892     0.065085042  0.034326685  0.130688713
    -7.186282924 13.630928377 -0.001416099     0.000303919  0.073536393  0.130825479
    -7.182834812-11.890639092  6.700359279     0.000372844  0.000212151  0.150021909

  length of vectors
    15.439266094 15.409246337 15.423204220     0.149979744  0.150076646  0.150022522

  position of ions in fractional coordinates (direct lattice)
     0.032140205  0.131596472  0.567243074
     0.080939400  0.617136620  0.166081282
     0.131311660  0.566131401  0.032072370
     0.166052468  0.080890174  0.616656951
     0.178934143  0.747136406  0.349358741
     0.192223384  0.205099135  0.677753253
     0.204817095  0.677208988  0.192172431
     0.252895436  0.650728993  0.821583851
     0.322307724  0.807597299  0.795016362
     0.349319458  0.178891109  0.746556755
     0.382922059  0.833947320  0.919292900
     0.433306216  0.967704379  0.868314174
     0.566693754  0.032295640  0.131685826
     0.617077941  0.166052695  0.080707123
     0.650680572  0.821108876  0.253443275
     0.677692276  0.192402701  0.204983653
     0.747104594  0.349271007  0.178416179
     0.795182905  0.322791042  0.807827584
     0.807776602  0.794900865  0.322246747
     0.821065842  0.252863594  0.650641229
     0.833947517  0.919109811  0.383343020
     0.868688340  0.433868599  0.967927620
     0.919060577  0.382863380  0.833918703
     0.967859819  0.868403528  0.432756926
     0.182479428  0.655565764  0.633945057
     0.344103209  0.366270524  0.817662957
     0.365791429  0.816735938  0.344089651
     0.634208571  0.183264047  0.655910379
     0.655896791  0.633729476  0.182337028
     0.817520572  0.344434206  0.366054943
     0.067421933  0.696011040  0.328229224
     0.073185170  0.264301200  0.639867354
     0.097668867  0.478758507  0.633498145
     0.264148327  0.637872795  0.073659183
     0.302715318  0.671496338  0.932846989
     0.328490557  0.067484104  0.696479021
     0.361353031  0.926373201  0.735541372
     0.367302190  0.903369468  0.521413749
     0.478945773  0.633023796  0.098161017
     0.521054227  0.366976174  0.901838960
     0.632697810  0.096630539  0.478586221
     0.638646969  0.073626784  0.264458628
     0.671509473  0.932515918  0.303521008
     0.697284712  0.328503632  0.067153018
     0.735851673  0.362127205  0.926340817
     0.902331148  0.521241523  0.366501884
     0.926814852  0.735698800  0.360132676
     0.932578089  0.303988990  0.671770806
     0.107174485  0.783307327  0.515334558
     0.515337162  0.106795323  0.782801462
     0.783372319  0.515771295  0.106356464
     0.216627696  0.484228705  0.893643529
     0.484662838  0.893204670  0.217198508
     0.892825508  0.216692673  0.484665412

  ion indices of the primitive-cell ions
   primitive index   ion index
                 1           1
                 2           2
                 3           3
                 4           4
                 5           5
                 6           6
                 7           7
                 8           8
                 9           9
                10          10
                11          11
                12          12
                13          13
                14          14
                15          15
                16          16
                17          17
                18          18
                19          19
                20          20
                21          21
                22          22
                23          23
                24          24
                25          25
                26          26
                27          27
                28          28
                29          29
                30          30
                31          31
                32          32
                33          33
                34          34
                35          35
                36          36
                37          37
                38          38
                39          39
                40          40
                41          41
                42          42
                43          43
                44          44
                45          45
                46          46
                47          47
                48          48
                49          49
                50          50
                51          51
                52          52
                53          53
                54          54

----------------------------------------------------------------------------------------

 
 
 KPOINTS: KPOINTS                                 

Automatic generation of k-mesh.
 Grid dimensions read from file:
 generate k-points for:    1    1    1

 Generating k-lattice:

  Cartesian coordinates                     Fractional coordinates (reciprocal lattice)
     0.065085042  0.034326685  0.130688713     1.000000000  0.000000000 -0.000000000
     0.000303919  0.073536393  0.130825479     0.000000000  1.000000000  0.000000000
     0.000372844  0.000212151  0.150021909    -0.000000000  0.000000000  1.000000000

  Length of vectors
     0.149979744  0.150076646  0.150022522

  Shift w.r.t. Gamma in fractional coordinates (k-lattice)
     0.000000000  0.000000000  0.000000000

 
 Subroutine IBZKPT returns following result:
 ===========================================
 
 Found      1 irreducible k-points:
 
 Following reciprocal coordinates:
            Coordinates               Weight
  0.000000  0.000000  0.000000      1.000000
 
 Following cartesian coordinates:
            Coordinates               Weight
  0.000000  0.000000  0.000000      1.000000
 
 WARNING: full set of k-points will be restricted to regular points only.

 
 Subroutine IBZKPT_HF returns following result:
 ==============================================
 
 Found      1 k-points in 1st BZ
 the following      1 k-points will be used (e.g. in the exchange kernel)
 Following reciprocal coordinates:   # in IRBZ
  0.000000  0.000000  0.000000    1.00000000   1 t-inv F


--------------------------------------------------------------------------------------------------------




 Dimension of arrays:
   k-points           NKPTS =      1   k-points in BZ     NKDIM =      1   number of bands    NBANDS=   1128
   number of dos      NEDOS =    301   number of ions     NIONS =     54
   non local maximal  LDIM  =     11   non local SUM 2l+1 LMDIM =     41
   total plane-waves  NPLWV = ******
   max r-space proj   IRMAX =      1   max aug-charges    IRDMAX=  22306
   dimension x,y,z NGX =   108 NGY =  108 NGZ =  108
   dimension x,y,z NGXF=   216 NGYF=  216 NGZF=  216
   support grid    NGXF=   216 NGYF=  216 NGZF=  216
   ions per type =              24   6  18   6
   lowest and highest band optimized NBANDSLOW=     131 NBANDSHIGH=    1128
   NGX,Y,Z   is equivalent  to a cutoff of  11.63, 11.65, 11.64 a.u.
   NGXF,Y,Z  is equivalent  to a cutoff of  23.26, 23.30, 23.28 a.u.

 SYSTEM =  MOF                                     
 POSCAR =   C  H  O Fe                             

 Startparameter for this run:
   NWRITE =      1    write-flag & timer
   PREC   = accura    normal or accurate (medium, high low for compatibility)
   ISTART =      1    job   : 0-new  1-cont  2-samecut
   ICHARG =      0    charge: 1-file 2-atom 10-const
   ISPIN  =      1    spin polarized calculation?
   LNONCOLLINEAR =      F non collinear calculations
   LSORBIT =      F    spin-orbit coupling
   INIWAV =      1    electr: 0-lowe 1-rand  2-diag
   LASPH  =      T    aspherical Exc in radial PAW
 Electronic Relaxation 1
   ENCUT  =  420.0 eV  30.87 Ry    5.56 a.u.  25.80 25.75 25.77*2*pi/ulx,y,z
   ENINI  =  420.0     initial cutoff
   ENAUG  =  963.7 eV  augmentation charge cutoff
   NELM   =      1;   NELMIN=  2; NELMDL=  0     # of ELM steps 
   EDIFF  = 0.1E-03   stopping-criterion for ELM
   LREAL  =      F    real-space projection
   NLSPLINE    = F    spline interpolate recip. space projectors
   LCOMPAT=      F    compatible to vasp.4.4
   GGA_COMPAT  = T    GGA compatible to vasp.4.4-vasp.4.6
   LMAXPAW     = -100 max onsite density
   LMAXMIX     =    2 max onsite mixed and CHGCAR
   VOSKOWN=      0    Vosko Wilk Nusair interpolation
   ROPT   =    0.00000   0.00000   0.00000   0.00000
 Ionic relaxation
   EDIFFG = 0.1E-02   stopping-criterion for IOM
   NSW    =      0    number of steps for IOM
   NBLOCK =      1;   KBLOCK =      1    inner block; outer block 
   IBRION =     -1    ionic relax: 0-MD 1-quasi-New 2-CG
   NFREE  =      0    steps in history (QN), initial steepest desc. (CG)
   ISIF   =      0    stress and relaxation
   IWAVPR =     10    prediction:  0-non 1-charg 2-wave 3-comb
   ISYM   =     -1    0-nonsym 1-usesym 2-fastsym
   LCORR  =      T    Harris-Foulkes like correction to forces

   POTIM  = 0.5000    time-step for ionic-motion
   TEIN   =    0.0    initial temperature
   TEBEG  =    0.0;   TEEND  =   0.0 temperature during run
   SMASS  =  -3.00    Nose mass-parameter (am)
   estimated Nose-frequenzy (Omega)   =  0.10E-29 period in steps = 0.13E+47 mass=  -0.545E-26a.u.
   SCALEE = 1.0000    scale energy and forces
   NPACO  =    256;   APACO  = 16.0  distance and # of slots for P.C.
   PSTRESS=    0.0 pullay stress

  Mass of Ions in am
   POMASS =  12.01  1.00 16.00 55.85
  Ionic Valenz
   ZVAL   =   4.00  1.00  6.00 16.00
  Atomic Wigner-Seitz radii
   RWIGS  =  -1.00 -1.00 -1.00 -1.00
  virtual crystal weights 
   VCA    =   1.00  1.00  1.00  1.00
   NELECT =     306.0000    total number of electrons
   NUPDOWN=      -1.0000    fix difference up-down

 DOS related values:
   EMIN   =  10.00;   EMAX   =-10.00  energy-range for DOS
   EFERMI =   0.00
   ISMEAR =     0;   SIGMA  =   0.10  broadening in eV -4-tet -1-fermi 0-gaus

 Electronic relaxation 2 (details)
   IALGO  =      4    algorithm
   LDIAG  =      T    sub-space diagonalisation (order eigenvalues)
   LSUBROT=      F    optimize rotation matrix (better conditioning)
   TURBO    =      0    0=normal 1=particle mesh
   IRESTART =      0    0=no restart 2=restart with 2 vectors
   NREBOOT  =      0    no. of reboots
   NMIN     =      0    reboot dimension
   EREF     =   0.00    reference energy to select bands
   IMIX   =      1    mixing-type and parameters
     AMIX     =   0.40;   BMIX     =  1.00
     AMIX_MAG =   1.60;   BMIX_MAG =  1.00
     AMIN     =   0.10
     WC   =   100.;   INIMIX=   1;  MIXPRE=   1;  MAXMIX= -45

 Intra band minimization:
   WEIMIN = 0.0000     energy-eigenvalue tresh-hold
   EBREAK =  0.22E-07  absolut break condition
   DEPER  =   0.30     relativ break condition  

   TIME   =   0.05     timestep for ELM

  volume/ion in A,a.u.               =      25.98       175.33
  Fermi-wavevector in a.u.,A,eV,Ry     =   0.985435  1.862202 13.212369  0.971082
  Thomas-Fermi vector in A             =   2.116742
 
 Write flags
   LWAVE        =      T    write WAVECAR
   LDOWNSAMPLE  =      F    k-point downsampling of WAVECAR
   LCHARG       =      T    write CHGCAR
   LVTOT        =      F    write LOCPOT, total local potential
   LVHAR        =      F    write LOCPOT, Hartree potential only
   LELF         =      F    write electronic localiz. function (ELF)
   LORBIT       =     11    0 simple, 1 ext, 2 COOP (PROOUT), +10 PAW based schemes


 Dipole corrections
   LMONO  =      F    monopole corrections only (constant potential shift)
   LDIPOL =      F    correct potential (dipole corrections)
   IDIPOL =      0    1-x, 2-y, 3-z, 4-all directions 
   EPSILON=  1.0000000 bulk dielectric constant

 Exchange correlation treatment:
   GGA     =    --    GGA type
   LEXCH   =     8    internal setting for exchange type
   VOSKOWN=      0    Vosko Wilk Nusair interpolation
   EXXOEP  =     0    0=HF, 1=EXX-LHF (local Hartree Fock) 2=EXX OEP
   LHFCALC =     T    Hartree Fock is set to
   LSYMGRAD=     F    symmetrize gradient (conserves proper symmetry)
   PRECFOCK=normal    Normal, Fast or Accurate (Low or Medium for compatibility)
   LRHFCALC=     F    long range Hartree Fock
   LRSCOR  =     F    long range correlation only (use DFT for short range part)
   LTHOMAS =     F    Thomas Fermi screening in HF
   LMODELHF=     F    short range full HF, long range fraction AEXX
   LFOCKACE=     T    use Adeptively-Compressed-Exchange operator
   ENCUT4O =  -1.0   cutoff for four orbital integrals eV
   LMAXFOCK=     4    L truncation for augmentation on plane wave grid
   LMAXFOCKAE=  -1    L truncation for all-electron charge restoration on plane wave grid
   NMAXFOCKAE=   1    number of basis functions for all-electron charge restoration
   LFOCKAEDFT=     F  apply the AE augmentation even for DFT
   NKREDX  =     1    reduce k-point grid by
   NKREDY  =     1    reduce k-point grid by
   NKREDZ  =     1    reduce k-point grid by
   SHIFTRED=     F    shift reduced grid of Gamma
   HFKIDENT=     F    idential grid for each k-point
   ODDONLY =     F    use only odd q-grid points
   EVENONLY=     F    use only even q-grid points
   HFALPHA =   -1.0000 decay constant for conv. correction
   MCALPHA =    0.0000 extent of test-charge in conv. correction in multipole expansion
   AEXX    =    1.0000 exact exchange contribution
   HFSCREEN=    0.0000 screening length (either q_TF or 0.3 A-1)
   HFSCREENC=   0.0000 screening length for correlation (either q_TF or 0.3 A-1)
   HFRCUT  =    0.0000 spherical cutoff for potential kernel
   ALDAX   =    0.0000 LDA exchange part
   AGGAX   =    0.0000 GGA exchange part
   ALDAC   =    0.0000 LDA correlation
   AGGAC   =    0.0000 GGA correlation
   ENCUTFOCK=  -1.0 apply spherical cutoff to Coloumb kernel
   NBANDSGWLOW=     1    first orbital included in HF term
   NBLOCK_FOCK=    64    blocking factor in FOCK_ACC
 Linear response parameters
   LEPSILON=     F    determine dielectric tensor
   LRPA    =     F    only Hartree local field effects (RPA)
   LNABLA  =     F    use nabla operator in PAW spheres
   LVEL    =     F    velocity operator in full k-point grid
   CSHIFT  =0.1000    complex shift for real part using Kramers Kronig
   OMEGAMAX=  -1.0    maximum frequency
   DEG_THRESHOLD= 0.2000000E-02 threshold for treating states as degnerate
   RTIME   =   -0.100 relaxation time in fs
  (WPLASMAI=    0.000 imaginary part of plasma frequency in eV, 0.658/RTIME)
   DFIELD  = 0.0000000 0.0000000 0.0000000 field for delta impulse in time
 
  Optional k-point grid parameters
   LKPOINTS_OPT  =     F    use optional k-point grid
   KPOINTS_OPT_MODE=     1    mode for optional k-point grid
 
 Orbital magnetization related:
   ORBITALMAG=     F  switch on orbital magnetization
   LCHIMAG   =     F  perturbation theory with respect to B field
   DQ        =  0.001000  dq finite difference perturbation B field
   LLRAUG    =     F  two centre corrections for induced B field



--------------------------------------------------------------------------------------------------------


 Static calculation
 charge density and potential will be updated during run
 non-spin polarized calculation
 Subrot: only subspace diagonalization (rotation)
    band-by band algorithm
 perform sub-space diagonalisation
    before iterative eigenvector-optimisation
 Kerker-like  mixing scheme
 using additional bands          975
 reciprocal scheme for non local part
 use partial core corrections
 calculate Harris-corrections to forces 
   (improved forces if not selfconsistent)
 use gradient corrections 
 use of overlap-Matrix (Vanderbilt PP)
 Gauss-broadening in eV      SIGMA  =   0.10


--------------------------------------------------------------------------------------------------------


  energy-cutoff  :      420.00
  volume of cell :     1403.01
      direct lattice vectors                 reciprocal lattice vectors
    15.439217752  0.004465832 -0.038376892     0.065085042  0.034326685  0.130688713
    -7.186282924 13.630928377 -0.001416099     0.000303919  0.073536393  0.130825479
    -7.182834812-11.890639092  6.700359279     0.000372844  0.000212151  0.150021909

  length of vectors
    15.439266094 15.409246337 15.423204220     0.149979744  0.150076646  0.150022522


 
 old parameters found on file WAVECAR:
  energy-cutoff  :      420.00
  volume of cell :     1403.01
      direct lattice vectors                 reciprocal lattice vectors
    15.439217752  0.004465832 -0.038376892     0.065085042  0.034326685  0.130688713
    -7.186282924 13.630928377 -0.001416099     0.000303919  0.073536393  0.130825479
    -7.182834812-11.890639092  6.700359279     0.000372844  0.000212151  0.150021909

  length of vectors

 
 k-points in units of 2pi/SCALE and weight: KPOINTS                                 
   0.00000000  0.00000000  0.00000000       1.000
 
 k-points in reciprocal lattice and weights: KPOINTS                                 
   0.00000000  0.00000000  0.00000000       1.000
 
 position of ions in fractional coordinates (direct lattice) 
   0.03214020  0.13159647  0.56724307
   0.08093940  0.61713662  0.16608128
   0.13131166  0.56613140  0.03207237
   0.16605247  0.08089017  0.61665695
   0.17893414  0.74713641  0.34935874
   0.19222338  0.20509913  0.67775325
   0.20481709  0.67720899  0.19217243
   0.25289544  0.65072899  0.82158385
   0.32230772  0.80759730  0.79501636
   0.34931946  0.17889111  0.74655676
   0.38292206  0.83394732  0.91929290
   0.43330622  0.96770438  0.86831417
   0.56669375  0.03229564  0.13168583
   0.61707794  0.16605269  0.08070712
   0.65068057  0.82110888  0.25344327
   0.67769228  0.19240270  0.20498365
   0.74710459  0.34927101  0.17841618
   0.79518291  0.32279104  0.80782758
   0.80777660  0.79490087  0.32224675
   0.82106584  0.25286359  0.65064123
   0.83394752  0.91910981  0.38334302
   0.86868834  0.43386860  0.96792762
   0.91906058  0.38286338  0.83391870
   0.96785982  0.86840353  0.43275693
   0.18247943  0.65556576  0.63394506
   0.34410321  0.36627052  0.81766296
   0.36579143  0.81673594  0.34408965
   0.63420857  0.18326405  0.65591038
   0.65589679  0.63372948  0.18233703
   0.81752057  0.34443421  0.36605494
   0.06742193  0.69601104  0.32822922
   0.07318517  0.26430120  0.63986735
   0.09766887  0.47875851  0.63349814
   0.26414833  0.63787280  0.07365918
   0.30271532  0.67149634  0.93284699
   0.32849056  0.06748410  0.69647902
   0.36135303  0.92637320  0.73554137
   0.36730219  0.90336947  0.52141375
   0.47894577  0.63302380  0.09816102
   0.52105423  0.36697617  0.90183896
   0.63269781  0.09663054  0.47858622
   0.63864697  0.07362678  0.26445863
   0.67150947  0.93251592  0.30352101
   0.69728471  0.32850363  0.06715302
   0.73585167  0.36212720  0.92634082
   0.90233115  0.52124152  0.36650188
   0.92681485  0.73569880  0.36013268
   0.93257809  0.30398899  0.67177081
   0.10717448  0.78330733  0.51533456
   0.51533716  0.10679532  0.78280146
   0.78337232  0.51577130  0.10635646
   0.21662770  0.48422870  0.89364353
   0.48466284  0.89320467  0.21719851
   0.89282551  0.21669267  0.48466541
 
 position of ions in cartesian coordinates  (Angst):
  -4.52388317 -4.95095705  3.79931260
  -4.37821175  6.43769394  1.10882413
  -2.27140164  7.33612202  0.20905537
  -2.44692449 -6.22909552  4.12533600
  -5.11591652  6.03086322  2.33290413
  -3.37431139 -5.26236927  4.53352292
  -3.08474249  6.94684887  1.27880509
  -6.67311603 -0.89798737  5.49428014
  -6.53791475  1.55648768  5.31338245
  -1.25473680 -6.43702504  4.98853936
  -6.68409337  0.43820617  6.14371640
  -6.50124571  2.86783369  5.80001762
   7.57134513 -1.12307831  0.86054867
   7.75419311  1.30654888  0.51685004
   2.32483717  8.18177960  1.67202713
   7.60801466  0.18826726  1.34718394
   7.74321629  2.64274213  1.16628635
   4.15484218 -5.20209353  5.38176130
   4.44441119  7.00712439  2.12704337
   6.18601652 -4.28610774  4.32766196
   3.51702459  7.97385078  2.53523010
   3.34150173 -5.59136678  6.45151085
   5.44831152 -4.69293864  5.55174206
   5.59398355  6.69571217  2.86125369
  -6.44726406  1.39877301  4.23972831
  -3.19257720 -4.72839114  5.46491130
  -2.69330113  7.04305679  2.29032977
   3.76340103 -5.29830223  4.37023672
   4.26267732  6.47314643  1.19565489
   7.51736429  0.34598169  2.42083798
  -6.31840665  5.58472248  2.19568066
  -5.36548293 -4.00543421  4.28415826
  -6.48287571 -1.00633871  4.24023897
  -1.03477259  7.82012327  0.48250251
  -6.85236078 -1.93767650  6.23784180
  -0.41601639 -7.36024271  4.65395766
  -6.36144396  3.88288350  4.91321202
  -4.56623892  6.11546212  3.47828427
   2.14038562  7.46364369  0.63843721
  -1.07028522 -5.71888870  6.02212893
   5.63633910 -4.37070655  3.18228181
   7.43154408 -2.13812859  1.74735427
   1.48611650  9.10499778  2.00660882
   7.92246143  3.68243113  0.42272453
   2.10487260 -6.07536816  6.17806378
   7.55297553  2.75109390  2.42032751
   6.43558307  5.75018897  2.37640822
   7.38850658 -3.83996731  4.46488582
  -7.67594086  4.55002746  3.44770442
   1.56620766 -7.84998885  5.22512277
   7.62423645  5.76929366  0.68183275
  -6.55413615 -4.02453846  5.97873350
  -0.49610738  9.59474423  1.43544332
   8.74604099 -2.80527198  3.21286166
 


--------------------------------------------------------------------------------------------------------


 use serial FFT for orbitals x direction half grid
 k-point   1 :   0.0000 0.0000 0.0000  plane waves:   13714

 maximum and minimum number of plane-waves per node :     13714    13714

 maximum number of plane-waves:     13714
 maximum index in each direction: 
   IXMAX=   25   IYMAX=   22   IZMAX=   22
   IXMIN=    0   IYMIN=  -25   IZMIN=  -25


 serial   3D FFT for wavefunctions
 parallel 3D FFT for charge:
    minimum data exchange during FFTs selected (reduces bandwidth)


 FFT grid for exact exchange (Hartree Fock) 
  NGX = 80; NGY = 80; NGZ = 80

 use serial FFT for orbitals x direction half grid
 
 Radii for the augmentation spheres in the non-local exchange
 for species   1 augmentation radius   0.874 (default was   0.699)
       energy cutoff for augmentation   1680.0
 for species   2 augmentation radius   0.735 (default was   0.588)
       energy cutoff for augmentation   1680.0
 for species   3 augmentation radius   0.902 (default was   0.722)
       energy cutoff for augmentation   1680.0
 for species   4 augmentation radius   1.117 (default was   0.893)
       energy cutoff for augmentation   1680.0
 Maximum index for augmentation-charges in exchange         2121
  SETUP_FOCK is finished

 total amount of memory used by VASP MPI-rank0   291906. kBytes
=======================================================================

   base      :      30000. kBytes
   nonl-proj :      29854. kBytes
   fftplans  :      47759. kBytes
   grid      :     141927. kBytes
   one-center:       2178. kBytes
   HF        :       1344. kBytes
   nonlr-proj:       7143. kBytes
   wavefun   :      31701. kBytes
 
     INWAV:  cpu time      0.5901: real time      0.6875
 charge density for first step will be calculated from the start-wavefunctions


--------------------------------------------------------------------------------------------------------


 Maximum index for augmentation-charges         2705 (set IRDMAX)


--------------------------------------------------------------------------------------------------------


 initial charge from wavefunction
    FEWALD:  cpu time      0.0039: real time      0.0039


--------------------------------------- Iteration      1(   1)  ---------------------------------------


    POTLOK:  cpu time      0.6605: real time      0.6821
    SETDIJ:  cpu time      0.7222: real time      0.7241
    EDDIAG:  cpu time    540.8326: real time    542.2953
       DOS:  cpu time      0.0005: real time      0.0006
    --------------------------------------------
      LOOP:  cpu time    542.2159: real time    543.7021

 eigenvalue-minimisations  :     0
 total energy-change (2. order) :-0.8581441E+03  ( 0.0000000E+00)
 number of electron     305.9999976 magnetization 
 augmentation part       49.8211425 magnetization 

 Free energy of the ion-electron system (eV)
  ---------------------------------------------------
  alpha Z        PSCENC =       346.31287096
  Ewald energy   TEWEN  =     19232.08394480
  -Hartree energ DENC   =    -46984.41828881
  -exchange      EXHF   =      4353.41136157
  -V(xc)+E(xc)   XCENC  =         0.00000000
  PAW double counting   =     30855.30445817   -31101.33504047
  entropy T*S    EENTRO =        -0.00000000
  eigenvalues    EBANDS =     -8283.31487729
  atomic energy  EATOM  =     30723.81142458
  Solvation  Ediel_sol  =         0.00000000
  ---------------------------------------------------
  free energy    TOTEN  =      -858.14414650 eV

  energy without entropy =     -858.14414650  energy(sigma->0) =     -858.14414650
  exchange ACFDT corr.  =     -1867.44320975  see jH, gK, PRB 81, 115126


--------------------------------------------------------------------------------------------------------




 average (electrostatic) potential at core
  the test charge radii are     0.6991  0.5883  0.7215  0.8933
  (the norm of the test charge is              1.0000)
       1 -40.6918       2 -39.4190       3 -40.6811       4 -39.4300       5 -43.2253
       6 -38.9000       7 -38.8872       8 -43.2274       9 -38.8928      10 -43.2339
      11 -39.4213      12 -40.6854      13 -40.6856      14 -39.4214      15 -43.2337
      16 -38.8931      17 -43.2277      18 -38.8872      19 -38.8998      20 -43.2254
      21 -39.4298      22 -40.6811      23 -39.4191      24 -40.6918      25 -18.8828
      26 -18.8901      27 -18.8754      28 -18.8754      29 -18.8900      30 -18.8829
      31 -50.7126      32 -49.6599      33 -50.4082      34 -49.6484      35 -50.7103
      36 -50.7144      37 -49.6542      38 -50.4096      39 -50.4191      40 -50.4191
      41 -50.4097      42 -49.6543      43 -50.7146      44 -50.7103      45 -49.6486
      46 -50.4083      47 -49.6599      48 -50.7125      49 -57.2556      50 -57.2624
      51 -57.2548      52 -57.2548      53 -57.2626      54 -57.2557
 
 
 
 E-fermi :  -6.2764     XC(G=0):   0.0000     alpha+bet : -3.5582

 Fermi energy:        -6.2763868233

 k-point     1 :       0.0000    0.0000    0.0000
  band No.  band energies     occupation 
      1     -98.8093      2.00000
      2     -97.5906      2.00000
      3     -97.4592      2.00000
      4     -96.3497      2.00000
      5     -92.0860      2.00000
      6     -85.5487      2.00000
      7     -83.7958      2.00000
      8     -83.4888      2.00000
      9     -83.2346      2.00000
     10     -82.0085      2.00000
     11     -74.3639      2.00000
     12     -74.0641      2.00000
     13     -71.7179      2.00000
     14     -71.6250      2.00000
     15     -71.2251      2.00000
     16     -71.2182      2.00000
     17     -71.2173      2.00000
     18     -71.0644      2.00000
     19     -70.5622      2.00000
     20     -70.4577      2.00000
     21     -31.5670      2.00000
     22     -31.5662      2.00000
     23     -31.5279      2.00000
     24     -31.5271      2.00000
     25     -31.5220      2.00000
     26     -31.3380      2.00000
     27     -31.3380      2.00000
     28     -31.3114      2.00000
     29     -31.2963      2.00000
     30     -31.2962      2.00000
     31     -27.9403      2.00000
     32     -27.9344      2.00000
     33     -27.9325      2.00000
     34     -27.9121      2.00000
     35     -20.0493      2.00000
     36     -20.0487      2.00000
     37     -20.0390      2.00000
     38     -20.0387      2.00000
     39     -20.0367      2.00000
     40     -20.0363      2.00000
     41     -19.7747      2.00000
     42     -19.7745      2.00000
     43     -19.7686      2.00000
     44     -19.7685      2.00000
     45     -19.7685      2.00000
     46     -19.7685      2.00000
     47     -19.7664      2.00000
     48     -19.7663      2.00000
     49     -19.7610      2.00000
     50     -19.7608      2.00000
     51     -19.7579      2.00000
     52     -19.7578      2.00000
     53     -19.7546      2.00000
     54     -19.7539      2.00000
     55     -19.7445      2.00000
     56     -19.7440      2.00000
     57     -19.7432      2.00000
     58     -19.7425      2.00000
     59     -17.6701      2.00000
     60     -17.6598      2.00000
     61     -17.6355      2.00000
     62     -17.6267      2.00000
     63     -17.5811      2.00000
     64     -17.3140      2.00000
     65     -17.2337      2.00000
     66     -17.1839      2.00000
     67     -17.1800      2.00000
     68     -17.1584      2.00000
     69     -17.0267      2.00000
     70     -17.0070      2.00000
     71     -17.0038      2.00000
     72     -16.8692      2.00000
     73     -16.0415      2.00000
     74     -16.0389      2.00000
     75     -15.8996      2.00000
     76     -15.8967      2.00000
     77     -15.8250      2.00000
     78     -15.6135      2.00000
     79     -15.6130      2.00000
     80     -15.6053      2.00000
     81     -15.6051      2.00000
     82     -15.5996      2.00000
     83     -15.5993      2.00000
     84     -15.1299      2.00000
     85     -14.8801      2.00000
     86     -14.7068      2.00000
     87     -14.5478      2.00000
     88     -13.5753      2.00000
     89     -13.5181      2.00000
     90     -13.5096      2.00000
     91     -13.4733      2.00000
     92     -13.4632      2.00000
     93     -12.4665      2.00000
     94     -12.4661      2.00000
     95     -12.4239      2.00000
     96     -12.4210      2.00000
     97     -12.4192      2.00000
     98     -12.4033      2.00000
     99     -12.3968      2.00000
    100     -12.3841      2.00000
    101     -12.3765      2.00000
    102     -12.3718      2.00000
    103     -12.2535      2.00000
    104     -12.2461      2.00000
    105     -12.2204      2.00000
    106     -12.2168      2.00000
    107     -12.2133      2.00000
    108     -12.2112      2.00000
    109     -12.2019      2.00000
    110     -12.1924      2.00000
    111     -12.1599      2.00000
    112     -12.1528      2.00000
    113     -11.8411      2.00000
    114     -11.8295      2.00000
    115     -11.8289      2.00000
    116     -11.8175      2.00000
    117     -11.8173      2.00000
    118     -11.1778      2.00000
    119     -11.1740      2.00000
    120     -11.1723      2.00000
    121     -10.8921      2.00000
    122      -8.8530      2.00000
    123      -8.8477      2.00000
    124      -8.8450      2.00000
    125      -8.7797      2.00000
    126      -8.7729      2.00000
    127      -8.7724      2.00000
    128      -7.8889      2.00000
    129      -7.8787      2.00000
    130      -7.8766      2.00000
    131    -111.6169      2.00000
    132     -71.3134      2.00000
    133     -71.2842      2.00000
    134     -71.2670      2.00000
    135     -34.5850      2.00000
    136     -34.3715      2.00000
    137     -32.7356      2.00000
    138     -32.6960      2.00000
    139     -17.5933      2.00000
    140     -16.5721      2.00000
    141     -15.8115      2.00000
    142     -15.6463      2.00000
    143     -13.2361      2.00000
    144     -12.8293      2.00000
    145     -12.5012      2.00000
    146     -12.2355      2.00000
    147     -11.8428      2.00000
    148     -11.4956      2.00000
    149     -11.2851      2.00000
    150     -11.1021      2.00000
    151     -10.9855      2.00000
    152     -10.2543      2.00000
    153     -10.0215      2.00000
    154       5.0083      0.00000
    155       5.0310      0.00000
    156       6.7848      0.00000
    157       7.5848      0.00000
    158       8.0198      0.00000
    159       8.6085      0.00000
    160       9.0969      0.00000
    161       9.3302      0.00000
    162       9.4804      0.00000
    163       9.8960      0.00000
    164      10.2623      0.00000
    165      10.6158      0.00000
    166      10.9217      0.00000
    167      11.1621      0.00000
    168      11.5644      0.00000
    169      11.6734      0.00000
    170      11.8428      0.00000
    171      12.0430      0.00000
    172      12.2671      0.00000
    173      12.5041      0.00000
    174      13.0932      0.00000
    175      13.1554      0.00000
    176      13.4649      0.00000
    177      13.5940      0.00000
    178      14.2703      0.00000
    179      14.6101      0.00000
    180      14.8506      0.00000
    181      15.0904      0.00000
    182      15.4045      0.00000
    183      15.5900      0.00000
    184      15.8026      0.00000
    185      15.8872      0.00000
    186      16.2977      0.00000
    187      16.6620      0.00000
    188      16.8598      0.00000
    189      17.4210      0.00000
    190      17.6666      0.00000
    191      17.8706      0.00000
    192      18.0845      0.00000
    193      18.4280      0.00000
    194      18.5197      0.00000
    195      18.8442      0.00000
    196      18.8534      0.00000
    197      19.1759      0.00000
    198      19.4729      0.00000
    199      19.8613      0.00000
    200      20.2883      0.00000
    201      21.0078      0.00000
    202      21.1801      0.00000
    203      21.3933      0.00000
    204      21.7553      0.00000
    205      21.9707      0.00000
    206      22.1735      0.00000
    207      22.3995      0.00000
    208      22.6078      0.00000
    209      22.9864      0.00000
    210      23.2131      0.00000
    211      23.3713      0.00000
    212      23.7342      0.00000
    213      23.9312      0.00000
    214      24.0728      0.00000
    215      24.4270      0.00000
    216      24.9018      0.00000
    217      25.3885      0.00000
    218      25.5579      0.00000
    219      25.5666      0.00000
    220      25.9835      0.00000
    221      26.1738      0.00000
    222      26.5049      0.00000
    223      26.9443      0.00000
    224      27.0871      0.00000
    225      27.4863      0.00000
    226      27.6017      0.00000
    227      28.1215      0.00000
    228      28.4998      0.00000
    229      28.8421      0.00000
    230      29.0248      0.00000
    231      29.2821      0.00000
    232      29.5766      0.00000
    233      29.5787      0.00000
    234      29.9521      0.00000
    235      30.3331      0.00000
    236      30.6116      0.00000
    237      30.7112      0.00000
    238      31.0164      0.00000
    239      31.3180      0.00000
    240      31.6350      0.00000
    241      32.0052      0.00000
    242      32.0792      0.00000
    243      32.6001      0.00000
    244      32.8391      0.00000
    245      32.9649      0.00000
    246      33.2915      0.00000
    247      33.4748      0.00000
    248      33.6183      0.00000
    249      33.9168      0.00000
    250      34.1187      0.00000
    251      34.4822      0.00000
    252      34.6313      0.00000
    253      34.9699      0.00000
    254      35.5530      0.00000
    255      35.6266      0.00000
    256      35.8227      0.00000
    257      36.2365      0.00000
    258      36.6946      0.00000
    259      36.8768      0.00000
    260      37.0510      0.00000
    261      37.1148      0.00000
    262      37.2080      0.00000
    263      37.3463      0.00000
    264      37.7766      0.00000
    265      38.6239      0.00000
    266      39.2000      0.00000
    267      39.3995      0.00000
    268      39.4232      0.00000
    269      39.8200      0.00000
    270      39.9724      0.00000
    271      40.3661      0.00000
    272      40.5578      0.00000
    273      40.7260      0.00000
    274      41.1346      0.00000
    275      41.3476      0.00000
    276      41.8062      0.00000
    277      42.0310      0.00000
    278      42.1872      0.00000
    279      42.4558      0.00000
    280      43.0059      0.00000
    281      43.3698      0.00000
    282      43.6321      0.00000
    283      43.8729      0.00000
    284      44.1087      0.00000
    285      44.2656      0.00000
    286      44.4371      0.00000
    287      44.8814      0.00000
    288      44.9341      0.00000
    289      45.5020      0.00000
    290      45.7549      0.00000
    291      46.0756      0.00000
    292      46.5030      0.00000
    293      46.7982      0.00000
    294      46.9373      0.00000
    295      47.5014      0.00000
    296      47.6371      0.00000
    297      47.9104      0.00000
    298      48.0194      0.00000
    299      48.4058      0.00000
    300      48.6476      0.00000
    301      48.8224      0.00000
    302      49.0364      0.00000
    303      49.3335      0.00000
    304      49.6904      0.00000
    305      50.0617      0.00000
    306      50.2565      0.00000
    307      50.3204      0.00000
    308      50.9284      0.00000
    309      51.1549      0.00000
    310      51.8059      0.00000
    311      51.8939      0.00000
    312      52.0773      0.00000
    313      52.4168      0.00000
    314      52.7007      0.00000
    315      52.9313      0.00000
    316      53.1571      0.00000
    317      53.6956      0.00000
    318      53.9074      0.00000
    319      54.1226      0.00000
    320      54.4513      0.00000
    321      54.9405      0.00000
    322      55.1432      0.00000
    323      55.3195      0.00000
    324      55.5725      0.00000
    325      55.9015      0.00000
    326      56.1690      0.00000
    327      56.4762      0.00000
    328      56.7590      0.00000
    329      57.3611      0.00000
    330      57.5502      0.00000
    331      57.6842      0.00000
    332      57.9051      0.00000
    333      58.0830      0.00000
    334      58.3021      0.00000
    335      58.9035      0.00000
    336      59.1255      0.00000
    337      59.4439      0.00000
    338      59.7372      0.00000
    339      59.8891      0.00000
    340      60.2402      0.00000
    341      60.6714      0.00000
    342      60.8071      0.00000
    343      61.1209      0.00000
    344      61.2387      0.00000
    345      61.6987      0.00000
    346      61.9561      0.00000
    347      62.1530      0.00000
    348      62.3956      0.00000
    349      62.6199      0.00000
    350      62.9779      0.00000
    351      63.3461      0.00000
    352      63.4158      0.00000
    353      64.0934      0.00000
    354      64.1466      0.00000
    355      64.6047      0.00000
    356      64.6609      0.00000
    357      65.0222      0.00000
    358      65.6975      0.00000
    359      66.1746      0.00000
    360      66.3706      0.00000
    361      66.6235      0.00000
    362      66.9815      0.00000
    363      67.6010      0.00000
    364      67.6591      0.00000
    365      68.0433      0.00000
    366      68.2038      0.00000
    367      68.4290      0.00000
    368      68.5602      0.00000
    369      68.6655      0.00000
    370      68.9600      0.00000
    371      69.3499      0.00000
    372      69.6964      0.00000
    373      69.9519      0.00000
    374      70.1654      0.00000
    375      70.5216      0.00000
    376      70.6825      0.00000
    377      71.0891      0.00000
    378      71.1901      0.00000
    379      71.5714      0.00000
    380      71.9865      0.00000
    381      72.2517      0.00000
    382      72.5408      0.00000
    383      72.8742      0.00000
    384      73.0727      0.00000
    385      73.3052      0.00000
    386      73.6776      0.00000
    387      73.7253      0.00000
    388      74.1083      0.00000
    389      74.3743      0.00000
    390      74.6677      0.00000
    391      75.0770      0.00000
    392      75.2193      0.00000
    393      75.3699      0.00000
    394      75.5959      0.00000
    395      75.9967      0.00000
    396      76.1106      0.00000
    397      76.2638      0.00000
    398      76.8761      0.00000
    399      77.1613      0.00000
    400      77.3911      0.00000
    401      77.5908      0.00000
    402      77.7963      0.00000
    403      78.2952      0.00000
    404      78.4533      0.00000
    405      78.7402      0.00000
    406      79.2143      0.00000
    407      79.4730      0.00000
    408      79.5548      0.00000
    409      79.9353      0.00000
    410      80.2405      0.00000
    411      80.4292      0.00000
    412      80.7661      0.00000
    413      80.8291      0.00000
    414      81.1170      0.00000
    415      81.5968      0.00000
    416      81.9925      0.00000
    417      82.2086      0.00000
    418      82.6941      0.00000
    419      82.8068      0.00000
    420      83.1752      0.00000
    421      83.3872      0.00000
    422      83.6377      0.00000
    423      84.1064      0.00000
    424      84.3696      0.00000
    425      84.7673      0.00000
    426      84.9065      0.00000
    427      85.0728      0.00000
    428      85.4567      0.00000
    429      85.6614      0.00000
    430      86.1517      0.00000
    431      86.4576      0.00000
    432      86.6878      0.00000
    433      86.9031      0.00000
    434      87.2317      0.00000
    435      87.7156      0.00000
    436      87.8562      0.00000
    437      88.1310      0.00000
    438      88.9057      0.00000
    439      89.2458      0.00000
    440      89.3712      0.00000
    441      89.5195      0.00000
    442      89.7226      0.00000
    443      89.8649      0.00000
    444      90.2069      0.00000
    445      90.5586      0.00000
    446      91.2053      0.00000
    447      91.3854      0.00000
    448      91.7462      0.00000
    449      91.8454      0.00000
    450      92.5474      0.00000
    451      92.9074      0.00000
    452      93.1041      0.00000
    453      93.4792      0.00000
    454      94.0674      0.00000
    455      94.1633      0.00000
    456      94.5075      0.00000
    457      94.7538      0.00000
    458      95.4483      0.00000
    459      95.7505      0.00000
    460      96.0335      0.00000
    461      96.2342      0.00000
    462      96.5442      0.00000
    463      97.0219      0.00000
    464      97.1358      0.00000
    465      97.8408      0.00000
    466      98.0667      0.00000
    467      98.3927      0.00000
    468      98.5426      0.00000
    469      98.6741      0.00000
    470      99.0702      0.00000
    471      99.5264      0.00000
    472      99.9924      0.00000
    473     100.3617      0.00000
    474     100.3992      0.00000
    475     100.8202      0.00000
    476     101.2469      0.00000
    477     101.3914      0.00000
    478     101.5920      0.00000
    479     101.9655      0.00000
    480     102.4534      0.00000
    481     103.0063      0.00000
    482     103.2291      0.00000
    483     103.3593      0.00000
    484     103.8195      0.00000
    485     104.1339      0.00000
    486     104.4652      0.00000
    487     104.7075      0.00000
    488     105.1771      0.00000
    489     105.3207      0.00000
    490     105.7668      0.00000
    491     105.9746      0.00000
    492     106.5431      0.00000
    493     106.7514      0.00000
    494     107.1919      0.00000
    495     107.4341      0.00000
    496     107.6180      0.00000
    497     108.3852      0.00000
    498     108.5111      0.00000
    499     108.6576      0.00000
    500     109.1891      0.00000
    501     109.2476      0.00000
    502     110.0430      0.00000
    503     110.0855      0.00000
    504     110.6799      0.00000
    505     110.8122      0.00000
    506     111.2414      0.00000
    507     111.5788      0.00000
    508     112.1363      0.00000
    509     112.5391      0.00000
    510     112.6741      0.00000
    511     112.9137      0.00000
    512     113.3396      0.00000
    513     113.3942      0.00000
    514     113.6035      0.00000
    515     114.2918      0.00000
    516     114.6258      0.00000
    517     114.9906      0.00000
    518     115.2088      0.00000
    519     115.4036      0.00000
    520     115.9374      0.00000
    521     116.7976      0.00000
    522     116.9342      0.00000
    523     117.3731      0.00000
    524     117.5208      0.00000
    525     118.1675      0.00000
    526     118.2046      0.00000
    527     118.8814      0.00000
    528     119.1102      0.00000
    529     119.4770      0.00000
    530     119.7921      0.00000
    531     120.0665      0.00000
    532     120.3988      0.00000
    533     120.8187      0.00000
    534     121.2002      0.00000
    535     121.4849      0.00000
    536     122.0533      0.00000
    537     122.3401      0.00000
    538     122.7999      0.00000
    539     123.4058      0.00000
    540     123.6819      0.00000
    541     124.0078      0.00000
    542     124.4701      0.00000
    543     124.7962      0.00000
    544     125.1758      0.00000
    545     125.4395      0.00000
    546     125.7639      0.00000
    547     126.4566      0.00000
    548     126.5358      0.00000
    549     126.7965      0.00000
    550     126.8716      0.00000
    551     127.3063      0.00000
    552     127.7866      0.00000
    553     128.1380      0.00000
    554     128.3757      0.00000
    555     128.6792      0.00000
    556     129.2140      0.00000
    557     129.4690      0.00000
    558     129.8401      0.00000
    559     130.1680      0.00000
    560     130.3343      0.00000
    561     130.4759      0.00000
    562     130.9272      0.00000
    563     131.1836      0.00000
    564     131.4817      0.00000
    565     131.6998      0.00000
    566     132.0508      0.00000
    567     132.3729      0.00000
    568     132.8533      0.00000
    569     133.1044      0.00000
    570     133.2478      0.00000
    571     133.5762      0.00000
    572     133.8249      0.00000
    573     134.0315      0.00000
    574     134.5740      0.00000
    575     134.8644      0.00000
    576     135.0364      0.00000
    577     135.5399      0.00000
    578     136.2023      0.00000
    579     136.3382      0.00000
    580     136.4340      0.00000
    581     136.7433      0.00000
    582     137.2814      0.00000
    583     137.4732      0.00000
    584     137.5587      0.00000
    585     137.9683      0.00000
    586     137.9906      0.00000
    587     138.3611      0.00000
    588     138.9497      0.00000
    589     139.1458      0.00000
    590     139.5872      0.00000
    591     139.8194      0.00000
    592     139.8414      0.00000
    593     140.2088      0.00000
    594     140.2798      0.00000
    595     140.5287      0.00000
    596     140.6166      0.00000
    597     140.8085      0.00000
    598     141.3874      0.00000
    599     141.4979      0.00000
    600     141.8357      0.00000
    601     142.3348      0.00000
    602     142.5550      0.00000
    603     142.8891      0.00000
    604     143.0158      0.00000
    605     143.3287      0.00000
    606     143.7839      0.00000
    607     144.1553      0.00000
    608     144.3691      0.00000
    609     144.6739      0.00000
    610     145.1694      0.00000
    611     145.5573      0.00000
    612     145.6523      0.00000
    613     145.7746      0.00000
    614     145.9026      0.00000
    615     146.0680      0.00000
    616     146.1192      0.00000
    617     146.7541      0.00000
    618     147.3006      0.00000
    619     147.4496      0.00000
    620     147.6711      0.00000
    621     147.8968      0.00000
    622     147.9492      0.00000
    623     148.2167      0.00000
    624     148.4397      0.00000
    625     148.8298      0.00000
    626     149.1420      0.00000
    627     149.4404      0.00000
    628     149.6102      0.00000
    629     149.9636      0.00000
    630     150.1461      0.00000
    631     150.2549      0.00000
    632     150.5759      0.00000
    633     150.8248      0.00000
    634     151.1067      0.00000
    635     151.4100      0.00000
    636     151.7620      0.00000
    637     152.2243      0.00000
    638     152.4529      0.00000
    639     153.0041      0.00000
    640     153.0379      0.00000
    641     153.4667      0.00000
    642     153.7520      0.00000
    643     154.3886      0.00000
    644     154.5357      0.00000
    645     154.7222      0.00000
    646     155.0170      0.00000
    647     155.3520      0.00000
    648     155.4330      0.00000
    649     156.1349      0.00000
    650     156.2864      0.00000
    651     156.6337      0.00000
    652     156.8547      0.00000
    653     157.8363      0.00000
    654     158.0414      0.00000
    655     158.3716      0.00000
    656     158.7003      0.00000
    657     159.0099      0.00000
    658     159.2278      0.00000
    659     159.4742      0.00000
    660     160.0231      0.00000
    661     160.0926      0.00000
    662     160.3268      0.00000
    663     160.5139      0.00000
    664     160.8778      0.00000
    665     161.5542      0.00000
    666     162.0793      0.00000
    667     162.3277      0.00000
    668     162.6201      0.00000
    669     163.0356      0.00000
    670     163.4334      0.00000
    671     163.5610      0.00000
    672     163.9005      0.00000
    673     164.1231      0.00000
    674     164.5433      0.00000
    675     164.7941      0.00000
    676     165.3775      0.00000
    677     165.4691      0.00000
    678     165.9915      0.00000
    679     166.4822      0.00000
    680     166.9855      0.00000
    681     167.1592      0.00000
    682     167.6890      0.00000
    683     168.1657      0.00000
    684     168.5803      0.00000
    685     168.9968      0.00000
    686     169.1940      0.00000
    687     169.7997      0.00000
    688     170.2441      0.00000
    689     170.5061      0.00000
    690     170.9221      0.00000
    691     171.0374      0.00000
    692     171.7452      0.00000
    693     171.9348      0.00000
    694     172.7059      0.00000
    695     173.2936      0.00000
    696     173.6665      0.00000
    697     174.4150      0.00000
    698     174.6205      0.00000
    699     174.7134      0.00000
    700     175.3112      0.00000
    701     175.7868      0.00000
    702     176.5009      0.00000
    703     176.7552      0.00000
    704     177.0106      0.00000
    705     177.2245      0.00000
    706     178.0910      0.00000
    707     178.8094      0.00000
    708     179.0626      0.00000
    709     179.5999      0.00000
    710     179.7907      0.00000
    711     179.9574      0.00000
    712     180.7987      0.00000
    713     181.9511      0.00000
    714     182.7922      0.00000
    715     183.0201      0.00000
    716     183.1485      0.00000
    717     183.8045      0.00000
    718     183.8926      0.00000
    719     184.2345      0.00000
    720     185.0793      0.00000
    721     185.1561      0.00000
    722     185.9808      0.00000
    723     186.1555      0.00000
    724     186.9797      0.00000
    725     187.5160      0.00000
    726     188.4229      0.00000
    727     188.6352      0.00000
    728     188.8214      0.00000
    729     188.9960      0.00000
    730     189.3710      0.00000
    731     190.2815      0.00000
    732     190.9095      0.00000
    733     191.7623      0.00000
    734     192.3141      0.00000
    735     192.5237      0.00000
    736     193.2373      0.00000
    737     193.4616      0.00000
    738     194.4681      0.00000
    739     194.6427      0.00000
    740     194.8838      0.00000
    741     195.6361      0.00000
    742     196.0032      0.00000
    743     197.1773      0.00000
    744     197.2428      0.00000
    745     197.5477      0.00000
    746     197.9719      0.00000
    747     198.3019      0.00000
    748     198.5402      0.00000
    749     198.8416      0.00000
    750     199.1092      0.00000
    751     199.6178      0.00000
    752     199.8011      0.00000
    753     200.1861      0.00000
    754     200.4962      0.00000
    755     201.0028      0.00000
    756     201.1428      0.00000
    757     201.5542      0.00000
    758     201.8578      0.00000
    759     202.6742      0.00000
    760     202.8098      0.00000
    761     203.1083      0.00000
    762     203.3524      0.00000
    763     203.9024      0.00000
    764     204.2021      0.00000
    765     204.3233      0.00000
    766     204.9161      0.00000
    767     204.9936      0.00000
    768     205.2008      0.00000
    769     205.5569      0.00000
    770     205.7631      0.00000
    771     206.4485      0.00000
    772     206.5331      0.00000
    773     207.0002      0.00000
    774     207.2653      0.00000
    775     207.5646      0.00000
    776     207.7643      0.00000
    777     207.9536      0.00000
    778     208.1948      0.00000
    779     208.4886      0.00000
    780     208.5227      0.00000
    781     208.8947      0.00000
    782     209.0822      0.00000
    783     209.5948      0.00000
    784     209.9659      0.00000
    785     210.2838      0.00000
    786     210.3527      0.00000
    787     210.8139      0.00000
    788     210.9075      0.00000
    789     211.2693      0.00000
    790     211.7910      0.00000
    791     212.2509      0.00000
    792     212.4561      0.00000
    793     212.6210      0.00000
    794     212.8877      0.00000
    795     213.0902      0.00000
    796     213.4317      0.00000
    797     213.9052      0.00000
    798     214.2514      0.00000
    799     214.5666      0.00000
    800     215.0246      0.00000
    801     215.2545      0.00000
    802     215.5050      0.00000
    803     216.2084      0.00000
    804     216.4069      0.00000
    805     216.6371      0.00000
    806     216.9737      0.00000
    807     217.5389      0.00000
    808     217.9342      0.00000
    809     218.6875      0.00000
    810     218.9771      0.00000
    811     219.2243      0.00000
    812     219.5497      0.00000
    813     219.5874      0.00000
    814     220.6055      0.00000
    815     220.8323      0.00000
    816     221.3807      0.00000
    817     221.8350      0.00000
    818     222.0712      0.00000
    819     222.1890      0.00000
    820     222.7192      0.00000
    821     223.1965      0.00000
    822     223.6903      0.00000
    823     223.8025      0.00000
    824     224.2586      0.00000
    825     224.6113      0.00000
    826     224.9478      0.00000
    827     225.3685      0.00000
    828     225.6696      0.00000
    829     225.9786      0.00000
    830     226.3022      0.00000
    831     227.0363      0.00000
    832     227.4826      0.00000
    833     227.6728      0.00000
    834     227.9511      0.00000
    835     228.1019      0.00000
    836     228.8805      0.00000
    837     228.9822      0.00000
    838     229.2917      0.00000
    839     229.7330      0.00000
    840     229.8333      0.00000
    841     230.2826      0.00000
    842     230.6527      0.00000
    843     231.0596      0.00000
    844     231.3682      0.00000
    845     231.5648      0.00000
    846     231.9641      0.00000
    847     232.2812      0.00000
    848     232.6854      0.00000
    849     233.0229      0.00000
    850     233.2910      0.00000
    851     233.4596      0.00000
    852     234.0513      0.00000
    853     234.2508      0.00000
    854     234.5194      0.00000
    855     235.0714      0.00000
    856     235.5212      0.00000
    857     235.7231      0.00000
    858     236.0177      0.00000
    859     236.6197      0.00000
    860     236.9866      0.00000
    861     237.1654      0.00000
    862     237.6546      0.00000
    863     237.7770      0.00000
    864     238.2112      0.00000
    865     238.3676      0.00000
    866     238.8277      0.00000
    867     238.9341      0.00000
    868     239.2137      0.00000
    869     239.5666      0.00000
    870     239.9377      0.00000
    871     240.0528      0.00000
    872     240.3935      0.00000
    873     241.2586      0.00000
    874     241.4687      0.00000
    875     241.8191      0.00000
    876     242.1770      0.00000
    877     242.2875      0.00000
    878     242.4386      0.00000
    879     242.6325      0.00000
    880     243.0624      0.00000
    881     243.1755      0.00000
    882     243.8921      0.00000
    883     244.1072      0.00000
    884     244.6827      0.00000
    885     245.3932      0.00000
    886     245.4938      0.00000
    887     245.8040      0.00000
    888     245.9287      0.00000
    889     246.2874      0.00000
    890     246.5389      0.00000
    891     246.6693      0.00000
    892     247.1747      0.00000
    893     247.7365      0.00000
    894     247.8658      0.00000
    895     248.1256      0.00000
    896     248.5591      0.00000
    897     249.2403      0.00000
    898     249.3862      0.00000
    899     249.6780      0.00000
    900     250.0177      0.00000
    901     250.4176      0.00000
    902     250.8791      0.00000
    903     251.5369      0.00000
    904     251.7918      0.00000
    905     251.9644      0.00000
    906     252.3349      0.00000
    907     252.5070      0.00000
    908     252.6345      0.00000
    909     252.8832      0.00000
    910     253.1417      0.00000
    911     253.3383      0.00000
    912     253.7261      0.00000
    913     254.0603      0.00000
    914     254.5712      0.00000
    915     254.6629      0.00000
    916     254.7872      0.00000
    917     255.2706      0.00000
    918     255.4527      0.00000
    919     255.7055      0.00000
    920     255.9551      0.00000
    921     256.2927      0.00000
    922     256.7120      0.00000
    923     256.8120      0.00000
    924     257.0045      0.00000
    925     257.4239      0.00000
    926     257.9141      0.00000
    927     258.2718      0.00000
    928     258.5731      0.00000
    929     258.9772      0.00000
    930     259.2322      0.00000
    931     259.5052      0.00000
    932     259.6235      0.00000
    933     260.0743      0.00000
    934     260.1086      0.00000
    935     260.7042      0.00000
    936     260.8981      0.00000
    937     261.1266      0.00000
    938     261.3538      0.00000
    939     261.4615      0.00000
    940     261.5888      0.00000
    941     262.0343      0.00000
    942     262.2454      0.00000
    943     262.4538      0.00000
    944     262.7319      0.00000
    945     263.0416      0.00000
    946     263.3473      0.00000
    947     263.6650      0.00000
    948     263.8687      0.00000
    949     264.1365      0.00000
    950     264.3636      0.00000
    951     264.5667      0.00000
    952     264.8524      0.00000
    953     264.9572      0.00000
    954     265.0560      0.00000
    955     265.4625      0.00000
    956     265.9466      0.00000
    957     266.0607      0.00000
    958     266.3753      0.00000
    959     266.4826      0.00000
    960     266.9833      0.00000
    961     267.2230      0.00000
    962     267.4343      0.00000
    963     267.7629      0.00000
    964     268.1128      0.00000
    965     268.2274      0.00000
    966     268.5563      0.00000
    967     268.8011      0.00000
    968     268.9882      0.00000
    969     269.1879      0.00000
    970     269.3798      0.00000
    971     269.6377      0.00000
    972     269.8343      0.00000
    973     270.2051      0.00000
    974     270.2595      0.00000
    975     270.5896      0.00000
    976     270.7080      0.00000
    977     271.0512      0.00000
    978     271.2307      0.00000
    979     271.3943      0.00000
    980     271.7896      0.00000
    981     271.9212      0.00000
    982     272.0689      0.00000
    983     272.2878      0.00000
    984     272.4264      0.00000
    985     272.5303      0.00000
    986     273.2152      0.00000
    987     273.2623      0.00000
    988     273.7523      0.00000
    989     273.9895      0.00000
    990     274.1362      0.00000
    991     274.1682      0.00000
    992     274.5470      0.00000
    993     274.7482      0.00000
    994     274.9027      0.00000
    995     275.0079      0.00000
    996     275.3858      0.00000
    997     275.6522      0.00000
    998     275.7829      0.00000
    999     275.8608      0.00000
   1000     276.3348      0.00000
   1001     276.6832      0.00000
   1002     277.0947      0.00000
   1003     277.1224      0.00000
   1004     277.2454      0.00000
   1005     277.5261      0.00000
   1006     277.8990      0.00000
   1007     278.1865      0.00000
   1008     278.3340      0.00000
   1009     278.3961      0.00000
   1010     278.9463      0.00000
   1011     279.0497      0.00000
   1012     279.4861      0.00000
   1013     279.5617      0.00000
   1014     279.7985      0.00000
   1015     280.1952      0.00000
   1016     280.6335      0.00000
   1017     281.0397      0.00000
   1018     281.4113      0.00000
   1019     281.5603      0.00000
   1020     281.9089      0.00000
   1021     282.3386      0.00000
   1022     282.7536      0.00000
   1023     283.0781      0.00000
   1024     283.4431      0.00000
   1025     283.6927      0.00000
   1026     283.7711      0.00000
   1027     284.2849      0.00000
   1028     284.7869      0.00000
   1029     285.2178      0.00000
   1030     285.7153      0.00000
   1031     286.1833      0.00000
   1032     286.7856      0.00000
   1033     287.2509      0.00000
   1034     287.6297      0.00000
   1035     287.9362      0.00000
   1036     288.0925      0.00000
   1037     288.6876      0.00000
   1038     289.0008      0.00000
   1039     289.8074      0.00000
   1040     290.2874      0.00000
   1041     290.7590      0.00000
   1042     290.8973      0.00000
   1043     291.1926      0.00000
   1044     291.9234      0.00000
   1045     292.1938      0.00000
   1046     293.3916      0.00000
   1047     293.5327      0.00000
   1048     293.8733      0.00000
   1049     294.4135      0.00000
   1050     295.1522      0.00000
   1051     295.4600      0.00000
   1052     295.7147      0.00000
   1053     296.5698      0.00000
   1054     296.9095      0.00000
   1055     297.1097      0.00000
   1056     297.7633      0.00000
   1057     298.3475      0.00000
   1058     298.3773      0.00000
   1059     299.7249      0.00000
   1060     300.1823      0.00000
   1061     300.5499      0.00000
   1062     300.8684      0.00000
   1063     301.4536      0.00000
   1064     302.1184      0.00000
   1065     302.4331      0.00000
   1066     302.9179      0.00000
   1067     303.5346      0.00000
   1068     304.0344      0.00000
   1069     304.5496      0.00000
   1070     304.9658      0.00000
   1071     305.3483      0.00000
   1072     305.9811      0.00000
   1073     306.6404      0.00000
   1074     306.8992      0.00000
   1075     307.2963      0.00000
   1076     308.2167      0.00000
   1077     308.7530      0.00000
   1078     309.1383      0.00000
   1079     309.3406      0.00000
   1080     310.0942      0.00000
   1081     310.5629      0.00000
   1082     312.1256      0.00000
   1083     312.5681      0.00000
   1084     313.0900      0.00000
   1085     313.5103      0.00000
   1086     314.3392      0.00000
   1087     314.6887      0.00000
   1088     315.7266      0.00000
   1089     316.1243      0.00000
   1090     316.9309      0.00000
   1091     317.1991      0.00000
   1092     317.3864      0.00000
   1093     318.4446      0.00000
   1094     318.4719      0.00000
   1095     319.6679      0.00000
   1096     319.9351      0.00000
   1097     320.9752      0.00000
   1098     321.8318      0.00000
   1099     322.4907      0.00000
   1100     322.6064      0.00000
   1101     323.1923      0.00000
   1102     325.2550      0.00000
   1103     327.9272      0.00000
   1104     329.3290      0.00000
   1105     329.5598      0.00000
   1106     331.6979      0.00000
   1107     332.9175      0.00000
   1108     334.1426      0.00000
   1109     334.6906      0.00000
   1110     335.1344      0.00000
   1111     335.5680      0.00000
   1112     335.8931      0.00000
   1113     336.3269      0.00000
   1114     338.8409      0.00000
   1115     339.1296      0.00000
   1116     340.2678      0.00000
   1117     342.1964      0.00000
   1118     343.9586      0.00000
   1119     344.7790      0.00000
   1120     345.5341      0.00000
   1121     346.3044      0.00000
   1122     346.9354      0.00000
   1123     347.2324      0.00000
   1124     349.5881      0.00000
   1125     352.1176      0.00000
   1126     360.0791      0.00000
   1127     360.5967      0.00000
   1128     362.3563      0.00000


--------------------------------------------------------------------------------------------------------


 soft charge-density along one line, spin component           1
         0         1         2         3         4         5         6         7         8         9
 total charge-density along one line
 
 pseudopotential strength for first ion, spin component:           1
  9.114 -13.866   0.007   0.002  -0.007   0.031   0.009  -0.033
-13.866  23.855  -0.008  -0.002   0.009  -0.060  -0.018   0.065
  0.007  -0.008  -3.481   0.004  -0.002  -1.026  -0.017   0.009
  0.002  -0.002   0.004  -3.469   0.010  -0.017  -1.074  -0.040
 -0.007   0.009  -0.002   0.010  -3.472   0.009  -0.040  -1.061
  0.031  -0.060  -1.026  -0.017   0.009  52.213   0.042  -0.027
  0.009  -0.018  -0.017  -1.074  -0.040   0.042  52.315   0.085
 -0.033   0.065   0.009  -0.040  -1.061  -0.027   0.085  52.290
 total augmentation occupancy for first ion, spin component:           1
  1.609   0.061  -0.081  -0.017   0.093  -0.002   0.001   0.003
  0.061   0.003   0.001   0.001  -0.001   0.000   0.000  -0.000
 -0.081   0.001   1.052   0.125  -0.107   0.061   0.014  -0.015
 -0.017   0.001   0.125   1.270   0.188   0.014   0.070   0.010
  0.093  -0.001  -0.107   0.188   1.226  -0.015   0.010   0.070
 -0.002   0.000   0.061   0.014  -0.015   0.004   0.001  -0.002
  0.001   0.000   0.014   0.070   0.010   0.001   0.004   0.000
  0.003  -0.000  -0.015   0.010   0.070  -0.002   0.000   0.005


------------------------ aborting loop because EDIFF is reached ----------------------------------------





 total charge

# of ion       s       p       d       f       tot
--------------------------------------------------
    1        0.824   1.624   0.000   0.000   2.448
    2        0.833   1.725   0.000   0.000   2.558
    3        0.824   1.624   0.000   0.000   2.448
    4        0.833   1.725   0.000   0.000   2.558
    5        0.839   1.546   0.000   0.000   2.385
    6        0.846   1.715   0.000   0.000   2.561
    7        0.846   1.715   0.000   0.000   2.561
    8        0.839   1.545   0.000   0.000   2.385
    9        0.846   1.714   0.000   0.000   2.561
   10        0.839   1.545   0.000   0.000   2.385
   11        0.833   1.725   0.000   0.000   2.558
   12        0.824   1.624   0.000   0.000   2.448
   13        0.824   1.624   0.000   0.000   2.448
   14        0.833   1.725   0.000   0.000   2.558
   15        0.839   1.545   0.000   0.000   2.385
   16        0.846   1.714   0.000   0.000   2.561
   17        0.839   1.545   0.000   0.000   2.385
   18        0.846   1.715   0.000   0.000   2.561
   19        0.846   1.715   0.000   0.000   2.561
   20        0.839   1.546   0.000   0.000   2.385
   21        0.833   1.725   0.000   0.000   2.558
   22        0.824   1.624   0.000   0.000   2.448
   23        0.833   1.725   0.000   0.000   2.558
   24        0.824   1.624   0.000   0.000   2.448
   25        0.664   0.048   0.000   0.000   0.712
   26        0.664   0.048   0.000   0.000   0.712
   27        0.664   0.048   0.000   0.000   0.712
   28        0.664   0.048   0.000   0.000   0.712
   29        0.664   0.048   0.000   0.000   0.712
   30        0.664   0.048   0.000   0.000   0.712
   31        1.542   3.670   0.000   0.000   5.212
   32        1.525   3.648   0.000   0.000   5.172
   33        1.554   3.620   0.000   0.000   5.174
   34        1.525   3.646   0.000   0.000   5.171
   35        1.541   3.670   0.000   0.000   5.211
   36        1.541   3.670   0.000   0.000   5.211
   37        1.525   3.647   0.000   0.000   5.172
   38        1.554   3.620   0.000   0.000   5.174
   39        1.554   3.620   0.000   0.000   5.174
   40        1.554   3.620   0.000   0.000   5.174
   41        1.554   3.620   0.000   0.000   5.174
   42        1.525   3.647   0.000   0.000   5.172
   43        1.541   3.670   0.000   0.000   5.211
   44        1.541   3.670   0.000   0.000   5.211
   45        1.525   3.646   0.000   0.000   5.171
   46        1.554   3.620   0.000   0.000   5.174
   47        1.525   3.648   0.000   0.000   5.172
   48        1.542   3.670   0.000   0.000   5.212
   49        2.071   6.276   5.722   0.014  14.082
   50        2.071   6.275   5.722   0.014  14.082
   51        2.071   6.276   5.722   0.014  14.083
   52        2.071   6.276   5.722   0.014  14.083
   53        2.071   6.275   5.722   0.014  14.082
   54        2.071   6.276   5.722   0.014  14.082
--------------------------------------------------
tot         64.191 143.211  34.332   0.085 241.820
 
    CHARGE:  cpu time      0.3398: real time      0.3405
    FORLOC:  cpu time      0.2982: real time      0.2989
    FORHF :  cpu time     44.4651: real time     44.5680
    FORNL :  cpu time      7.5795: real time      7.5971
    FORCOR:  cpu time      1.3055: real time      1.3085
    FORHAR:  cpu time      0.4274: real time      0.4284
    MIXING:  cpu time      0.0093: real time      0.0093
    OFIELD:  cpu time      0.0001: real time      0.0001

 VOLUME and BASIS-vectors are now :
 -----------------------------------------------------------------------------
  energy-cutoff  :      420.00
  volume of cell :     1403.01
      direct lattice vectors                 reciprocal lattice vectors
    15.439217752  0.004465832 -0.038376892     0.065085042  0.034326685  0.130688713
    -7.186282924 13.630928377 -0.001416099     0.000303919  0.073536393  0.130825479
    -7.182834812-11.890639092  6.700359279     0.000372844  0.000212151  0.150021909

  length of vectors
    15.439266094 15.409246337 15.423204220     0.149979744  0.150076646  0.150022522


 FORCES acting on ions
    electron-ion (+dipol)            ewald-force                    non-local-force                 convergence-correction
 -----------------------------------------------------------------------------------------------
   -.190E+03 0.710E+02 0.247E+02   0.193E+03 -.743E+02 -.259E+02   -.367E+01 0.355E+01 0.127E+01   0.766E-06 0.164E-05 0.486E-06
   -.123E+03 -.466E+02 -.634E+00   0.125E+03 0.472E+02 -.164E+01   -.100E+01 -.277E+00 0.966E+00   -.662E-05 -.207E-05 0.127E-05
   0.150E+03 0.130E+03 -.452E+02   -.155E+03 -.132E+03 0.448E+02   0.418E+01 0.165E+01 0.200E+00   0.423E-06 -.685E-06 0.502E-05
   0.923E+02 -.910E+02 -.237E+02   -.944E+02 0.917E+02 0.220E+02   0.110E+01 -.547E+00 0.708E+00   0.308E-06 0.136E-06 0.407E-08
   -.259E+03 -.772E+02 0.108E+03   0.263E+03 0.787E+02 -.111E+03   -.393E+01 -.219E+01 0.515E+01   -.226E-05 -.933E-06 0.930E-06
   -.747E+02 -.806E+02 -.676E+02   0.749E+02 0.824E+02 0.693E+02   -.357E+00 -.173E+01 -.188E+01   0.233E-06 0.878E-06 -.686E-07
   -.371E+02 0.581E+02 -.110E+03   0.385E+02 -.582E+02 0.112E+03   -.138E+01 0.370E-01 -.219E+01   -.933E-05 -.279E-05 0.884E-05
   -.518E+02 -.284E+03 0.360E+02   0.520E+02 0.289E+03 -.354E+02   0.180E+00 -.581E+01 -.272E+01   -.203E-05 0.314E-04 -.211E-04
   -.672E+02 0.489E+02 0.987E+02   0.680E+02 -.487E+02 -.101E+03   -.680E+00 0.512E-01 0.249E+01   0.228E-06 -.498E-05 0.306E-05
   0.227E+03 -.174E+03 0.562E+02   -.231E+03 0.175E+03 -.578E+02   0.575E+01 -.143E+01 0.341E+01   0.659E-07 -.225E-06 0.844E-07
   -.158E+02 -.113E+03 0.648E+02   0.161E+02 0.116E+03 -.637E+02   -.216E+00 -.135E+01 -.355E+00   -.124E-05 0.123E-05 0.251E-05
   -.448E+02 0.191E+03 -.559E+02   0.443E+02 -.195E+03 0.585E+02   0.534E+00 0.438E+01 -.284E+01   0.521E-06 -.438E-05 0.846E-06
   0.448E+02 -.191E+03 0.559E+02   -.443E+02 0.195E+03 -.585E+02   -.458E+00 -.380E+01 0.237E+01   0.104E-04 0.191E-04 -.279E-04
   0.158E+02 0.113E+03 -.648E+02   -.161E+02 -.116E+03 0.637E+02   0.232E+00 0.136E+01 0.347E+00   0.786E-06 -.339E-05 0.130E-06
   -.227E+03 0.174E+03 -.562E+02   0.231E+03 -.175E+03 0.578E+02   -.575E+01 0.143E+01 -.341E+01   0.191E-05 0.594E-06 0.740E-06
   0.672E+02 -.489E+02 -.987E+02   -.680E+02 0.487E+02 0.101E+03   0.677E+00 -.377E-01 -.249E+01   0.441E-05 -.207E-05 -.322E-05
   0.518E+02 0.284E+03 -.360E+02   -.520E+02 -.289E+03 0.354E+02   -.659E-01 0.647E+01 0.227E+01   0.151E-06 -.203E-05 0.333E-06
   0.371E+02 -.581E+02 0.110E+03   -.385E+02 0.582E+02 -.112E+03   0.137E+01 -.452E-01 0.219E+01   -.694E-05 -.997E-06 -.286E-05
   0.747E+02 0.806E+02 0.676E+02   -.749E+02 -.824E+02 -.693E+02   0.358E+00 0.173E+01 0.189E+01   0.948E-06 0.214E-06 -.136E-06
   0.259E+03 0.772E+02 -.108E+03   -.263E+03 -.787E+02 0.111E+03   0.432E+01 0.223E+01 -.434E+01   -.172E-04 0.577E-05 -.255E-04
   -.923E+02 0.910E+02 0.237E+02   0.944E+02 -.917E+02 -.220E+02   -.109E+01 0.555E+00 -.717E+00   0.144E-05 0.896E-06 0.823E-07
   -.150E+03 -.130E+03 0.452E+02   0.155E+03 0.132E+03 -.448E+02   -.488E+01 -.192E+01 -.326E+00   -.438E-05 -.158E-05 -.909E-06
   0.123E+03 0.466E+02 0.634E+00   -.125E+03 -.472E+02 0.164E+01   0.984E+00 0.285E+00 -.966E+00   -.149E-04 -.155E-05 -.586E-05
   0.190E+03 -.710E+02 -.247E+02   -.193E+03 0.743E+02 0.259E+02   0.367E+01 -.354E+01 -.128E+01   0.469E-06 -.746E-07 0.800E-08
   -.362E+02 0.178E+02 0.568E+02   0.367E+02 -.186E+02 -.624E+02   -.469E+00 0.841E+00 0.568E+01   -.131E-06 -.759E-06 0.715E-06
   -.327E+02 -.485E+02 -.377E+02   0.336E+02 0.514E+02 0.425E+02   -.963E+00 -.281E+01 -.493E+01   0.152E-08 0.228E-06 -.106E-06
   -.282E+02 0.270E+02 -.582E+02   0.302E+02 -.265E+02 0.634E+02   -.206E+01 -.518E+00 -.535E+01   -.788E-06 0.396E-06 0.219E-05
   0.282E+02 -.270E+02 0.582E+02   -.302E+02 0.265E+02 -.634E+02   0.206E+01 0.518E+00 0.535E+01   -.333E-06 0.401E-06 -.725E-06
   0.327E+02 0.485E+02 0.377E+02   -.336E+02 -.514E+02 -.425E+02   0.963E+00 0.281E+01 0.493E+01   0.241E-06 0.199E-07 -.738E-07
   0.362E+02 -.178E+02 -.568E+02   -.367E+02 0.186E+02 0.624E+02   0.469E+00 -.841E+00 -.568E+01   0.751E-06 0.985E-07 0.994E-07
   -.276E+03 -.104E+03 0.624E+02   0.242E+03 0.901E+02 -.672E+02   0.242E+02 0.948E+01 0.236E+01   -.173E-05 -.143E-05 0.579E-06
   -.486E+03 0.323E+02 0.260E+02   0.472E+03 -.732E+01 -.129E+02   0.101E+02 -.154E+02 -.972E+01   0.154E-05 0.352E-05 0.502E-05
   -.242E+03 -.447E+03 0.211E+03   0.250E+03 0.454E+03 -.256E+03   -.512E+01 -.462E+01 0.294E+02   0.454E-05 0.598E-05 0.643E-05
   0.250E+03 0.382E+03 -.188E+03   -.221E+03 -.375E+03 0.200E+03   -.144E+02 -.360E+01 -.574E+01   -.316E-05 -.190E-04 0.199E-04
   -.262E+02 -.285E+03 0.920E+02   0.217E+02 0.256E+03 -.704E+02   0.261E+01 0.156E+02 -.119E+02   0.264E-05 0.953E-04 -.128E-04
   0.239E+03 -.184E+03 -.294E+01   -.216E+03 0.158E+03 -.740E+01   -.175E+02 0.181E+02 0.622E+01   -.201E-06 -.974E-06 0.389E-06
   -.219E+03 0.439E+03 -.343E+02   0.226E+03 -.419E+03 0.103E+02   -.317E+01 -.127E+02 0.163E+02   -.439E-06 -.329E-05 0.858E-06
   -.546E+03 -.209E+02 0.376E+02   0.575E+03 0.271E+02 -.185E+01   -.187E+02 -.435E+01 -.234E+02   -.290E-05 -.111E-05 0.183E-05
   -.282E+03 0.471E+03 -.218E+02   0.285E+03 -.502E+03 -.124E+02   -.177E+01 0.203E+02 0.224E+02   0.401E-05 -.100E-06 -.296E-05
   0.282E+03 -.471E+03 0.218E+02   -.285E+03 0.502E+03 0.124E+02   0.178E+01 -.203E+02 -.224E+02   0.140E-07 -.152E-06 -.895E-08
   0.546E+03 0.209E+02 -.376E+02   -.575E+03 -.271E+02 0.185E+01   0.152E+02 0.311E+01 0.199E+02   -.171E-04 -.513E-04 -.248E-04
   0.219E+03 -.439E+03 0.343E+02   -.226E+03 0.419E+03 -.103E+02   0.385E+01 0.101E+02 -.116E+02   -.854E-04 0.332E-04 -.232E-04
   -.239E+03 0.184E+03 0.294E+01   0.216E+03 -.158E+03 0.740E+01   0.175E+02 -.181E+02 -.621E+01   0.209E-06 -.330E-05 0.277E-05
   0.262E+02 0.285E+03 -.920E+02   -.217E+02 -.256E+03 0.704E+02   -.319E+01 -.215E+02 0.142E+02   -.407E-06 -.214E-05 0.522E-06
   -.250E+03 -.382E+03 0.188E+03   0.221E+03 0.375E+03 -.200E+03   0.182E+02 0.589E+01 0.824E+01   -.118E-05 -.618E-06 0.136E-06
   0.242E+03 0.447E+03 -.211E+03   -.250E+03 -.454E+03 0.256E+03   0.517E+01 0.466E+01 -.294E+02   0.746E-06 -.280E-05 0.704E-06
   0.486E+03 -.323E+02 -.260E+02   -.472E+03 0.732E+01 0.129E+02   -.103E+02 0.155E+02 0.943E+01   0.348E-06 -.776E-06 0.148E-06
   0.276E+03 0.104E+03 -.624E+02   -.242E+03 -.901E+02 0.672E+02   -.241E+02 -.949E+01 -.234E+01   0.206E-04 0.949E-05 -.120E-04
   0.665E+03 0.726E+03 -.328E+03   -.660E+03 -.722E+03 0.325E+03   -.240E+02 -.368E+02 0.159E+02   -.585E-07 -.524E-05 0.154E-05
   -.101E+04 0.216E+03 0.727E+02   0.100E+04 -.215E+03 -.737E+02   0.314E+02 0.274E+02 0.229E+01   -.347E-05 -.394E-05 0.230E-05
   0.334E+03 -.972E+03 0.170E+03   -.332E+03 0.965E+03 -.170E+03   -.316E+02 0.374E+02 0.589E+01   -.135E-05 -.218E-05 0.196E-06
   -.334E+03 0.972E+03 -.170E+03   0.332E+03 -.965E+03 0.170E+03   0.151E+02 -.380E+02 0.353E+01   0.488E-04 0.394E-05 -.318E-04
   0.101E+04 -.216E+03 -.727E+02   -.100E+04 0.215E+03 0.737E+02   -.153E+01 0.582E+01 -.124E+02   0.106E-03 0.600E-05 -.851E-04
   -.665E+03 -.726E+03 0.328E+03   0.660E+03 0.722E+03 -.325E+03   0.253E+01 0.334E+02 -.162E+02   0.338E-04 0.106E-04 0.216E-04
 -----------------------------------------------------------------------------------------------
   0.376E-02 -.451E-02 -.198E-02   0.000E+00 -.341E-12 0.114E-12   -.788E+01 0.229E+02 0.438E+01   0.638E-04 0.104E-03 -.189E-03
 
 
 POSITION                                       TOTAL-FORCE (eV/Angst)
 -----------------------------------------------------------------------------------
     -4.52388     -4.95096      3.79931        -0.715740      0.326266      0.062865
     -4.37821      6.43769      1.10882         0.387747     -0.227523     -1.112053
     -2.27140      7.33612      0.20906         0.520165     -0.290327     -0.275436
     -2.44692     -6.22910      4.12534        -0.563485     -0.505526     -0.886974
     -5.11592      6.03086      2.33290        -1.024467     -1.272483      2.518047
     -3.37431     -5.26237      4.53352         0.022451     -0.559093     -0.376073
     -3.08474      6.94685      1.27881         0.075316     -0.432098     -0.415442
     -6.67312     -0.89799      5.49428         0.470452     -2.334282     -2.067971
     -6.53791      1.55649      5.31338         0.119168     -0.294152      0.245226
     -1.25474     -6.43703      4.98854         2.502583     -0.566051      1.729629
     -6.68409      0.43821      6.14372         0.106835      0.365167      0.664037
     -6.50125      2.86783      5.80002         0.281993      0.591596     -0.554361
      7.57135     -1.12308      0.86055         0.084675     -0.856465     -0.081308
      7.75419      1.30655      0.51685         0.200626     -1.204926     -0.831264
      2.32484      8.18178      1.67203        -2.211353     -0.281082     -1.888233
      7.60801      0.18827      1.34718         0.168208     -0.540819     -0.407056
      7.74322      2.64274      1.16629        -0.066018      2.140046      1.464436
      4.15484     -5.20209      5.38176         0.207256     -0.424910      0.261333
      4.44441      7.00712      2.12704         0.269694     -0.287680      0.221398
      6.18602     -4.28611      4.32766         1.696437      0.466100     -1.873118
      3.51702      7.97385      2.53523         0.861941     -0.335684      0.718868
      3.34150     -5.59137      6.45151        -0.924882     -0.830990     -0.009245
      5.44831     -4.69294      5.55174        -0.115545     -0.613660      0.953721
      5.59398      6.69571      2.86125         1.007618     -1.163610     -0.227246
     -6.44726      1.39877      4.23973         0.125171     -0.278653      0.558835
     -3.19258     -4.72839      5.46491         0.003627     -0.692640     -0.655807
     -2.69330      7.04306      2.29033        -0.028347     -0.490557     -0.706543
      3.76340     -5.29830      4.37024         0.319209     -0.358277      0.547935
      4.26268      6.47315      1.19565         0.287175     -0.156105      0.497290
      7.51736      0.34598      2.42084         0.165549     -0.569916     -0.717386
     -6.31841      5.58472      2.19568         7.925468      2.503259      0.232793
     -5.36548     -4.00543      4.28416         3.568725     -4.024673     -3.559395
     -6.48288     -1.00634      4.24024        -1.063069     -2.383629      8.201312
     -1.03477      7.82012      0.48250        -0.617695     -0.788566     -0.296765
     -6.85236     -1.93768      6.23784         0.661110      0.923625     -1.777505
     -0.41602     -7.36024      4.65396        -5.688459      5.326850      1.383778
     -6.36144      3.88288      4.91321         0.406111     -3.879623      4.810958
     -4.56624      6.11546      3.47828        -5.538704     -2.105385     -6.465554
      2.14039      7.46364      0.63844        -1.134608      5.416138      6.104478
     -1.07029     -5.71889      6.02213         1.435235     -6.237715     -6.294015
      5.63634     -4.37071      3.18228         2.323051      0.014543      2.788927
      7.43154     -2.13813      1.74735         0.562071      0.425793     -0.322395
      1.48612      9.10500      2.00661         5.971798     -6.173094     -1.533564
      7.92246      3.68243      0.42272        -0.951026     -7.599736      3.901943
      2.10487     -6.07537      6.17806         4.710644      2.224170      2.645309
      7.55298      2.75109      2.42033         1.406689      1.569251     -8.404863
      6.43558      5.75019      2.37641        -3.464330      3.247478      3.102573
      7.38851     -3.83997      4.46489        -7.595202     -3.358072     -0.369761
     -7.67594      4.55003      3.44770       -19.012710    -43.766749      7.197536
      1.56621     -7.84999      5.22512        30.411820     31.848243     -8.766435
      7.62424      5.76929      0.68183       -39.601481     31.707864     -1.550076
     -6.55414     -4.02454      5.97873        23.448496    -33.165983     10.801163
     -0.49611      9.59474      1.43544        -0.227779      0.499591     -1.576637
      8.74604     -2.80527      3.21286        -2.170214     39.454757     -7.611909
 -----------------------------------------------------------------------------------
    total drift:                               -7.853128     22.913556      4.284400


--------------------------------------------------------------------------------------------------------



  FREE ENERGIE OF THE ION-ELECTRON SYSTEM (eV)
  ---------------------------------------------------
  free  energy   TOTEN  =      -858.14414650 eV

  energy  without entropy=     -858.14414650  energy(sigma->0) =     -858.14414650
 


--------------------------------------------------------------------------------------------------------


    POTLOK:  cpu time      1.3544: real time      1.3576


--------------------------------------------------------------------------------------------------------


 writing wavefunctions
     LOOP+:  cpu time    607.0195: real time    609.1973
    4ORBIT:  cpu time      0.0000: real time      0.0000



 total charge

# of ion       s       p       d       f       tot
--------------------------------------------------
    1        0.824   1.624   0.000   0.000   2.448
    2        0.833   1.725   0.000   0.000   2.558
    3        0.824   1.624   0.000   0.000   2.448
    4        0.833   1.725   0.000   0.000   2.558
    5        0.839   1.546   0.000   0.000   2.385
    6        0.846   1.715   0.000   0.000   2.561
    7        0.846   1.715   0.000   0.000   2.561
    8        0.839   1.545   0.000   0.000   2.385
    9        0.846   1.714   0.000   0.000   2.561
   10        0.839   1.545   0.000   0.000   2.385
   11        0.833   1.725   0.000   0.000   2.558
   12        0.824   1.624   0.000   0.000   2.448
   13        0.824   1.624   0.000   0.000   2.448
   14        0.833   1.725   0.000   0.000   2.558
   15        0.839   1.545   0.000   0.000   2.385
   16        0.846   1.714   0.000   0.000   2.561
   17        0.839   1.545   0.000   0.000   2.385
   18        0.846   1.715   0.000   0.000   2.561
   19        0.846   1.715   0.000   0.000   2.561
   20        0.839   1.546   0.000   0.000   2.385
   21        0.833   1.725   0.000   0.000   2.558
   22        0.824   1.624   0.000   0.000   2.448
   23        0.833   1.725   0.000   0.000   2.558
   24        0.824   1.624   0.000   0.000   2.448
   25        0.664   0.048   0.000   0.000   0.712
   26        0.664   0.048   0.000   0.000   0.712
   27        0.664   0.048   0.000   0.000   0.712
   28        0.664   0.048   0.000   0.000   0.712
   29        0.664   0.048   0.000   0.000   0.712
   30        0.664   0.048   0.000   0.000   0.712
   31        1.542   3.670   0.000   0.000   5.212
   32        1.525   3.648   0.000   0.000   5.172
   33        1.554   3.620   0.000   0.000   5.174
   34        1.525   3.646   0.000   0.000   5.171
   35        1.541   3.670   0.000   0.000   5.211
   36        1.541   3.670   0.000   0.000   5.211
   37        1.525   3.647   0.000   0.000   5.172
   38        1.554   3.620   0.000   0.000   5.174
   39        1.554   3.620   0.000   0.000   5.174
   40        1.554   3.620   0.000   0.000   5.174
   41        1.554   3.620   0.000   0.000   5.174
   42        1.525   3.647   0.000   0.000   5.172
   43        1.541   3.670   0.000   0.000   5.211
   44        1.541   3.670   0.000   0.000   5.211
   45        1.525   3.646   0.000   0.000   5.171
   46        1.554   3.620   0.000   0.000   5.174
   47        1.525   3.648   0.000   0.000   5.172
   48        1.542   3.670   0.000   0.000   5.212
   49        2.071   6.276   5.722   0.014  14.082
   50        2.071   6.275   5.722   0.014  14.082
   51        2.071   6.276   5.722   0.014  14.083
   52        2.071   6.276   5.722   0.014  14.083
   53        2.071   6.275   5.722   0.014  14.082
   54        2.071   6.276   5.722   0.014  14.082
--------------------------------------------------
tot         64.191 143.211  34.332   0.085 241.820
 

 total amount of memory used by VASP MPI-rank0  1369260. kBytes
=======================================================================

   base      :      30000. kBytes
   nonl-proj :      29854. kBytes
   fftplans  :      47759. kBytes
   grid      :     141927. kBytes
   one-center:       2178. kBytes
   HF        :       1344. kBytes
   nonlr-proj:       7143. kBytes
   wavefun   :      31701. kBytes
   fock_wrk  :    1077354. kBytes
 
  
  
 General timing and accounting informations for this job:
 ========================================================
  
                  Total CPU time used (sec):      622.907
                            User time (sec):      603.398
                          System time (sec):       19.509
                         Elapsed time (sec):      626.300
  
                   Maximum memory used (kb):     4433432.
                   Average memory used (kb):          N/A
  
                          Minor page faults:      1951739
                          Major page faults:            4
                 Voluntary context switches:         8838
