 vasp.6.2.1 16May21 (build Aug 03 2024 02:50:01) gamma-only                     
  
 executed on             LinuxIFC date 2024.09.01  14:24:30
 running on   40 total cores
 distrk:  each k-point on   40 cores,    1 groups
 distr:  one band on NCORE=   1 cores,   40 groups


--------------------------------------------------------------------------------------------------------


 INCAR:
   SYSTEM = CO2
   ISTART = 0
   ICHARG = 2
   ISMEAR = 0
   SIGMA = 0.1
   ENCUT = 320.0
   ENAUG = 963.7
   ISYM = -1
   PREC = Accurate
   EDIFF = 1E-6
   NELM = 500
   IBRION = -1
   NSW = 0
   ALGO = All
   TIME = 0.05
   LHFCALC = .TRUE.
   AEXX = 1
   LASPH = .TRUE.
   PRECFOCK = Normal
   LWAVE = .TRUE.
   LCHARG = .TRUE.
   NWRITE = 1

 POTCAR:    PAW_PBE C_GW 28Sep2005                
 POTCAR:    PAW_PBE O_GW 28Sep2005                
 -----------------------------------------------------------------------------
|                                                                             |
|           W    W    AA    RRRRR   N    N  II  N    N   GGGG   !!!           |
|           W    W   A  A   R    R  NN   N  II  NN   N  G    G  !!!           |
|           W    W  A    A  R    R  N N  N  II  N N  N  G       !!!           |
|           W WW W  AAAAAA  RRRRR   N  N N  II  N  N N  G  GGG   !            |
|           WW  WW  A    A  R   R   N   NN  II  N   NN  G    G                |
|           W    W  A    A  R    R  N    N  II  N    N   GGGG   !!!           |
|                                                                             |
|     For optimal performance we recommend to set                             |
|       NCORE = 2 up to number-of-cores-per-socket                            |
|     NCORE specifies how many cores store one orbital (NPAR=cpu/NCORE).      |
|     This setting can greatly improve the performance of VASP for DFT.       |
|     The default, NCORE=1 might be grossly inefficient on modern             |
|     multi-core architectures or massively parallel machines. Do your        |
|     own testing! More info at https://www.vasp.at/wiki/index.php/NCORE      |
|     Unfortunately you need to use the default for GW and RPA                |
|     calculations (for HF NCORE is supported but not extensively tested      |
|     yet).                                                                   |
|                                                                             |
 -----------------------------------------------------------------------------

 POTCAR:    PAW_PBE C_GW 28Sep2005                
  local pseudopotential read in
  kinetic energy density of atom read in
  atomic valenz-charges read in
  non local Contribution for L=           0  read in
    real space projection operators read in
  non local Contribution for L=           0  read in
    real space projection operators read in
  non local Contribution for L=           1  read in
    real space projection operators read in
  non local Contribution for L=           1  read in
    real space projection operators read in
    PAW grid and wavefunctions read in
 
   number of l-projection  operators is LMAX  =           4
   number of lm-projection operators is LMMAX =           8
 
 POTCAR:    PAW_PBE O_GW 28Sep2005                
  local pseudopotential read in
  kinetic energy density of atom read in
  atomic valenz-charges read in
  non local Contribution for L=           0  read in
    real space projection operators read in
  non local Contribution for L=           0  read in
    real space projection operators read in
  non local Contribution for L=           1  read in
    real space projection operators read in
  non local Contribution for L=           1  read in
    real space projection operators read in
    PAW grid and wavefunctions read in
 
   number of l-projection  operators is LMAX  =           4
   number of lm-projection operators is LMMAX =           8
 
  PAW_PBE C_GW 28Sep2005                :
 energy of atom  1       EATOM= -147.1560
 kinetic energy error for atom=    0.1682 (will be added to EATOM!!)
  PAW_PBE O_GW 28Sep2005                :
 energy of atom  2       EATOM= -432.3788
 kinetic energy error for atom=    0.7698 (will be added to EATOM!!)
 
 
 POSCAR:  C  O
  positions in direct lattice
  No initial velocities read in
 exchange correlation table for  LEXCH =        8
   RHO(1)=    0.500       N(1)  =     2000
   RHO(2)=  100.500       N(2)  =     4000
 


--------------------------------------------------------------------------------------------------------


 ion  position               nearest neighbor table
   1  0.295  0.941  0.220-   2 1.17   3 1.18
   2  0.310  0.006  0.317-   1 1.17
   3  0.278  0.875  0.120-   1 1.18
 

IMPORTANT INFORMATION: All symmetrisations will be switched off!
NOSYMM: (Re-)initialisation of all symmetry stuff for point group C_1.


----------------------------------------------------------------------------------------

                                     Primitive cell                                     

  volume of cell :    1403.0148

  direct lattice vectors                    reciprocal lattice vectors
    15.439217752  0.004465832 -0.038376892     0.065085042  0.034326685  0.130688713
    -7.186282924 13.630928377 -0.001416099     0.000303919  0.073536393  0.130825479
    -7.182834812-11.890639092  6.700359279     0.000372844  0.000212151  0.150021909

  length of vectors
    15.439266094 15.409246337 15.423204220     0.149979744  0.150076646  0.150022522

  position of ions in fractional coordinates (direct lattice)
     0.294766223  0.940830694  0.219659524
     0.309692258  0.006399359  0.316962248
     0.277914318  0.874764066  0.119775582

  ion indices of the primitive-cell ions
   primitive index   ion index
                 1           1
                 2           2
                 3           3

----------------------------------------------------------------------------------------

 
 
 KPOINTS: KPOINTS                                 

Automatic generation of k-mesh.
 Grid dimensions read from file:
 generate k-points for:    1    1    1

 Generating k-lattice:

  Cartesian coordinates                     Fractional coordinates (reciprocal lattice)
     0.065085042  0.034326685  0.130688713     1.000000000  0.000000000 -0.000000000
     0.000303919  0.073536393  0.130825479     0.000000000  1.000000000  0.000000000
     0.000372844  0.000212151  0.150021909    -0.000000000  0.000000000  1.000000000

  Length of vectors
     0.149979744  0.150076646  0.150022522

  Shift w.r.t. Gamma in fractional coordinates (k-lattice)
     0.000000000  0.000000000  0.000000000

 
 Subroutine IBZKPT returns following result:
 ===========================================
 
 Found      1 irreducible k-points:
 
 Following reciprocal coordinates:
            Coordinates               Weight
  0.000000  0.000000  0.000000      1.000000
 
 Following cartesian coordinates:
            Coordinates               Weight
  0.000000  0.000000  0.000000      1.000000
 
 WARNING: full set of k-points will be restricted to regular points only.

 
 Subroutine IBZKPT_HF returns following result:
 ==============================================
 
 Found      1 k-points in 1st BZ
 the following      1 k-points will be used (e.g. in the exchange kernel)
 Following reciprocal coordinates:   # in IRBZ
  0.000000  0.000000  0.000000    1.00000000   1 t-inv F


--------------------------------------------------------------------------------------------------------




 Dimension of arrays:
   k-points           NKPTS =      1   k-points in BZ     NKDIM =      1   number of bands    NBANDS=     40
   number of dos      NEDOS =    301   number of ions     NIONS =      3
   non local maximal  LDIM  =      4   non local SUM 2l+1 LMDIM =      8
   total plane-waves  NPLWV = 729000
   max r-space proj   IRMAX =      1   max aug-charges    IRDMAX=   6940
   dimension x,y,z NGX =    90 NGY =   90 NGZ =   90
   dimension x,y,z NGXF=   180 NGYF=  180 NGZF=  180
   support grid    NGXF=   180 NGYF=  180 NGZF=  180
   ions per type =               1   2
   NGX,Y,Z   is equivalent  to a cutoff of   9.69,  9.71,  9.70 a.u.
   NGXF,Y,Z  is equivalent  to a cutoff of  19.38, 19.42, 19.40 a.u.

 SYSTEM =  CO2                                     
 POSCAR =   C  O                                   

 Startparameter for this run:
   NWRITE =      1    write-flag & timer
   PREC   = accura    normal or accurate (medium, high low for compatibility)
   ISTART =      0    job   : 0-new  1-cont  2-samecut
   ICHARG =      2    charge: 1-file 2-atom 10-const
   ISPIN  =      1    spin polarized calculation?
   LNONCOLLINEAR =      F non collinear calculations
   LSORBIT =      F    spin-orbit coupling
   INIWAV =      1    electr: 0-lowe 1-rand  2-diag
   LASPH  =      T    aspherical Exc in radial PAW
 Electronic Relaxation 1
   ENCUT  =  320.0 eV  23.52 Ry    4.85 a.u.  22.52 22.48 22.50*2*pi/ulx,y,z
   ENINI  =  320.0     initial cutoff
   ENAUG  =  963.7 eV  augmentation charge cutoff
   NELM   =    500;   NELMIN=  2; NELMDL= -5     # of ELM steps 
   EDIFF  = 0.1E-05   stopping-criterion for ELM
   LREAL  =      F    real-space projection
   NLSPLINE    = F    spline interpolate recip. space projectors
   LCOMPAT=      F    compatible to vasp.4.4
   GGA_COMPAT  = T    GGA compatible to vasp.4.4-vasp.4.6
   LMAXPAW     = -100 max onsite density
   LMAXMIX     =    2 max onsite mixed and CHGCAR
   VOSKOWN=      0    Vosko Wilk Nusair interpolation
   ROPT   =    0.00000   0.00000
 Ionic relaxation
   EDIFFG = 0.1E-04   stopping-criterion for IOM
   NSW    =      0    number of steps for IOM
   NBLOCK =      1;   KBLOCK =      1    inner block; outer block 
   IBRION =     -1    ionic relax: 0-MD 1-quasi-New 2-CG
   NFREE  =      0    steps in history (QN), initial steepest desc. (CG)
   ISIF   =      0    stress and relaxation
   IWAVPR =     10    prediction:  0-non 1-charg 2-wave 3-comb
   ISYM   =     -1    0-nonsym 1-usesym 2-fastsym
   LCORR  =      T    Harris-Foulkes like correction to forces

   POTIM  = 0.5000    time-step for ionic-motion
   TEIN   =    0.0    initial temperature
   TEBEG  =    0.0;   TEEND  =   0.0 temperature during run
   SMASS  =  -3.00    Nose mass-parameter (am)
   estimated Nose-frequenzy (Omega)   =  0.10E-29 period in steps = 0.13E+47 mass=  -0.545E-26a.u.
   SCALEE = 1.0000    scale energy and forces
   NPACO  =    256;   APACO  = 16.0  distance and # of slots for P.C.
   PSTRESS=    0.0 pullay stress

  Mass of Ions in am
   POMASS =  12.01 16.00
  Ionic Valenz
   ZVAL   =   4.00  6.00
  Atomic Wigner-Seitz radii
   RWIGS  =  -1.00 -1.00
  virtual crystal weights 
   VCA    =   1.00  1.00
   NELECT =      16.0000    total number of electrons
   NUPDOWN=      -1.0000    fix difference up-down

 DOS related values:
   EMIN   =  10.00;   EMAX   =-10.00  energy-range for DOS
   EFERMI =   0.00
   ISMEAR =     0;   SIGMA  =   0.10  broadening in eV -4-tet -1-fermi 0-gaus

 Electronic relaxation 2 (details)
   IALGO  =     58    algorithm
   LDIAG  =      T    sub-space diagonalisation (order eigenvalues)
   LSUBROT=      F    optimize rotation matrix (better conditioning)
   TURBO    =      0    0=normal 1=particle mesh
   IRESTART =      0    0=no restart 2=restart with 2 vectors
   NREBOOT  =      0    no. of reboots
   NMIN     =      0    reboot dimension
   EREF     =   0.00    reference energy to select bands
   IMIX   =      4    mixing-type and parameters
     AMIX     =   0.40;   BMIX     =  1.00
     AMIX_MAG =   1.60;   BMIX_MAG =  1.00
     AMIN     =   0.10
     WC   =   100.;   INIMIX=   1;  MIXPRE=   1;  MAXMIX= -45

 Intra band minimization:
   WEIMIN = 0.0000     energy-eigenvalue tresh-hold
   EBREAK =  0.62E-08  absolut break condition
   DEPER  =   0.30     relativ break condition  

   TIME   =   0.05     timestep for ELM

  volume/ion in A,a.u.               =     467.67      3156.00
  Fermi-wavevector in a.u.,A,eV,Ry     =   0.368491  0.696348  1.847480  0.135786
  Thomas-Fermi vector in A             =   1.294397
 
 Write flags
   LWAVE        =      T    write WAVECAR
   LDOWNSAMPLE  =      F    k-point downsampling of WAVECAR
   LCHARG       =      T    write CHGCAR
   LVTOT        =      F    write LOCPOT, total local potential
   LVHAR        =      F    write LOCPOT, Hartree potential only
   LELF         =      F    write electronic localiz. function (ELF)
   LORBIT       =      0    0 simple, 1 ext, 2 COOP (PROOUT), +10 PAW based schemes


 Dipole corrections
   LMONO  =      F    monopole corrections only (constant potential shift)
   LDIPOL =      F    correct potential (dipole corrections)
   IDIPOL =      0    1-x, 2-y, 3-z, 4-all directions 
   EPSILON=  1.0000000 bulk dielectric constant

 Exchange correlation treatment:
   GGA     =    --    GGA type
   LEXCH   =     8    internal setting for exchange type
   VOSKOWN=      0    Vosko Wilk Nusair interpolation
   EXXOEP  =     0    0=HF, 1=EXX-LHF (local Hartree Fock) 2=EXX OEP
   LHFCALC =     T    Hartree Fock is set to
   LSYMGRAD=     F    symmetrize gradient (conserves proper symmetry)
   PRECFOCK=normal    Normal, Fast or Accurate (Low or Medium for compatibility)
   LRHFCALC=     F    long range Hartree Fock
   LRSCOR  =     F    long range correlation only (use DFT for short range part)
   LTHOMAS =     F    Thomas Fermi screening in HF
   LMODELHF=     F    short range full HF, long range fraction AEXX
   LFOCKACE=     T    use Adeptively-Compressed-Exchange operator
   ENCUT4O =  -1.0   cutoff for four orbital integrals eV
   LMAXFOCK=     4    L truncation for augmentation on plane wave grid
   LMAXFOCKAE=  -1    L truncation for all-electron charge restoration on plane wave grid
   NMAXFOCKAE=   1    number of basis functions for all-electron charge restoration
   LFOCKAEDFT=     F  apply the AE augmentation even for DFT
   NKREDX  =     1    reduce k-point grid by
   NKREDY  =     1    reduce k-point grid by
   NKREDZ  =     1    reduce k-point grid by
   SHIFTRED=     F    shift reduced grid of Gamma
   HFKIDENT=     F    idential grid for each k-point
   ODDONLY =     F    use only odd q-grid points
   EVENONLY=     F    use only even q-grid points
   HFALPHA =   -1.0000 decay constant for conv. correction
   MCALPHA =    0.0000 extent of test-charge in conv. correction in multipole expansion
   AEXX    =    1.0000 exact exchange contribution
   HFSCREEN=    0.0000 screening length (either q_TF or 0.3 A-1)
   HFSCREENC=   0.0000 screening length for correlation (either q_TF or 0.3 A-1)
   HFRCUT  =    0.0000 spherical cutoff for potential kernel
   ALDAX   =    0.0000 LDA exchange part
   AGGAX   =    0.0000 GGA exchange part
   ALDAC   =    0.0000 LDA correlation
   AGGAC   =    0.0000 GGA correlation
   ENCUTFOCK=  -1.0 apply spherical cutoff to Coloumb kernel
   NBANDSGWLOW=     1    first orbital included in HF term
   NBLOCK_FOCK=    64    blocking factor in FOCK_ACC
 Linear response parameters
   LEPSILON=     F    determine dielectric tensor
   LRPA    =     F    only Hartree local field effects (RPA)
   LNABLA  =     F    use nabla operator in PAW spheres
   LVEL    =     F    velocity operator in full k-point grid
   CSHIFT  =0.1000    complex shift for real part using Kramers Kronig
   OMEGAMAX=  -1.0    maximum frequency
   DEG_THRESHOLD= 0.2000000E-02 threshold for treating states as degnerate
   RTIME   =   -0.100 relaxation time in fs
  (WPLASMAI=    0.000 imaginary part of plasma frequency in eV, 0.658/RTIME)
   DFIELD  = 0.0000000 0.0000000 0.0000000 field for delta impulse in time
 
  Optional k-point grid parameters
   LKPOINTS_OPT  =     F    use optional k-point grid
   KPOINTS_OPT_MODE=     1    mode for optional k-point grid
 
 Orbital magnetization related:
   ORBITALMAG=     F  switch on orbital magnetization
   LCHIMAG   =     F  perturbation theory with respect to B field
   DQ        =  0.001000  dq finite difference perturbation B field
   LLRAUG    =     F  two centre corrections for induced B field



--------------------------------------------------------------------------------------------------------


 Static calculation
 charge density and potential will be updated during run
 non-spin polarized calculation
 Conjugate gradient for all bands (Freysoldt, et al. PRB 79, 241103 (2009))
 preconditioned conjugated gradient                                        
 perform sub-space diagonalisation
    before iterative eigenvector-optimisation
 modified Broyden-mixing scheme, WC =      100.0
 initial mixing is a Kerker type mixing with AMIX =  0.4000 and BMIX =      1.0000
 Hartree-type preconditioning will be used
 using additional bands           32
 reciprocal scheme for non local part
 no Harris-corrections to forces 
 use gradient corrections 
 use of overlap-Matrix (Vanderbilt PP)
 Gauss-broadening in eV      SIGMA  =   0.10


--------------------------------------------------------------------------------------------------------


  energy-cutoff  :      320.00
  volume of cell :     1403.01
      direct lattice vectors                 reciprocal lattice vectors
    15.439217752  0.004465832 -0.038376892     0.065085042  0.034326685  0.130688713
    -7.186282924 13.630928377 -0.001416099     0.000303919  0.073536393  0.130825479
    -7.182834812-11.890639092  6.700359279     0.000372844  0.000212151  0.150021909

  length of vectors
    15.439266094 15.409246337 15.423204220     0.149979744  0.150076646  0.150022522


 
 k-points in units of 2pi/SCALE and weight: KPOINTS                                 
   0.00000000  0.00000000  0.00000000       1.000
 
 k-points in reciprocal lattice and weights: KPOINTS                                 
   0.00000000  0.00000000  0.00000000       1.000
 
 position of ions in fractional coordinates (direct lattice) 
   0.29476622  0.94083069  0.21965952
   0.30969226  0.00639936  0.31696225
   0.27791432  0.87476407  0.11977558
 
 position of ions in cartesian coordinates  (Angst):
  -3.78789373 10.21382006  1.45915321
   2.45873113 -3.68027146  2.11186685
  -2.85585061 10.50087923  0.79063519
 


--------------------------------------------------------------------------------------------------------


 use serial FFT for orbitals x direction half grid
 k-point   1 :   0.0000 0.0000 0.0000  plane waves:    9119

 maximum and minimum number of plane-waves per node :      9119     9119

 maximum number of plane-waves:      9119
 maximum index in each direction: 
   IXMAX=   22   IYMAX=   19   IZMAX=   19
   IXMIN=    0   IYMIN=  -22   IZMIN=  -22


 serial   3D FFT for wavefunctions
 parallel 3D FFT for charge:
    minimum data exchange during FFTs selected (reduces bandwidth)


 FFT grid for exact exchange (Hartree Fock) 
  NGX = 70; NGY = 70; NGZ = 70

 use serial FFT for orbitals x direction half grid
 
 Radii for the augmentation spheres in the non-local exchange
 for species   1 augmentation radius   0.874 (default was   0.699)
       energy cutoff for augmentation   1280.0
 for species   2 augmentation radius   0.902 (default was   0.722)
       energy cutoff for augmentation   1280.0
 Maximum index for augmentation-charges in exchange          749
  SETUP_FOCK is finished

 total amount of memory used by VASP MPI-rank0    79043. kBytes
=======================================================================

   base      :      30000. kBytes
   nonl-proj :       1605. kBytes
   fftplans  :       8382. kBytes
   grid      :      38433. kBytes
   one-center:          4. kBytes
   HF        :          9. kBytes
   nonlr-proj:        172. kBytes
   wavefun   :        438. kBytes
 
     INWAV:  cpu time      0.0000: real time      0.0001
 Broyden mixing: mesh for mixing (old mesh)
   NGX = 45   NGY = 45   NGZ = 45
  (NGX  =180   NGY  =180   NGZ  =180)
  gives a total of  91125 points

 initial charge density was supplied:
 charge density of overlapping atoms calculated
 number of electron      16.0000000 magnetization 
 keeping initial charge density in first step


--------------------------------------------------------------------------------------------------------


 Maximum index for augmentation-charges          187 (set IRDMAX)


--------------------------------------------------------------------------------------------------------


    FEWALD:  cpu time      0.0004: real time      0.0004


--------------------------------------- Iteration      1(   1)  ---------------------------------------


    POTLOK:  cpu time      0.1556: real time      0.1665
    SETDIJ:  cpu time      0.0438: real time      0.0439
    TRIAL :  cpu time      0.1780: real time      0.2083
    CORREC:  cpu time      0.0004: real time      0.0005
    --------------------------------------------
      LOOP:  cpu time      0.3792: real time      0.4220

 eigenvalue-minimisations  :   120
 total energy-change (2. order) :-0.3444948E+03  (-0.4562407E+03)
 number of electron      16.0000000 magnetization 
 augmentation part       16.0000000 magnetization 

 Free energy of the ion-electron system (eV)
  ---------------------------------------------------
  alpha Z        PSCENC =         0.76043029
  Ewald energy   TEWEN  =       421.95445347
  -Hartree energ DENC   =     -1232.07560337
  -exchange      EXHF   =         0.00000000
  -V(xc)+E(xc)   XCENC  =        68.21336668
  PAW double counting   =       800.93669798    -1155.54129151
  entropy T*S    EENTRO =        -0.00000000
  eigenvalues    EBANDS =      -209.01487920
  atomic energy  EATOM  =       960.27198670
  ---------------------------------------------------
  free energy    TOTEN  =      -344.49483896 eV

  energy without entropy =     -344.49483896  energy(sigma->0) =     -344.49483896
  exchange ACFDT corr.  =         0.00000000  see jH, gK, PRB 81, 115126


--------------------------------------------------------------------------------------------------------




--------------------------------------- Iteration      1(   2)  ---------------------------------------


    TRIAL :  cpu time      0.1219: real time      0.1223
    CORREC:  cpu time      0.0001: real time      0.0001
    --------------------------------------------
      LOOP:  cpu time      0.1282: real time      0.1295

 eigenvalue-minimisations  :    80
 total energy-change (2. order) :-0.9776239E+02  (-0.9776239E+02)
 number of electron      16.0000000 magnetization 
 augmentation part       16.0000000 magnetization 

 Free energy of the ion-electron system (eV)
  ---------------------------------------------------
  alpha Z        PSCENC =         0.76043029
  Ewald energy   TEWEN  =       421.95445347
  -Hartree energ DENC   =     -1232.07560337
  -exchange      EXHF   =         0.00000000
  -V(xc)+E(xc)   XCENC  =        68.21336668
  PAW double counting   =       800.93669798    -1155.54129151
  entropy T*S    EENTRO =        -0.00000000
  eigenvalues    EBANDS =      -306.77726811
  atomic energy  EATOM  =       960.27198670
  ---------------------------------------------------
  free energy    TOTEN  =      -442.25722787 eV

  energy without entropy =     -442.25722787  energy(sigma->0) =     -442.25722787
  exchange ACFDT corr.  =         0.00000000  see jH, gK, PRB 81, 115126


--------------------------------------------------------------------------------------------------------




--------------------------------------- Iteration      1(   3)  ---------------------------------------


    TRIAL :  cpu time      0.1635: real time      0.1641
    CORREC:  cpu time      0.0001: real time      0.0001
    --------------------------------------------
      LOOP:  cpu time      0.1640: real time      0.1711

 eigenvalue-minimisations  :   120
 total energy-change (2. order) :-0.2831578E+01  (-0.2831578E+01)
 number of electron      16.0000000 magnetization 
 augmentation part       16.0000000 magnetization 

 Free energy of the ion-electron system (eV)
  ---------------------------------------------------
  alpha Z        PSCENC =         0.76043029
  Ewald energy   TEWEN  =       421.95445347
  -Hartree energ DENC   =     -1232.07560337
  -exchange      EXHF   =         0.00000000
  -V(xc)+E(xc)   XCENC  =        68.21336668
  PAW double counting   =       800.93669798    -1155.54129151
  entropy T*S    EENTRO =        -0.00000000
  eigenvalues    EBANDS =      -309.60884601
  atomic energy  EATOM  =       960.27198670
  ---------------------------------------------------
  free energy    TOTEN  =      -445.08880577 eV

  energy without entropy =     -445.08880577  energy(sigma->0) =     -445.08880577
  exchange ACFDT corr.  =         0.00000000  see jH, gK, PRB 81, 115126


--------------------------------------------------------------------------------------------------------




--------------------------------------- Iteration      1(   4)  ---------------------------------------


    TRIAL :  cpu time      0.1217: real time      0.1222
    CORREC:  cpu time      0.0000: real time      0.0000
    --------------------------------------------
      LOOP:  cpu time      0.1222: real time      0.1299

 eigenvalue-minimisations  :    80
 total energy-change (2. order) :-0.1426923E-02  (-0.1426923E-02)
 number of electron      16.0000000 magnetization 
 augmentation part       16.0000000 magnetization 

 Free energy of the ion-electron system (eV)
  ---------------------------------------------------
  alpha Z        PSCENC =         0.76043029
  Ewald energy   TEWEN  =       421.95445347
  -Hartree energ DENC   =     -1232.07560337
  -exchange      EXHF   =         0.00000000
  -V(xc)+E(xc)   XCENC  =        68.21336668
  PAW double counting   =       800.93669798    -1155.54129151
  entropy T*S    EENTRO =        -0.00000000
  eigenvalues    EBANDS =      -309.61027293
  atomic energy  EATOM  =       960.27198670
  ---------------------------------------------------
  free energy    TOTEN  =      -445.09023269 eV

  energy without entropy =     -445.09023269  energy(sigma->0) =     -445.09023269
  exchange ACFDT corr.  =         0.00000000  see jH, gK, PRB 81, 115126


--------------------------------------------------------------------------------------------------------




--------------------------------------- Iteration      1(   5)  ---------------------------------------


    POTLOK:  cpu time      0.1077: real time      0.1080
    SETDIJ:  cpu time      0.0420: real time      0.0421
    TRIAL :  cpu time      1.7934: real time      1.7997
    CORREC:  cpu time      0.0000: real time      0.0000
    CHARGE:  cpu time      0.0428: real time      0.0429
    --------------------------------------------
      LOOP:  cpu time      1.9866: real time      2.0001

 eigenvalue-minimisations  :    80
 total energy-change (2. order) : 0.3930548E+03  (-0.2502352E+01)
 number of electron      16.0000005 magnetization 
 augmentation part        1.2759020 magnetization 

 Free energy of the ion-electron system (eV)
  ---------------------------------------------------
  alpha Z        PSCENC =         0.76043029
  Ewald energy   TEWEN  =       421.95445347
  -Hartree energ DENC   =     -1232.07560337
  -exchange      EXHF   =       226.48883602
  -V(xc)+E(xc)   XCENC  =         0.00000000
  PAW double counting   =       864.36637021     -862.54184628
  entropy T*S    EENTRO =        -0.00000000
  eigenvalues    EBANDS =      -431.26008037
  atomic energy  EATOM  =       960.27198670
  ---------------------------------------------------
  free energy    TOTEN  =       -52.03545333 eV

  energy without entropy =      -52.03545333  energy(sigma->0) =      -52.03545333
  exchange ACFDT corr.  =        -0.00000000  see jH, gK, PRB 81, 115126


--------------------------------------------------------------------------------------------------------




--------------------------------------- Iteration      1(   6)  ---------------------------------------


    POTLOK:  cpu time      0.1125: real time      0.1128
    SETDIJ:  cpu time      0.0421: real time      0.0422
    TRIAL :  cpu time      1.6316: real time      1.6648
    CORREC:  cpu time      1.4578: real time      1.4678
    CHARGE:  cpu time      0.0400: real time      0.0404
    --------------------------------------------
      LOOP:  cpu time      3.2864: real time      3.3360

 eigenvalue-minimisations  :     0
 total energy-change (2. order) : 0.1008347E+02  (-0.5186311E+01)
 number of electron      16.0000004 magnetization 
 augmentation part        0.9758552 magnetization 

 Free energy of the ion-electron system (eV)
  ---------------------------------------------------
  alpha Z        PSCENC =         0.76043029
  Ewald energy   TEWEN  =       421.95445347
  -Hartree energ DENC   =     -1337.29957464
  -exchange      EXHF   =       228.64920706
  -V(xc)+E(xc)   XCENC  =         0.00000000
  PAW double counting   =      1389.21406564    -1387.66149913
  entropy T*S    EENTRO =        -0.00000000
  eigenvalues    EBANDS =      -317.84105066
  atomic energy  EATOM  =       960.27198670
  ---------------------------------------------------
  free energy    TOTEN  =       -41.95198128 eV

  energy without entropy =      -41.95198128  energy(sigma->0) =      -41.95198128
  exchange ACFDT corr.  =        -0.00000000  see jH, gK, PRB 81, 115126


--------------------------------------------------------------------------------------------------------




--------------------------------------- Iteration      1(   7)  ---------------------------------------


    POTLOK:  cpu time      0.1109: real time      0.1112
    SETDIJ:  cpu time      0.0420: real time      0.0421
    TRIAL :  cpu time      1.3386: real time      1.3426
    CORREC:  cpu time      5.9813: real time      6.0119
    CHARGE:  cpu time      0.0403: real time      0.0404
    --------------------------------------------
      LOOP:  cpu time      7.5191: real time      7.5564

 eigenvalue-minimisations  :     0
 total energy-change (2. order) :-0.5048376E+01  (-0.2420168E-01)
 number of electron      16.0000004 magnetization 
 augmentation part        0.9497410 magnetization 

 Free energy of the ion-electron system (eV)
  ---------------------------------------------------
  alpha Z        PSCENC =         0.76043029
  Ewald energy   TEWEN  =       421.95445347
  -Hartree energ DENC   =     -1262.25370129
  -exchange      EXHF   =       215.00477679
  -V(xc)+E(xc)   XCENC  =         0.00000000
  PAW double counting   =      1240.07765470    -1238.82939027
  entropy T*S    EENTRO =        -0.00000000
  eigenvalues    EBANDS =      -383.98656770
  atomic energy  EATOM  =       960.27198670
  ---------------------------------------------------
  free energy    TOTEN  =       -47.00035731 eV

  energy without entropy =      -47.00035731  energy(sigma->0) =      -47.00035731
  exchange ACFDT corr.  =        -0.00000000  see jH, gK, PRB 81, 115126


--------------------------------------------------------------------------------------------------------




--------------------------------------- Iteration      1(   8)  ---------------------------------------


    POTLOK:  cpu time      0.1103: real time      0.1106
    SETDIJ:  cpu time      0.0424: real time      0.0425
    TRIAL :  cpu time      1.3241: real time      1.3323
    CORREC:  cpu time      1.4505: real time      1.4580
    CHARGE:  cpu time      0.0426: real time      0.0427
    --------------------------------------------
      LOOP:  cpu time      2.9730: real time      2.9941

 eigenvalue-minimisations  :     0
 total energy-change (2. order) :-0.5940711E+00  (-0.3255526E+00)
 number of electron      16.0000004 magnetization 
 augmentation part        0.9690780 magnetization 

 Free energy of the ion-electron system (eV)
  ---------------------------------------------------
  alpha Z        PSCENC =         0.76043029
  Ewald energy   TEWEN  =       421.95445347
  -Hartree energ DENC   =     -1269.17214556
  -exchange      EXHF   =       215.52130066
  -V(xc)+E(xc)   XCENC  =         0.00000000
  PAW double counting   =      1243.76917632    -1242.48002667
  entropy T*S    EENTRO =        -0.00000000
  eigenvalues    EBANDS =      -378.21960362
  atomic energy  EATOM  =       960.27198670
  ---------------------------------------------------
  free energy    TOTEN  =       -47.59442841 eV

  energy without entropy =      -47.59442841  energy(sigma->0) =      -47.59442841
  exchange ACFDT corr.  =         0.00000000  see jH, gK, PRB 81, 115126


--------------------------------------------------------------------------------------------------------




--------------------------------------- Iteration      1(   9)  ---------------------------------------


    POTLOK:  cpu time      0.1118: real time      0.1121
    SETDIJ:  cpu time      0.0432: real time      0.0433
    TRIAL :  cpu time      1.3437: real time      1.3479
    CORREC:  cpu time      2.0236: real time      2.1023
    CHARGE:  cpu time      0.2103: real time      0.2108
    --------------------------------------------
      LOOP:  cpu time      3.7363: real time      3.8258

 eigenvalue-minimisations  :     0
 total energy-change (2. order) :-0.3311964E+00  (-0.1893923E+00)
 number of electron      16.0000004 magnetization 
 augmentation part        0.9792314 magnetization 

 Free energy of the ion-electron system (eV)
  ---------------------------------------------------
  alpha Z        PSCENC =         0.76043029
  Ewald energy   TEWEN  =       421.95445347
  -Hartree energ DENC   =     -1271.69776429
  -exchange      EXHF   =       215.39103235
  -V(xc)+E(xc)   XCENC  =         0.00000000
  PAW double counting   =      1239.56999337    -1238.32443202
  entropy T*S    EENTRO =        -0.00000000
  eigenvalues    EBANDS =      -375.85132469
  atomic energy  EATOM  =       960.27198670
  ---------------------------------------------------
  free energy    TOTEN  =       -47.92562482 eV

  energy without entropy =      -47.92562482  energy(sigma->0) =      -47.92562482
  exchange ACFDT corr.  =        -0.00000000  see jH, gK, PRB 81, 115126


--------------------------------------------------------------------------------------------------------




--------------------------------------- Iteration      1(  10)  ---------------------------------------


    POTLOK:  cpu time      0.1130: real time      0.1133
    SETDIJ:  cpu time      0.0423: real time      0.0424
    TRIAL :  cpu time      1.3905: real time      1.4057
    CORREC:  cpu time      1.4827: real time      1.4872
    CHARGE:  cpu time      0.0396: real time      0.0397
    --------------------------------------------
      LOOP:  cpu time      3.0697: real time      3.0960

 eigenvalue-minimisations  :     0
 total energy-change (2. order) :-0.1897064E+00  (-0.1046871E+00)
 number of electron      16.0000004 magnetization 
 augmentation part        0.9757619 magnetization 

 Free energy of the ion-electron system (eV)
  ---------------------------------------------------
  alpha Z        PSCENC =         0.76043029
  Ewald energy   TEWEN  =       421.95445347
  -Hartree energ DENC   =     -1267.37066481
  -exchange      EXHF   =       214.47688070
  -V(xc)+E(xc)   XCENC  =         0.00000000
  PAW double counting   =      1226.97232256    -1225.75499033
  entropy T*S    EENTRO =        -0.00000000
  eigenvalues    EBANDS =      -379.42574979
  atomic energy  EATOM  =       960.27198670
  ---------------------------------------------------
  free energy    TOTEN  =       -48.11533121 eV

  energy without entropy =      -48.11533121  energy(sigma->0) =      -48.11533121
  exchange ACFDT corr.  =        -0.00000000  see jH, gK, PRB 81, 115126


--------------------------------------------------------------------------------------------------------




--------------------------------------- Iteration      1(  11)  ---------------------------------------


    POTLOK:  cpu time      0.1116: real time      0.1119
    SETDIJ:  cpu time      0.0422: real time      0.0423
    TRIAL :  cpu time      1.3457: real time      1.3545
    CORREC:  cpu time      1.4852: real time      1.4933
    CHARGE:  cpu time      0.0403: real time      0.0404
    --------------------------------------------
      LOOP:  cpu time      3.0258: real time      3.0500

 eigenvalue-minimisations  :     0
 total energy-change (2. order) :-0.1036837E+00  (-0.6326091E-01)
 number of electron      16.0000004 magnetization 
 augmentation part        0.9699104 magnetization 

 Free energy of the ion-electron system (eV)
  ---------------------------------------------------
  alpha Z        PSCENC =         0.76043029
  Ewald energy   TEWEN  =       421.95445347
  -Hartree energ DENC   =     -1265.55687058
  -exchange      EXHF   =       214.04640907
  -V(xc)+E(xc)   XCENC  =         0.00000000
  PAW double counting   =      1223.08448111    -1221.85012186
  entropy T*S    EENTRO =        -0.00000000
  eigenvalues    EBANDS =      -380.92978315
  atomic energy  EATOM  =       960.27198670
  ---------------------------------------------------
  free energy    TOTEN  =       -48.21901496 eV

  energy without entropy =      -48.21901496  energy(sigma->0) =      -48.21901496
  exchange ACFDT corr.  =        -0.00000000  see jH, gK, PRB 81, 115126


--------------------------------------------------------------------------------------------------------




--------------------------------------- Iteration      1(  12)  ---------------------------------------


    POTLOK:  cpu time      0.1263: real time      0.1269
    SETDIJ:  cpu time      0.0350: real time      0.0457
    TRIAL :  cpu time      1.3479: real time      1.3679
    CORREC:  cpu time      1.4607: real time      1.4649
    CHARGE:  cpu time      0.0397: real time      0.0398
    --------------------------------------------
      LOOP:  cpu time      3.0102: real time      3.0525

 eigenvalue-minimisations  :     0
 total energy-change (2. order) :-0.6277685E-01  (-0.2527731E-01)
 number of electron      16.0000004 magnetization 
 augmentation part        0.9657213 magnetization 

 Free energy of the ion-electron system (eV)
  ---------------------------------------------------
  alpha Z        PSCENC =         0.76043029
  Ewald energy   TEWEN  =       421.95445347
  -Hartree energ DENC   =     -1265.83777372
  -exchange      EXHF   =       213.91336903
  -V(xc)+E(xc)   XCENC  =         0.00000000
  PAW double counting   =      1224.50344931    -1223.25412171
  entropy T*S    EENTRO =        -0.00000000
  eigenvalues    EBANDS =      -380.59358518
  atomic energy  EATOM  =       960.27198670
  ---------------------------------------------------
  free energy    TOTEN  =       -48.28179180 eV

  energy without entropy =      -48.28179180  energy(sigma->0) =      -48.28179180
  exchange ACFDT corr.  =        -0.00000000  see jH, gK, PRB 81, 115126


--------------------------------------------------------------------------------------------------------




--------------------------------------- Iteration      1(  13)  ---------------------------------------


    POTLOK:  cpu time      0.1121: real time      0.1123
    SETDIJ:  cpu time      0.0423: real time      0.0424
    TRIAL :  cpu time      1.3372: real time      1.3588
    CORREC:  cpu time      1.4682: real time      1.4726
    CHARGE:  cpu time      0.0413: real time      0.0414
    --------------------------------------------
      LOOP:  cpu time      3.0030: real time      3.0365

 eigenvalue-minimisations  :     0
 total energy-change (2. order) :-0.2525295E-01  (-0.1050320E-01)
 number of electron      16.0000004 magnetization 
 augmentation part        0.9657169 magnetization 

 Free energy of the ion-electron system (eV)
  ---------------------------------------------------
  alpha Z        PSCENC =         0.76043029
  Ewald energy   TEWEN  =       421.95445347
  -Hartree energ DENC   =     -1265.47442939
  -exchange      EXHF   =       213.77227287
  -V(xc)+E(xc)   XCENC  =         0.00000000
  PAW double counting   =      1224.76454022    -1223.50844048
  entropy T*S    EENTRO =        -0.00000000
  eigenvalues    EBANDS =      -380.84785844
  atomic energy  EATOM  =       960.27198670
  ---------------------------------------------------
  free energy    TOTEN  =       -48.30704476 eV

  energy without entropy =      -48.30704476  energy(sigma->0) =      -48.30704476
  exchange ACFDT corr.  =        -0.00000000  see jH, gK, PRB 81, 115126


--------------------------------------------------------------------------------------------------------




--------------------------------------- Iteration      1(  14)  ---------------------------------------


    POTLOK:  cpu time      0.1113: real time      0.1115
    SETDIJ:  cpu time      0.0422: real time      0.0423
    TRIAL :  cpu time      1.3374: real time      1.3461
    CORREC:  cpu time      1.4937: real time      1.4980
    CHARGE:  cpu time      0.0425: real time      0.0426
    --------------------------------------------
      LOOP:  cpu time      3.0285: real time      3.0485

 eigenvalue-minimisations  :     0
 total energy-change (2. order) :-0.1050474E-01  (-0.3980341E-02)
 number of electron      16.0000004 magnetization 
 augmentation part        0.9685810 magnetization 

 Free energy of the ion-electron system (eV)
  ---------------------------------------------------
  alpha Z        PSCENC =         0.76043029
  Ewald energy   TEWEN  =       421.95445347
  -Hartree energ DENC   =     -1265.07287943
  -exchange      EXHF   =       213.68347485
  -V(xc)+E(xc)   XCENC  =         0.00000000
  PAW double counting   =      1224.47732985    -1223.21634035
  entropy T*S    EENTRO =        -0.00000000
  eigenvalues    EBANDS =      -381.17600487
  atomic energy  EATOM  =       960.27198670
  ---------------------------------------------------
  free energy    TOTEN  =       -48.31754949 eV

  energy without entropy =      -48.31754949  energy(sigma->0) =      -48.31754949
  exchange ACFDT corr.  =        -0.00000000  see jH, gK, PRB 81, 115126


--------------------------------------------------------------------------------------------------------




--------------------------------------- Iteration      1(  15)  ---------------------------------------


    POTLOK:  cpu time      0.1107: real time      0.1111
    SETDIJ:  cpu time      0.0431: real time      0.0432
    TRIAL :  cpu time      1.3689: real time      1.3899
    CORREC:  cpu time      1.4994: real time      1.5156
    CHARGE:  cpu time      0.0395: real time      0.0396
    --------------------------------------------
      LOOP:  cpu time      3.0634: real time      3.1065

 eigenvalue-minimisations  :     0
 total energy-change (2. order) :-0.3979639E-02  (-0.1303508E-02)
 number of electron      16.0000004 magnetization 
 augmentation part        0.9692778 magnetization 

 Free energy of the ion-electron system (eV)
  ---------------------------------------------------
  alpha Z        PSCENC =         0.76043029
  Ewald energy   TEWEN  =       421.95445347
  -Hartree energ DENC   =     -1265.19620952
  -exchange      EXHF   =       213.68870755
  -V(xc)+E(xc)   XCENC  =         0.00000000
  PAW double counting   =      1224.58570863    -1223.32337487
  entropy T*S    EENTRO =        -0.00000000
  eigenvalues    EBANDS =      -381.06323138
  atomic energy  EATOM  =       960.27198670
  ---------------------------------------------------
  free energy    TOTEN  =       -48.32152913 eV

  energy without entropy =      -48.32152913  energy(sigma->0) =      -48.32152913
  exchange ACFDT corr.  =        -0.00000000  see jH, gK, PRB 81, 115126


--------------------------------------------------------------------------------------------------------




--------------------------------------- Iteration      1(  16)  ---------------------------------------


    POTLOK:  cpu time      0.1115: real time      0.1118
    SETDIJ:  cpu time      0.0423: real time      0.0424
    TRIAL :  cpu time      1.3736: real time      1.3882
    CORREC:  cpu time      2.5378: real time      2.5486
    CHARGE:  cpu time      0.0400: real time      0.0401
    --------------------------------------------
      LOOP:  cpu time      4.1063: real time      4.1384

 eigenvalue-minimisations  :     0
 total energy-change (2. order) :-0.1302343E-02  (-0.4005585E-03)
 number of electron      16.0000004 magnetization 
 augmentation part        0.9695454 magnetization 

 Free energy of the ion-electron system (eV)
  ---------------------------------------------------
  alpha Z        PSCENC =         0.76043029
  Ewald energy   TEWEN  =       421.95445347
  -Hartree energ DENC   =     -1264.99481305
  -exchange      EXHF   =       213.65013851
  -V(xc)+E(xc)   XCENC  =         0.00000000
  PAW double counting   =      1224.06759568    -1222.80603042
  entropy T*S    EENTRO =        -0.00000000
  eigenvalues    EBANDS =      -381.22659265
  atomic energy  EATOM  =       960.27198670
  ---------------------------------------------------
  free energy    TOTEN  =       -48.32283148 eV

  energy without entropy =      -48.32283148  energy(sigma->0) =      -48.32283148
  exchange ACFDT corr.  =        -0.00000000  see jH, gK, PRB 81, 115126


--------------------------------------------------------------------------------------------------------




--------------------------------------- Iteration      1(  17)  ---------------------------------------


    POTLOK:  cpu time      0.1109: real time      0.1116
    SETDIJ:  cpu time      0.0422: real time      0.0423
    TRIAL :  cpu time      1.3464: real time      1.3547
    CORREC:  cpu time      1.4311: real time      1.4815
    CHARGE:  cpu time      0.0399: real time      0.0400
    --------------------------------------------
      LOOP:  cpu time      2.9712: real time      3.0372

 eigenvalue-minimisations  :     0
 total energy-change (2. order) :-0.4005508E-03  (-0.1780160E-03)
 number of electron      16.0000004 magnetization 
 augmentation part        0.9698280 magnetization 

 Free energy of the ion-electron system (eV)
  ---------------------------------------------------
  alpha Z        PSCENC =         0.76043029
  Ewald energy   TEWEN  =       421.95445347
  -Hartree energ DENC   =     -1264.95652125
  -exchange      EXHF   =       213.64673883
  -V(xc)+E(xc)   XCENC  =         0.00000000
  PAW double counting   =      1223.94940050    -1222.68818802
  entropy T*S    EENTRO =        -0.00000000
  eigenvalues    EBANDS =      -381.26153254
  atomic energy  EATOM  =       960.27198670
  ---------------------------------------------------
  free energy    TOTEN  =       -48.32323203 eV

  energy without entropy =      -48.32323203  energy(sigma->0) =      -48.32323203
  exchange ACFDT corr.  =         0.00000000  see jH, gK, PRB 81, 115126


--------------------------------------------------------------------------------------------------------




--------------------------------------- Iteration      1(  18)  ---------------------------------------


    POTLOK:  cpu time      0.1300: real time      0.1470
    SETDIJ:  cpu time      0.0351: real time      0.0458
    TRIAL :  cpu time      1.4715: real time      1.5847
    CORREC:  cpu time      1.5864: real time      1.6194
    CHARGE:  cpu time      0.0386: real time      0.0387
    --------------------------------------------
      LOOP:  cpu time      3.2688: real time      3.4439

 eigenvalue-minimisations  :     0
 total energy-change (2. order) :-0.1778688E-03  (-0.8062006E-04)
 number of electron      16.0000004 magnetization 
 augmentation part        0.9697081 magnetization 

 Free energy of the ion-electron system (eV)
  ---------------------------------------------------
  alpha Z        PSCENC =         0.76043029
  Ewald energy   TEWEN  =       421.95445347
  -Hartree energ DENC   =     -1265.04362449
  -exchange      EXHF   =       213.66552043
  -V(xc)+E(xc)   XCENC  =         0.00000000
  PAW double counting   =      1224.10388056    -1222.84288297
  entropy T*S    EENTRO =        -0.00000000
  eigenvalues    EBANDS =      -381.19317388
  atomic energy  EATOM  =       960.27198670
  ---------------------------------------------------
  free energy    TOTEN  =       -48.32340990 eV

  energy without entropy =      -48.32340990  energy(sigma->0) =      -48.32340990
  exchange ACFDT corr.  =         0.00000000  see jH, gK, PRB 81, 115126


--------------------------------------------------------------------------------------------------------




--------------------------------------- Iteration      1(  19)  ---------------------------------------


    POTLOK:  cpu time      0.1160: real time      0.1165
    SETDIJ:  cpu time      0.0424: real time      0.0425
    TRIAL :  cpu time      1.3382: real time      1.3427
    CORREC:  cpu time      1.4524: real time      1.4651
    CHARGE:  cpu time      0.0378: real time      0.0379
    --------------------------------------------
      LOOP:  cpu time      2.9874: real time      3.0116

 eigenvalue-minimisations  :     0
 total energy-change (2. order) :-0.8067639E-04  (-0.3745775E-04)
 number of electron      16.0000004 magnetization 
 augmentation part        0.9697192 magnetization 

 Free energy of the ion-electron system (eV)
  ---------------------------------------------------
  alpha Z        PSCENC =         0.76043029
  Ewald energy   TEWEN  =       421.95445347
  -Hartree energ DENC   =     -1265.04563734
  -exchange      EXHF   =       213.66836498
  -V(xc)+E(xc)   XCENC  =         0.00000000
  PAW double counting   =      1224.11142006    -1222.85089208
  entropy T*S    EENTRO =        -0.00000000
  eigenvalues    EBANDS =      -381.19361665
  atomic energy  EATOM  =       960.27198670
  ---------------------------------------------------
  free energy    TOTEN  =       -48.32349057 eV

  energy without entropy =      -48.32349057  energy(sigma->0) =      -48.32349057
  exchange ACFDT corr.  =         0.00000000  see jH, gK, PRB 81, 115126


--------------------------------------------------------------------------------------------------------




--------------------------------------- Iteration      1(  20)  ---------------------------------------


    POTLOK:  cpu time      0.1135: real time      0.1138
    SETDIJ:  cpu time      0.0423: real time      0.0424
    TRIAL :  cpu time      1.3378: real time      1.3418
    CORREC:  cpu time      1.4525: real time      1.4639
    CHARGE:  cpu time      0.0390: real time      0.0391
    --------------------------------------------
      LOOP:  cpu time      2.9857: real time      3.0086

 eigenvalue-minimisations  :     0
 total energy-change (2. order) :-0.3749316E-04  (-0.1847482E-04)
 number of electron      16.0000004 magnetization 
 augmentation part        0.9698158 magnetization 

 Free energy of the ion-electron system (eV)
  ---------------------------------------------------
  alpha Z        PSCENC =         0.76043029
  Ewald energy   TEWEN  =       421.95445347
  -Hartree energ DENC   =     -1265.06714992
  -exchange      EXHF   =       213.67403799
  -V(xc)+E(xc)   XCENC  =         0.00000000
  PAW double counting   =      1224.15985276    -1222.89959105
  entropy T*S    EENTRO =        -0.00000000
  eigenvalues    EBANDS =      -381.17754831
  atomic energy  EATOM  =       960.27198670
  ---------------------------------------------------
  free energy    TOTEN  =       -48.32352806 eV

  energy without entropy =      -48.32352806  energy(sigma->0) =      -48.32352806
  exchange ACFDT corr.  =        -0.00000000  see jH, gK, PRB 81, 115126


--------------------------------------------------------------------------------------------------------




--------------------------------------- Iteration      1(  21)  ---------------------------------------


    POTLOK:  cpu time      0.1158: real time      0.1160
    SETDIJ:  cpu time      0.0423: real time      0.0424
    TRIAL :  cpu time      1.3327: real time      1.3366
    CORREC:  cpu time      1.4614: real time      1.4659
    CHARGE:  cpu time      0.0394: real time      0.0395
    --------------------------------------------
      LOOP:  cpu time      2.9939: real time      3.0081

 eigenvalue-minimisations  :     0
 total energy-change (2. order) :-0.1848407E-04  (-0.6888352E-05)
 number of electron      16.0000004 magnetization 
 augmentation part        0.9697774 magnetization 

 Free energy of the ion-electron system (eV)
  ---------------------------------------------------
  alpha Z        PSCENC =         0.76043029
  Ewald energy   TEWEN  =       421.95445347
  -Hartree energ DENC   =     -1265.10640457
  -exchange      EXHF   =       213.68220805
  -V(xc)+E(xc)   XCENC  =         0.00000000
  PAW double counting   =      1224.24352019    -1222.98330608
  entropy T*S    EENTRO =        -0.00000000
  eigenvalues    EBANDS =      -381.14643460
  atomic energy  EATOM  =       960.27198670
  ---------------------------------------------------
  free energy    TOTEN  =       -48.32354655 eV

  energy without entropy =      -48.32354655  energy(sigma->0) =      -48.32354655
  exchange ACFDT corr.  =        -0.00000000  see jH, gK, PRB 81, 115126


--------------------------------------------------------------------------------------------------------




--------------------------------------- Iteration      1(  22)  ---------------------------------------


    POTLOK:  cpu time      0.1118: real time      0.1120
    SETDIJ:  cpu time      0.0423: real time      0.0424
    TRIAL :  cpu time      1.3349: real time      1.3389
    CORREC:  cpu time      1.6605: real time      2.5508
    CHARGE:  cpu time      0.0390: real time      0.0392
    --------------------------------------------
      LOOP:  cpu time      3.1901: real time      4.0917

 eigenvalue-minimisations  :     0
 total energy-change (2. order) :-0.6889676E-05  (-0.2317397E-05)
 number of electron      16.0000004 magnetization 
 augmentation part        0.9697649 magnetization 

 Free energy of the ion-electron system (eV)
  ---------------------------------------------------
  alpha Z        PSCENC =         0.76043029
  Ewald energy   TEWEN  =       421.95445347
  -Hartree energ DENC   =     -1265.10470539
  -exchange      EXHF   =       213.68228505
  -V(xc)+E(xc)   XCENC  =         0.00000000
  PAW double counting   =      1224.24485288    -1222.98467314
  entropy T*S    EENTRO =        -0.00000000
  eigenvalues    EBANDS =      -381.14818330
  atomic energy  EATOM  =       960.27198670
  ---------------------------------------------------
  free energy    TOTEN  =       -48.32355344 eV

  energy without entropy =      -48.32355344  energy(sigma->0) =      -48.32355344
  exchange ACFDT corr.  =        -0.00000000  see jH, gK, PRB 81, 115126


--------------------------------------------------------------------------------------------------------




--------------------------------------- Iteration      1(  23)  ---------------------------------------


    POTLOK:  cpu time      0.1108: real time      0.1111
    SETDIJ:  cpu time      0.0419: real time      0.0421
    TRIAL :  cpu time      1.3260: real time      1.3304
    CORREC:  cpu time      1.4831: real time      1.4907
    CHARGE:  cpu time      0.0450: real time      0.0453
    --------------------------------------------
      LOOP:  cpu time      3.0086: real time      3.0279

 eigenvalue-minimisations  :     0
 total energy-change (2. order) :-0.2317358E-05  (-0.9887636E-06)
 number of electron      16.0000004 magnetization 
 augmentation part        0.9697682 magnetization 

 Free energy of the ion-electron system (eV)
  ---------------------------------------------------
  alpha Z        PSCENC =         0.76043029
  Ewald energy   TEWEN  =       421.95445347
  -Hartree energ DENC   =     -1265.10528517
  -exchange      EXHF   =       213.68246686
  -V(xc)+E(xc)   XCENC  =         0.00000000
  PAW double counting   =      1224.24790600    -1222.98772821
  entropy T*S    EENTRO =        -0.00000000
  eigenvalues    EBANDS =      -381.14778570
  atomic energy  EATOM  =       960.27198670
  ---------------------------------------------------
  free energy    TOTEN  =       -48.32355576 eV

  energy without entropy =      -48.32355576  energy(sigma->0) =      -48.32355576
  exchange ACFDT corr.  =        -0.00000000  see jH, gK, PRB 81, 115126


--------------------------------------------------------------------------------------------------------




--------------------------------------- Iteration      1(  24)  ---------------------------------------


    POTLOK:  cpu time      0.1117: real time      0.1120
    SETDIJ:  cpu time      0.0420: real time      0.0421
    TRIAL :  cpu time      1.3459: real time      1.3506
    CORREC:  cpu time      1.4576: real time      1.4674
    EDDIAG:  cpu time      1.2938: real time      1.3074
    CHARGE:  cpu time      0.0398: real time      0.0399
    --------------------------------------------
      LOOP:  cpu time      4.2914: real time      4.3268

 eigenvalue-minimisations  :     0
 total energy-change (2. order) :-0.9864164E-06  (-0.3846868E-06)
 number of electron      16.0000004 magnetization 
 augmentation part        0.9697531 magnetization 

 Free energy of the ion-electron system (eV)
  ---------------------------------------------------
  alpha Z        PSCENC =         0.76043029
  Ewald energy   TEWEN  =       421.95445347
  -Hartree energ DENC   =     -1265.11070289
  -exchange      EXHF   =       213.68332905
  -V(xc)+E(xc)   XCENC  =         0.00000000
  PAW double counting   =      1224.26000794    -1222.99978787
  entropy T*S    EENTRO =        -0.00000000
  eigenvalues    EBANDS =      -381.14344424
  atomic energy  EATOM  =       960.27198670
  ---------------------------------------------------
  free energy    TOTEN  =       -48.32355674 eV

  energy without entropy =      -48.32355674  energy(sigma->0) =      -48.32355674
  exchange ACFDT corr.  =         0.00000000  see jH, gK, PRB 81, 115126


--------------------------------------------------------------------------------------------------------


  average scaling for gradient   1.0017


 average (electrostatic) potential at core
  the test charge radii are     0.6991  0.7215
  (the norm of the test charge is              1.0000)
       1 -48.1912       2 -56.1912       3 -56.0897
 
 
 
 E-fermi : -14.0169     XC(G=0):   0.0000     alpha+bet : -0.1783

 Fermi energy:       -14.0168780339

 k-point     1 :       0.0000    0.0000    0.0000
  band No.  band energies     occupation 
      1     -41.5802      2.00000
      2     -40.0454      2.00000
      3     -21.6318      2.00000
      4     -19.7663      2.00000
      5     -19.1475      2.00000
      6     -19.1313      2.00000
      7     -14.6369      2.00000
      8     -14.6326      2.00000
      9       0.1966      0.00000
     10       1.0106      0.00000
     11       1.0251      0.00000
     12       1.0423      0.00000
     13       1.0615      0.00000
     14       1.1357      0.00000
     15       1.1682      0.00000
     16       2.7408      0.00000
     17       2.7612      0.00000
     18       2.7883      0.00000
     19       2.8081      0.00000
     20       2.8133      0.00000
     21       2.8870      0.00000
     22       3.5170      0.00000
     23       3.5365      0.00000
     24       3.5443      0.00000
     25       3.5738      0.00000
     26       3.6019      0.00000
     27       3.6049      0.00000
     28       3.6402      0.00000
     29       3.6521      0.00000
     30       3.6710      0.00000
     31       3.6799      0.00000
     32       3.7926      0.00000
     33       3.8495      0.00000
     34       4.3743      0.00000
     35       4.4142      0.00000
     36       4.4647      0.00000
     37       4.4836      0.00000
     38       4.5562      0.00000
     39       4.7786      0.00000
     40       4.9912      0.00000


--------------------------------------------------------------------------------------------------------


 soft charge-density along one line, spin component           1
         0         1         2         3         4         5         6         7         8         9
 total charge-density along one line
 
 pseudopotential strength for first ion, spin component:           1
  9.576 -14.850  -0.000   0.000   0.000  -0.002   0.002  -0.001
-14.850  25.993   0.000  -0.000  -0.000   0.004  -0.003   0.000
 -0.000   0.000  -3.877  -0.003   0.004   0.499   0.011  -0.016
  0.000  -0.000  -0.003  -3.871  -0.010   0.011   0.476   0.038
  0.000  -0.000   0.004  -0.010  -3.864  -0.016   0.038   0.449
 -0.002   0.004   0.499   0.011  -0.016  49.131  -0.036   0.052
  0.002  -0.003   0.011   0.476   0.038  -0.036  49.203  -0.124
 -0.001   0.000  -0.016   0.038   0.449   0.052  -0.124  49.293
 total augmentation occupancy for first ion, spin component:           1
  1.728   0.050   0.002   0.004  -0.012   0.000   0.001  -0.002
  0.050   0.003   0.000   0.000  -0.001   0.000   0.000  -0.000
  0.002   0.000   0.905  -0.139   0.198   0.062  -0.016   0.022
  0.004   0.000  -0.139   1.180  -0.473  -0.016   0.093  -0.053
 -0.012  -0.001   0.198  -0.473   1.520   0.022  -0.053   0.131
  0.000   0.000   0.062  -0.016   0.022   0.004  -0.002   0.003
  0.001   0.000  -0.016   0.093  -0.053  -0.002   0.008  -0.006
 -0.002  -0.000   0.022  -0.053   0.131   0.003  -0.006   0.013


------------------------ aborting loop because EDIFF is reached ----------------------------------------


    FORLOC:  cpu time      0.0049: real time      0.0049
    FORHF :  cpu time      0.1288: real time      0.1295
    FORNL :  cpu time      0.0026: real time      0.0026
    OFIELD:  cpu time      0.0424: real time      0.0425

 VOLUME and BASIS-vectors are now :
 -----------------------------------------------------------------------------
  energy-cutoff  :      320.00
  volume of cell :     1403.01
      direct lattice vectors                 reciprocal lattice vectors
    15.439217752  0.004465832 -0.038376892     0.065085042  0.034326685  0.130688713
    -7.186282924 13.630928377 -0.001416099     0.000303919  0.073536393  0.130825479
    -7.182834812-11.890639092  6.700359279     0.000372844  0.000212151  0.150021909

  length of vectors
    15.439266094 15.409246337 15.423204220     0.149979744  0.150076646  0.150022522


 FORCES acting on ions:
    Electron-Ion                     Ewald-Force                    Non-Local-Force
 -----------------------------------------------------------------------------------------------
   -.580E+01 0.406E+01 -.814E+00   0.623E+01 -.373E+01 0.334E+00   -.167E+00 0.943E-01 -.585E-02
   0.225E+03 0.658E+02 -.148E+03   -.280E+03 -.810E+02 0.186E+03   0.332E+02 0.917E+01 -.229E+02
   -.220E+03 -.683E+02 0.148E+03   0.273E+03 0.848E+02 -.186E+03   -.323E+02 -.101E+02 0.233E+02
 -----------------------------------------------------------------------------------------------
   -.151E+01 0.151E+01 -.607E+00   0.000E+00 0.000E+00 0.000E+00   0.710E+00 -.791E+00 0.360E+00
 
 
 POSITION                                       TOTAL-FORCE (eV/Angst)
 -----------------------------------------------------------------------------------
     -3.78789     10.21382      1.45915         0.342808      0.386346     -0.482131
      2.45873     -3.68027      2.11187         2.554580      0.627252     -1.593062
     -2.85585     10.50088      0.79064        -2.897388     -1.013597      2.075193
 -----------------------------------------------------------------------------------
    total drift:                               -0.000487      0.000110      0.000190


--------------------------------------------------------------------------------------------------------



  FREE ENERGIE OF THE ION-ELECTRON SYSTEM (eV)
  ---------------------------------------------------
  free  energy   TOTEN  =       -48.32355674 eV

  energy  without entropy=      -48.32355674  energy(sigma->0) =      -48.32355674
 


--------------------------------------------------------------------------------------------------------


    POTLOK:  cpu time      0.1543: real time      0.1548


--------------------------------------------------------------------------------------------------------


 writing wavefunctions
     LOOP+:  cpu time     74.4261: real time     76.2133
    4ORBIT:  cpu time      0.0000: real time      0.0000

 total amount of memory used by VASP MPI-rank0   529782. kBytes
=======================================================================

   base      :      30000. kBytes
   nonl-proj :       1605. kBytes
   fftplans  :       8382. kBytes
   grid      :      38433. kBytes
   one-center:          4. kBytes
   HF        :          9. kBytes
   nonlr-proj:        172. kBytes
   wavefun   :        438. kBytes
   fock_wrk  :     450739. kBytes
 
  
  
 General timing and accounting informations for this job:
 ========================================================
  
                  Total CPU time used (sec):       82.391
                            User time (sec):       64.089
                          System time (sec):       18.303
                         Elapsed time (sec):       84.377
  
                   Maximum memory used (kb):     1323068.
                   Average memory used (kb):          N/A
  
                          Minor page faults:      1140298
                          Major page faults:            4
                 Voluntary context switches:         3085
