 vasp.6.3.2 27Jun22 (build Jul 28 2023 19:28:36) gamma-only                     
  
 executed on             LinuxIFC date 2024.06.14  08:36:42
 running on   40 total cores
 distrk:  each k-point on   40 cores,    1 groups
 distr:  one band on NCORE=   1 cores,   40 groups


--------------------------------------------------------------------------------------------------------


 INCAR:
   SYSTEM = MOF
   ISTART = 0
   ICHARG = 2
   ISMEAR = 0
   SIGMA = 0.1
   ENCUT = 1000.0
   PREC = Accurate
   GGA = ML
   AGGAC = 0.0
   LUSE_VDW = .TRUE.
   ZAB_VDW = -1.8867
   LASPH = .TRUE.
   LUSE_VDW = .TRUE.
   EDIFF = 1E-7
   NELM = 500
   IBRION = -1
   NSW = 0
   ALGO = All
   TIME = 0.05
   LREAL = Auto
   LWAVE = .TRUE.
   LCHARG = .TRUE.
   NWRITE = 1

 POTCAR:    PAW_PBE C 08Apr2002                   
 POTCAR:    PAW_PBE H 15Jun2001                   
 POTCAR:    PAW_PBE O 08Apr2002                   
 POTCAR:    PAW_PBE Mg 13Apr2007                  
 -----------------------------------------------------------------------------
|                                                                             |
|           W    W    AA    RRRRR   N    N  II  N    N   GGGG   !!!           |
|           W    W   A  A   R    R  NN   N  II  NN   N  G    G  !!!           |
|           W    W  A    A  R    R  N N  N  II  N N  N  G       !!!           |
|           W WW W  AAAAAA  RRRRR   N  N N  II  N  N N  G  GGG   !            |
|           WW  WW  A    A  R   R   N   NN  II  N   NN  G    G                |
|           W    W  A    A  R    R  N    N  II  N    N   GGGG   !!!           |
|                                                                             |
|     For optimal performance we recommend to set                             |
|       NCORE = 2 up to number-of-cores-per-socket                            |
|     NCORE specifies how many cores store one orbital (NPAR=cpu/NCORE).      |
|     This setting can greatly improve the performance of VASP for DFT.       |
|     The default, NCORE=1 might be grossly inefficient on modern             |
|     multi-core architectures or massively parallel machines. Do your        |
|     own testing! More info at https://www.vasp.at/wiki/index.php/NCORE      |
|     Unfortunately you need to use the default for GW and RPA                |
|     calculations (for HF NCORE is supported but not extensively tested      |
|     yet).                                                                   |
|                                                                             |
 -----------------------------------------------------------------------------

 -----------------------------------------------------------------------------
|                                                                             |
|               ----> ADVICE to this user running VASP <----                  |
|                                                                             |
|     You have switched on vdW-DFT.                                           |
|     This routine was written and supplied by Jiri Klimes. We recommend      |
|     that you carefully read and cite the following publications:            |
|       J. Klimes, D.R. Bowler, A. Michelides                                 |
|          J. Phys.: Cond Matt. 22 022201 (2010)                              |
|       J. Klimes, D.R. Bowler, A. Michelides                                 |
|          Phys. Rev. B. 83, 195131 (2011)                                    |
|     and references therein.                                                 |
|                                                                             |
 -----------------------------------------------------------------------------

 POTCAR:    PAW_PBE C 08Apr2002                   
  local pseudopotential read in
  partial core-charges read in
  partial kinetic energy density read in
  atomic valenz-charges read in
  non local Contribution for L=           0  read in
    real space projection operators read in
  non local Contribution for L=           0  read in
    real space projection operators read in
  non local Contribution for L=           1  read in
    real space projection operators read in
  non local Contribution for L=           1  read in
    real space projection operators read in
    PAW grid and wavefunctions read in
 
   number of l-projection  operators is LMAX  =           4
   number of lm-projection operators is LMMAX =           8
 
 POTCAR:    PAW_PBE H 15Jun2001                   
  local pseudopotential read in
  atomic valenz-charges read in
  non local Contribution for L=           0  read in
    real space projection operators read in
  non local Contribution for L=           0  read in
    real space projection operators read in
  non local Contribution for L=           1  read in
    real space projection operators read in
    PAW grid and wavefunctions read in
 
   number of l-projection  operators is LMAX  =           3
   number of lm-projection operators is LMMAX =           5
 
 POTCAR:    PAW_PBE O 08Apr2002                   
  local pseudopotential read in
  partial core-charges read in
  partial kinetic energy density read in
  kinetic energy density of atom read in
  atomic valenz-charges read in
  non local Contribution for L=           0  read in
    real space projection operators read in
  non local Contribution for L=           0  read in
    real space projection operators read in
  non local Contribution for L=           1  read in
    real space projection operators read in
  non local Contribution for L=           1  read in
    real space projection operators read in
    PAW grid and wavefunctions read in
 
   number of l-projection  operators is LMAX  =           4
   number of lm-projection operators is LMMAX =           8
 
 POTCAR:    PAW_PBE Mg 13Apr2007                  
  local pseudopotential read in
  partial core-charges read in
  partial kinetic energy density read in
  atomic valenz-charges read in
  non local Contribution for L=           0  read in
    real space projection operators read in
  non local Contribution for L=           0  read in
    real space projection operators read in
  non local Contribution for L=           1  read in
    real space projection operators read in
  non local Contribution for L=           1  read in
    real space projection operators read in
  non local Contribution for L=           2  read in
    real space projection operators read in
    PAW grid and wavefunctions read in
 
   number of l-projection  operators is LMAX  =           5
   number of lm-projection operators is LMMAX =          13
 
 Optimization of the real space projectors (new method)

 maximal supplied QI-value         = 25.13
 optimisation between [QCUT,QGAM] = [ 16.09, 32.17] = [ 72.45,289.82] Ry 
 Optimized for a Real-space Cutoff    0.98 Angstroem

   l    n(q)    QCUT    max X(q) W(low)/X(q) W(high)/X(q)  e(spline) 
   0      9    16.085   115.676    0.97E-04    0.82E-04    0.14E-06
   0      9    16.085    87.132    0.96E-04    0.82E-04    0.14E-06
   1      9    16.085     4.429    0.14E-03    0.12E-03    0.10E-06
   1      9    16.085     2.733    0.11E-03    0.89E-04    0.96E-07
 Optimization of the real space projectors (new method)

 maximal supplied QI-value         = 34.20
 optimisation between [QCUT,QGAM] = [ 16.08, 32.15] = [ 72.37,289.48] Ry 
 Optimized for a Real-space Cutoff    0.90 Angstroem

   l    n(q)    QCUT    max X(q) W(low)/X(q) W(high)/X(q)  e(spline) 
   0      9    16.076    19.460    0.59E-04    0.17E-03    0.11E-06
   0      9    16.076    12.209    0.53E-04    0.16E-03    0.11E-06
   1      8    16.076     4.655    0.15E-03    0.16E-03    0.15E-06
 Optimization of the real space projectors (new method)

 maximal supplied QI-value         = 24.76
 optimisation between [QCUT,QGAM] = [ 16.09, 32.18] = [ 72.51,290.02] Ry 
 Optimized for a Real-space Cutoff    0.95 Angstroem

   l    n(q)    QCUT    max X(q) W(low)/X(q) W(high)/X(q)  e(spline) 
   0      9    16.091    20.381    0.21E-03    0.16E-03    0.13E-06
   0      9    16.091    15.268    0.23E-03    0.17E-03    0.14E-06
   1      9    16.091     5.964    0.15E-03    0.23E-03    0.12E-06
   1      9    16.091     5.382    0.12E-03    0.19E-03    0.11E-06
 Optimization of the real space projectors (new method)

 maximal supplied QI-value         = 18.90
 optimisation between [QCUT,QGAM] = [ 16.06, 32.31] = [ 72.25,292.41] Ry 
 Optimized for a Real-space Cutoff    1.14 Angstroem

   l    n(q)    QCUT    max X(q) W(low)/X(q) W(high)/X(q)  e(spline) 
   0     11    16.063    28.265    0.53E-04    0.32E-04    0.26E-06
   0     11    16.063    10.429    0.41E-04    0.26E-04    0.19E-06
   1     11    16.063    13.073    0.29E-04    0.84E-04    0.50E-06
   1     11    16.063     9.625    0.26E-04    0.67E-04    0.41E-06
   2     10    16.063     4.652    0.36E-04    0.11E-03    0.12E-06
 -----------------------------------------------------------------------------
|                                                                             |
|               ----> ADVICE to this user running VASP <----                  |
|                                                                             |
|     You enforced a specific xc type in the INCAR file but a different       |
|     type was found in the POTCAR file.                                      |
|     I HOPE YOU KNOW WHAT YOU ARE DOING!                                     |
|                                                                             |
 -----------------------------------------------------------------------------

  PAW_PBE C 08Apr2002                   :
 energy of atom  1       EATOM= -147.1560
 kinetic energy error for atom=    0.0010 (will be added to EATOM!!)
  PAW_PBE H 15Jun2001                   :
 energy of atom  2       EATOM=  -12.4884
 kinetic energy error for atom=    0.0001 (will be added to EATOM!!)
  PAW_PBE O 08Apr2002                   :
 energy of atom  3       EATOM= -432.3788
 kinetic energy error for atom=    0.0022 (will be added to EATOM!!)
  PAW_PBE Mg 13Apr2007                  :
 energy of atom  4       EATOM=  -23.0369
 kinetic energy error for atom=    0.0000 (will be added to EATOM!!)
 
 
 POSCAR:  C  H  O Mg
  positions in direct lattice
  No initial velocities read in
 exchange correlation table for  LEXCH =       44
   RHO(1)=    0.500       N(1)  =     2000
   RHO(2)=  100.500       N(2)  =     4000
 


--------------------------------------------------------------------------------------------------------


 ion  position               nearest neighbor table
   1  0.742  0.349  0.176-  32 1.27  31 1.29   2 1.49
   2  0.615  0.166  0.079-  16 1.40   3 1.43   1 1.49
   3  0.432  0.967  0.866-  33 1.35   4 1.40   2 1.43
   4  0.323  0.808  0.795-  25 1.09   3 1.40  14 1.40
   5  0.176  0.742  0.349-  35 1.27  34 1.29   6 1.49
   6  0.079  0.615  0.166-  20 1.40   7 1.43   5 1.49
   7  0.866  0.432  0.967-  36 1.35   8 1.40   6 1.43
   8  0.795  0.323  0.808-  26 1.09   7 1.40  18 1.40
   9  0.349  0.176  0.742-  38 1.27  37 1.29  10 1.49
  10  0.166  0.079  0.615-  24 1.40  11 1.43   9 1.49
  11  0.967  0.866  0.432-  39 1.35  12 1.40  10 1.43
  12  0.808  0.795  0.323-  27 1.09  11 1.40  22 1.40
  13  0.258  0.651  0.824-  41 1.27  40 1.29  14 1.49
  14  0.385  0.834  0.921-   4 1.40  15 1.43  13 1.49
  15  0.568  0.033  0.134-  42 1.35  16 1.40  14 1.43
  16  0.677  0.193  0.205-  28 1.09  15 1.40   2 1.40
  17  0.824  0.258  0.651-  44 1.27  43 1.29  18 1.49
  18  0.921  0.385  0.834-   8 1.40  19 1.43  17 1.49
  19  0.134  0.568  0.033-  45 1.35  20 1.40  18 1.43
  20  0.205  0.677  0.192-  29 1.09  19 1.40   6 1.40
  21  0.651  0.824  0.258-  47 1.27  46 1.29  22 1.49
  22  0.834  0.921  0.385-  12 1.40  23 1.43  21 1.49
  23  0.033  0.134  0.568-  48 1.35  24 1.40  22 1.43
  24  0.192  0.205  0.677-  30 1.09  23 1.40  10 1.40
  25  0.184  0.655  0.634-   4 1.09
  26  0.634  0.184  0.655-   8 1.09
  27  0.655  0.634  0.184-  12 1.09
  28  0.816  0.345  0.366-  16 1.09
  29  0.366  0.816  0.345-  20 1.09
  30  0.345  0.366  0.816-  24 1.09
  31  0.690  0.327  0.062-   1 1.29  50 2.02  49 2.08
  32  0.897  0.522  0.364-   1 1.27  51 2.04
  33  0.360  0.927  0.734-   3 1.35  51 2.02  49 2.04
  34  0.062  0.690  0.327-   5 1.29  51 2.02  50 2.08
  35  0.364  0.897  0.522-   5 1.27  49 2.04
  36  0.734  0.360  0.927-   7 1.35  49 2.02  50 2.04
  37  0.327  0.062  0.690-   9 1.29  49 2.02  51 2.08
  38  0.522  0.364  0.897-   9 1.27  50 2.04
  39  0.927  0.734  0.360-  11 1.35  50 2.02  51 2.04
  40  0.310  0.673  0.938-  13 1.29  53 2.02  52 2.08
  41  0.103  0.478  0.636-  13 1.27  54 2.04
  42  0.640  0.073  0.266-  15 1.35  54 2.02  52 2.04
  43  0.938  0.310  0.673-  17 1.29  54 2.02  53 2.08
  44  0.637  0.103  0.478-  17 1.27  52 2.04
  45  0.266  0.640  0.073-  19 1.35  52 2.02  53 2.04
  46  0.673  0.938  0.310-  21 1.29  52 2.02  54 2.08
  47  0.478  0.636  0.103-  21 1.27  53 2.04
  48  0.073  0.266  0.640-  23 1.35  53 2.02  54 2.04
  49  0.514  0.109  0.782-  37 2.02  36 2.02  33 2.04  35 2.04  31 2.08  50 2.94  51 2.94
  50  0.782  0.514  0.108-  31 2.02  39 2.02  36 2.04  38 2.04  34 2.08  49 2.94  51 2.94
  51  0.108  0.782  0.514-  34 2.02  33 2.02  39 2.04  32 2.04  37 2.08  49 2.94  50 2.94
  52  0.486  0.892  0.218-  46 2.02  45 2.02  42 2.04  44 2.04  40 2.08  54 2.94  53 2.94
  53  0.218  0.486  0.892-  40 2.02  48 2.02  45 2.04  47 2.04  43 2.08  54 2.94  52 2.94
  54  0.892  0.218  0.486-  43 2.02  42 2.02  48 2.04  41 2.04  46 2.08  52 2.94  53 2.94
 
  LATTYP: Found a trigonal (rhomboedric) cell.
 ALAT       =    15.2580629150
 COS(alpha) =    -0.4652854440
  
  Lattice vectors:
  
 A1 = (  15.2580133847,   0.0063748139,   0.0245793813)
 A2 = (  -7.1051429847,  13.5027912564,   0.0244990776)
 A3 = (  -7.1050972695, -11.7730711972,   6.6121759879)


Analysis of symmetry for initial positions (statically):
=====================================================================
 Subroutine PRICEL returns:
 Original cell was already a primitive cell.
 

 Routine SETGRP: Setting up the symmetry group for a 
 trigonal (rhombohedral) supercell.


 Subroutine GETGRP returns: Found  1 space group operations
 (whereof  1 operations were pure point group operations)
 out of a pool of 12 trial point group operations.


The static configuration has the point symmetry C_1 .


Analysis of symmetry for dynamics (positions and initial velocities):
=====================================================================
 Subroutine PRICEL returns:
 Original cell was already a primitive cell.
 

 Routine SETGRP: Setting up the symmetry group for a 
 trigonal (rhombohedral) supercell.


 Subroutine GETGRP returns: Found  1 space group operations
 (whereof  1 operations were pure point group operations)
 out of a pool of 12 trial point group operations.


The dynamic configuration has the point symmetry C_1 .


 Subroutine INISYM returns: Found  1 space group operations
 (whereof  1 operations are pure point group operations),
 and found     1 'primitive' translations


----------------------------------------------------------------------------------------

                                     Primitive cell                                     

  volume of cell :    1371.3921

  direct lattice vectors                    reciprocal lattice vectors
    15.258013385  0.006374814  0.024579381     0.065314117  0.034130566  0.130953070
    -7.105142985 13.502791256  0.024499078    -0.000241744  0.073693958  0.130953351
    -7.105097270-11.773071197  6.612175988    -0.000241896 -0.000399920  0.150264152

  length of vectors
    15.258034514 15.258080769 15.258062915     0.150264886  0.150265226  0.150264879

  position of ions in fractional coordinates (direct lattice)
     0.742014629  0.348856862  0.175631722
     0.614737524  0.165760157  0.079266010
     0.431866833  0.967146544  0.866357394
     0.323426239  0.807528718  0.795039545
     0.175643119  0.742030584  0.348836056
     0.079288672  0.614759186  0.165750997
     0.866378386  0.431887658  0.967136793
     0.795050085  0.323434695  0.807507662
     0.348844082  0.175654491  0.742009552
     0.165757245  0.079294396  0.614737504
     0.967146759  0.866386509  0.431869766
     0.807527866  0.795064117  0.323426635
     0.257997242  0.651177639  0.824359558
     0.385278725  0.834271091  0.920721278
     0.568151099  0.032884201  0.133630597
     0.676588120  0.192500595  0.204950051
     0.824378159  0.258021185  0.651163243
     0.920727875  0.385284889  0.834247949
     0.133651182  0.568172843  0.032877126
     0.204967516  0.676607365  0.192491024
     0.651166334  0.824380287  0.257996396
     0.834264817  0.920745497  0.385273715
     0.032884585  0.133658688  0.568147370
     0.192498695  0.204973580  0.676584145
     0.184346186  0.655111609  0.633967985
     0.633990768  0.184365023  0.655100302
     0.655100725  0.633992740  0.184340173
     0.815660221  0.344921385  0.366012712
     0.366025548  0.815668040  0.344893598
     0.344905088  0.366036147  0.815648698
     0.690035352  0.327096246  0.062389255
     0.897468252  0.521719207  0.363522843
     0.359899457  0.926825036  0.733650689
     0.062416671  0.690061449  0.327089376
     0.363540124  0.897494510  0.521700504
     0.733667396  0.359921155  0.926810583
     0.327098709  0.062430124  0.690049476
     0.521703281  0.363537920  0.897455141
     0.926814389  0.733676598  0.359892517
     0.309969235  0.672930044  0.937593791
     0.102540517  0.478317794  0.636472783
     0.640118158  0.073204996  0.266331859
     0.937620652  0.309979890  0.672925434
     0.636500080  0.102595403  0.478308979
     0.266360937  0.640148723  0.073196549
     0.672927425  0.937623414  0.309972911
     0.478307570  0.636484145  0.102544947
     0.073202609  0.266366054  0.640108405
     0.514132669  0.108518374  0.782412062
     0.782415681  0.514143460  0.108492112
     0.108499851  0.782421723  0.514119197
     0.485895590  0.891540695  0.217600628
     0.217613719  0.485909109  0.891517919
     0.891519652  0.217610760  0.485881812

  ion indices of the primitive-cell ions
   primitive index   ion index
                 1           1
                 2           2
                 3           3
                 4           4
                 5           5
                 6           6
                 7           7
                 8           8
                 9           9
                10          10
                11          11
                12          12
                13          13
                14          14
                15          15
                16          16
                17          17
                18          18
                19          19
                20          20
                21          21
                22          22
                23          23
                24          24
                25          25
                26          26
                27          27
                28          28
                29          29
                30          30
                31          31
                32          32
                33          33
                34          34
                35          35
                36          36
                37          37
                38          38
                39          39
                40          40
                41          41
                42          42
                43          43
                44          44
                45          45
                46          46
                47          47
                48          48
                49          49
                50          50
                51          51
                52          52
                53          53
                54          54

----------------------------------------------------------------------------------------

 
 
 KPOINTS: KPOINTS                                 

Automatic generation of k-mesh.
 Grid dimensions read from file:
 generate k-points for:    1    1    1

 Generating k-lattice:

  Cartesian coordinates                     Fractional coordinates (reciprocal lattice)
     0.065314117  0.034130566  0.130953070     1.000000000  0.000000000  0.000000000
    -0.000241744  0.073693958  0.130953351     0.000000000  1.000000000  0.000000000
    -0.000241896 -0.000399920  0.150264152     0.000000000 -0.000000000  1.000000000

  Length of vectors
     0.150264886  0.150265226  0.150264879

  Shift w.r.t. Gamma in fractional coordinates (k-lattice)
     0.000000000  0.000000000  0.000000000

 
 Subroutine IBZKPT returns following result:
 ===========================================
 
 Found      1 irreducible k-points:
 
 Following reciprocal coordinates:
            Coordinates               Weight
  0.000000  0.000000  0.000000      1.000000
 
 Following cartesian coordinates:
            Coordinates               Weight
  0.000000  0.000000  0.000000      1.000000
 


--------------------------------------------------------------------------------------------------------




 Dimension of arrays:
   k-points           NKPTS =      1   k-points in BZ     NKDIM =      1   number of bands    NBANDS=    160
   number of dos      NEDOS =    301   number of ions     NIONS =     54
   non local maximal  LDIM  =      5   non local SUM 2l+1 LMDIM =     13
   total plane-waves  NPLWV = ******
   max r-space proj   IRMAX =  18547   max aug-charges    IRDMAX= 127061
   dimension x,y,z NGX =   160 NGY =  160 NGZ =  160
   dimension x,y,z NGXF=   320 NGYF=  320 NGZF=  320
   support grid    NGXF=   320 NGYF=  320 NGZF=  320
   ions per type =              24   6  18   6
   NGX,Y,Z   is equivalent  to a cutoff of  17.43, 17.43, 17.43 a.u.
   NGXF,Y,Z  is equivalent  to a cutoff of  34.87, 34.87, 34.87 a.u.

 SYSTEM =  MOF                                     
 POSCAR =   C  H  O Mg                             

 Startparameter for this run:
   NWRITE =      1    write-flag & timer
   PREC   = accura    normal or accurate (medium, high low for compatibility)
   ISTART =      0    job   : 0-new  1-cont  2-samecut
   ICHARG =      2    charge: 1-file 2-atom 10-const
   ISPIN  =      1    spin polarized calculation?
   LNONCOLLINEAR =      F non collinear calculations
   LSORBIT =      F    spin-orbit coupling
   INIWAV =      1    electr: 0-lowe 1-rand  2-diag
   LASPH  =      T    aspherical Exc in radial PAW
 Electronic Relaxation 1
   ENCUT  = 1000.0 eV  73.50 Ry    8.57 a.u.  39.34 39.34 39.34*2*pi/ulx,y,z
   ENINI  = 1000.0     initial cutoff
   ENAUG  =  644.9 eV  augmentation charge cutoff
   NELM   =    500;   NELMIN=  2; NELMDL= -5     # of ELM steps 
   EDIFF  = 0.1E-06   stopping-criterion for ELM
   LREAL  =      T    real-space projection
   NLSPLINE    = F    spline interpolate recip. space projectors
   LCOMPAT=      F    compatible to vasp.4.4
   GGA_COMPAT  = T    GGA compatible to vasp.4.4-vasp.4.6
   LMAXPAW     = -100 max onsite density
   LMAXMIX     =    2 max onsite mixed and CHGCAR
   VOSKOWN=      0    Vosko Wilk Nusair interpolation
   ROPT   =   -0.00025  -0.00025  -0.00025  -0.00025
 Ionic relaxation
   EDIFFG = 0.1E-05   stopping-criterion for IOM
   NSW    =      0    number of steps for IOM
   NBLOCK =      1;   KBLOCK =      1    inner block; outer block 
   IBRION =     -1    ionic relax: 0-MD 1-quasi-New 2-CG
   NFREE  =      0    steps in history (QN), initial steepest desc. (CG)
   ISIF   =      2    stress and relaxation
   IWAVPR =     10    prediction:  0-non 1-charg 2-wave 3-comb
   ISYM   =      2    0-nonsym 1-usesym 2-fastsym
   LCORR  =      T    Harris-Foulkes like correction to forces

   POTIM  = 0.5000    time-step for ionic-motion
   TEIN   =    0.0    initial temperature
   TEBEG  =    0.0;   TEEND  =   0.0 temperature during run
   SMASS  =  -3.00    Nose mass-parameter (am)
   estimated Nose-frequenzy (Omega)   =  0.10E-29 period in steps = 0.13E+47 mass=  -0.532E-26a.u.
   SCALEE = 1.0000    scale energy and forces
   NPACO  =    256;   APACO  = 10.0  distance and # of slots for P.C.
   PSTRESS=    0.0 pullay stress

  Mass of Ions in am
   POMASS =  12.01  1.00 16.00 24.30
  Ionic Valenz
   ZVAL   =   4.00  1.00  6.00  2.00
  Atomic Wigner-Seitz radii
   RWIGS  =  -1.00 -1.00 -1.00 -1.00
  virtual crystal weights 
   VCA    =   1.00  1.00  1.00  1.00
   NELECT =     222.0000    total number of electrons
   NUPDOWN=      -1.0000    fix difference up-down

 DOS related values:
   EMIN   =  10.00;   EMAX   =-10.00  energy-range for DOS
   EFERMI =   0.00
   ISMEAR =     0;   SIGMA  =   0.10  broadening in eV -4-tet -1-fermi 0-gaus

 Electronic relaxation 2 (details)
   IALGO  =     58    algorithm
   LDIAG  =      T    sub-space diagonalisation (order eigenvalues)
   LSUBROT=      F    optimize rotation matrix (better conditioning)
   TURBO    =      0    0=normal 1=particle mesh
   IRESTART =      0    0=no restart 2=restart with 2 vectors
   NREBOOT  =      0    no. of reboots
   NMIN     =      0    reboot dimension
   EREF     =   0.00    reference energy to select bands
   IMIX   =      4    mixing-type and parameters
     AMIX     =   0.40;   BMIX     =  1.00
     AMIX_MAG =   1.60;   BMIX_MAG =  1.00
     AMIN     =   0.10
     WC   =   100.;   INIMIX=   1;  MIXPRE=   1;  MAXMIX= -45

 Intra band minimization:
   WEIMIN = 0.0000     energy-eigenvalue tresh-hold
   EBREAK =  0.16E-09  absolut break condition
   DEPER  =   0.30     relativ break condition  

   TIME   =   0.05     timestep for ELM

  volume/ion in A,a.u.               =      25.40       171.38
  Fermi-wavevector in a.u.,A,eV,Ry     =   0.892220  1.686051 10.831006  0.796057
  Thomas-Fermi vector in A             =   2.014141
 
 Write flags
   LWAVE        =      T    write WAVECAR
   LDOWNSAMPLE  =      F    k-point downsampling of WAVECAR
   LCHARG       =      T    write CHGCAR
   LVTOT        =      F    write LOCPOT, total local potential
   LVHAR        =      F    write LOCPOT, Hartree potential only
   LELF         =      F    write electronic localiz. function (ELF)
   LORBIT       =      0    0 simple, 1 ext, 2 COOP (PROOUT), +10 PAW based schemes


 Dipole corrections
   LMONO  =      F    monopole corrections only (constant potential shift)
   LDIPOL =      F    correct potential (dipole corrections)
   IDIPOL =      0    1-x, 2-y, 3-z, 4-all directions 
   EPSILON=  1.0000000 bulk dielectric constant

 Exchange correlation treatment:
   GGA     =    ML    GGA type
   LEXCH   =    44    internal setting for exchange type
   LIBXC   =     F    Libxc                    
   VOSKOWN =     0    Vosko Wilk Nusair interpolation
   LHFCALC =     F    Hartree Fock is set to
   LHFONE  =     F    Hartree Fock one center treatment
   AEXX    =    0.0000 exact exchange contribution

 vdW DFT:
   LUSE_VDW   =     T    switch on vdW DFT
   Zab_VDW    =******    correlation parameter
   PARAM1     =0.1234
   PARAM2     =1.0000
   PARAM3     =0.0000
   -- rVV10 --
   BPARAM     = 6.3000
   CPARAM     = 0.0093

 Linear response parameters
   LEPSILON=     F    determine dielectric tensor
   LRPA    =     F    only Hartree local field effects (RPA)
   LNABLA  =     F    use nabla operator in PAW spheres
   LVEL    =     F    velocity operator in full k-point grid
   CSHIFT  =0.1000    complex shift for real part using Kramers Kronig
   OMEGAMAX=  -1.0    maximum frequency
   DEG_THRESHOLD= 0.2000000E-02 threshold for treating states as degnerate
   RTIME   =   -0.100 relaxation time in fs
  (WPLASMAI=    0.000 imaginary part of plasma frequency in eV, 0.658/RTIME)
   DFIELD  = 0.0000000 0.0000000 0.0000000 field for delta impulse in time
 
  Optional k-point grid parameters
   LKPOINTS_OPT  =     F    use optional k-point grid
   KPOINTS_OPT_MODE=     1    mode for optional k-point grid
 
 Orbital magnetization related:
   ORBITALMAG=     F  switch on orbital magnetization
   LCHIMAG   =     F  perturbation theory with respect to B field
   DQ        =  0.001000  dq finite difference perturbation B field
   LLRAUG    =     F  two centre corrections for induced B field



--------------------------------------------------------------------------------------------------------


 Static calculation
 charge density and potential will be updated during run
 non-spin polarized calculation
 Conjugate gradient for all bands (Freysoldt, et al. PRB 79, 241103 (2009))
 preconditioned conjugated gradient                                        
 perform sub-space diagonalisation
    before iterative eigenvector-optimisation
 modified Broyden-mixing scheme, WC =      100.0
 initial mixing is a Kerker type mixing with AMIX =  0.4000 and BMIX =      1.0000
 Hartree-type preconditioning will be used
 using additional bands           49
 real space projection scheme for non local part
 use partial core corrections
 no Harris-corrections to forces 
 use gradient corrections 
 use of overlap-Matrix (Vanderbilt PP)
 Gauss-broadening in eV      SIGMA  =   0.10


--------------------------------------------------------------------------------------------------------


  energy-cutoff  :     1000.00
  volume of cell :     1371.39
      direct lattice vectors                 reciprocal lattice vectors
    15.258013385  0.006374814  0.024579381     0.065314117  0.034130566  0.130953070
    -7.105142985 13.502791256  0.024499078    -0.000241744  0.073693958  0.130953351
    -7.105097270-11.773071197  6.612175988    -0.000241896 -0.000399920  0.150264152

  length of vectors
    15.258034514 15.258080769 15.258062915     0.150264886  0.150265226  0.150264879


 
 k-points in units of 2pi/SCALE and weight: KPOINTS                                 
   0.00000000  0.00000000  0.00000000       1.000
 
 k-points in reciprocal lattice and weights: KPOINTS                                 
   0.00000000  0.00000000  0.00000000       1.000
 
 position of ions in fractional coordinates (direct lattice) 
   0.74201463  0.34885686  0.17563172
   0.61473752  0.16576016  0.07926601
   0.43186683  0.96714654  0.86635739
   0.32342624  0.80752872  0.79503954
   0.17564312  0.74203058  0.34883606
   0.07928867  0.61475919  0.16575100
   0.86637839  0.43188766  0.96713679
   0.79505009  0.32343470  0.80750766
   0.34884408  0.17565449  0.74200955
   0.16575725  0.07929440  0.61473750
   0.96714676  0.86638651  0.43186977
   0.80752787  0.79506412  0.32342664
   0.25799724  0.65117764  0.82435956
   0.38527872  0.83427109  0.92072128
   0.56815110  0.03288420  0.13363060
   0.67658812  0.19250060  0.20495005
   0.82437816  0.25802118  0.65116324
   0.92072788  0.38528489  0.83424795
   0.13365118  0.56817284  0.03287713
   0.20496752  0.67660737  0.19249102
   0.65116633  0.82438029  0.25799640
   0.83426482  0.92074550  0.38527371
   0.03288459  0.13365869  0.56814737
   0.19249870  0.20497358  0.67658414
   0.18434619  0.65511161  0.63396798
   0.63399077  0.18436502  0.65510030
   0.65510072  0.63399274  0.18434017
   0.81566022  0.34492138  0.36601271
   0.36602555  0.81566804  0.34489360
   0.34490509  0.36603615  0.81564870
   0.69003535  0.32709625  0.06238926
   0.89746825  0.52171921  0.36352284
   0.35989946  0.92682504  0.73365069
   0.06241667  0.69006145  0.32708938
   0.36354012  0.89749451  0.52170050
   0.73366740  0.35992116  0.92681058
   0.32709871  0.06243012  0.69004948
   0.52170328  0.36353792  0.89745514
   0.92681439  0.73367660  0.35989252
   0.30996923  0.67293004  0.93759379
   0.10254052  0.47831779  0.63647278
   0.64011816  0.07320500  0.26633186
   0.93762065  0.30997989  0.67292543
   0.63650008  0.10259540  0.47830898
   0.26636094  0.64014872  0.07319655
   0.67292743  0.93762341  0.30997291
   0.47830757  0.63648415  0.10254495
   0.07320261  0.26636605  0.64010841
   0.51413267  0.10851837  0.78241206
   0.78241568  0.51414346  0.10849211
   0.10849985  0.78242172  0.51411920
   0.48589559  0.89154069  0.21760063
   0.21761372  0.48590911  0.89151792
   0.89151965  0.21761076  0.48588181
 
 position of ions in cartesian coordinates  (Angst):
   7.59511078  2.64754683  1.18809279
   7.63873105  1.30893925  0.54329165
  -6.43783813  2.86224369  5.76281678
  -6.45159843  1.54589633  5.28467471
  -5.07078245  5.91373205  2.32906165
  -4.33584125  6.35007213  1.11298466
   3.27898846 -5.54895842  6.42675457
   4.09541460 -5.13450572  5.36684846
  -1.19743264 -6.36168155  4.91917549
  -2.40204151 -6.16559605  4.07076941
   5.53246148  6.62036805  2.90059644
   4.37424905  6.93300785  2.17788070
  -6.54733970 -0.91088336  5.47310514
  -6.59084169  0.42772732  6.11787991
   7.48575173 -1.12559217  0.89835946
   7.49945629  0.19071693  1.37651201
   6.11851738 -4.17692977  4.33218995
   5.38356119 -4.61336960  5.54826430
  -2.23129294  7.28570654  0.23459412
  -3.04766241  6.87118412  1.29439876
   2.24507534  8.09817606  1.74211940
   3.44978811  7.90209766  2.59056074
  -4.48465298 -4.88386445  3.76077320
  -3.32641508 -5.19653070  4.48344660
  -6.34630927  1.38326026  4.21248863
   3.70894842 -5.21905851  4.35173836
   4.18117170  6.39459778  1.25052387
   7.39408289  0.35350742  2.44863915
  -2.66111790  6.95567174  2.30947696
  -3.13343604 -4.65798180  5.41065783
   7.76122131  3.68659803  0.43750293
   7.40382788  2.77060643  2.43851787
  -6.30653318  3.87969749  4.88257993
  -6.27463269  5.46730709  2.18121255
  -4.53665957  5.97898135  3.48049893
   2.05193633 -6.04678976  6.15508551
  -0.35556713 -7.27893549  4.57229794
  -0.99933933 -5.65370086  5.95586082
   6.37139789  5.67555000  2.42042758
  -6.71344453 -1.94994854  6.22364017
  -6.35615277 -1.03396038  4.22270878
   7.35448569 -2.14299152  1.77856029
   7.32257635 -3.73082814  4.48014175
   5.58433991 -4.24178379  3.18082142
  -1.00427807  7.78374439  0.50621851
   1.40319956  9.01548987  2.08910649
   2.04712062  7.39009271  0.70539501
  -5.32367499 -3.93888995  4.24083442
   1.51449077 -7.74281446  5.18874191
   7.51419913  5.67007421  0.74919627
  -7.55659294  4.51280695  3.42128208
  -0.46679633  9.47955771  1.47259858
  -6.46642219 -3.93338742  5.91212651
   8.60442569 -2.77628522  3.23998031
 


--------------------------------------------------------------------------------------------------------


 use serial FFT for orbitals x direction half grid
 k-point   1 :   0.0000 0.0000 0.0000  plane waves:   49218

 maximum and minimum number of plane-waves per node :     49218    49218

 maximum number of plane-waves:     49218
 maximum index in each direction: 
   IXMAX=   39   IYMAX=   34   IZMAX=   34
   IXMIN=    0   IYMIN=  -39   IZMIN=  -39


 serial   3D FFT for wavefunctions
 parallel 3D FFT for charge:
    minimum data exchange during FFTs selected (reduces bandwidth)


 total amount of memory used by VASP MPI-rank0   354938. kBytes
=======================================================================

   base      :      30000. kBytes
   nonlr-proj:      47485. kBytes
   fftplans  :      44218. kBytes
   grid      :     223518. kBytes
   one-center:        219. kBytes
   wavefun   :       9498. kBytes
 
     INWAV:  cpu time      0.0003: real time      0.0006
 Broyden mixing: mesh for mixing (old mesh)
   NGX = 79   NGY = 79   NGZ = 79
  (NGX  =320   NGY  =320   NGZ  =320)
  gives a total of 493039 points

 initial charge density was supplied:
 charge density of overlapping atoms calculated
 number of electron     222.0000000 magnetization 
 keeping initial charge density in first step


--------------------------------------------------------------------------------------------------------


 Maximum index for non-local projection operator        17929
 Maximum index for augmentation-charges         3172 (set IRDMAX)


--------------------------------------------------------------------------------------------------------


 First call to EWALD:  gamma=   0.160
 Maximum number of real-space cells 4x 4x 4
 Maximum number of reciprocal cells 4x 4x 4

    FEWALD:  cpu time      0.0030: real time      0.0031


--------------------------------------- Iteration      1(   1)  ---------------------------------------


    POTLOK:  cpu time  28747.8286: real time  28964.0351
    SETDIJ:  cpu time      0.2076: real time      0.2350
    TRIAL :  cpu time      3.5656: real time      3.6223
    CORREC:  cpu time      0.0001: real time      0.0001
    --------------------------------------------
      LOOP:  cpu time  28751.6094: real time  28967.9025

 eigenvalue-minimisations  :   320
 total energy-change (2. order) : 0.3093973E+04  (-0.1558164E+05)
 number of electron     222.0000000 magnetization 
 augmentation part      222.0000000 magnetization 

 Free energy of the ion-electron system (eV)
  ---------------------------------------------------
  alpha Z        PSCENC =       171.49134797
  Ewald energy   TEWEN  =      9959.13138061
  -Hartree energ DENC   =    -19698.37978568
  -exchange      EXHF   =         0.00000000
  -V(xc)+E(xc)   XCENC  =       497.79127255
  PAW double counting   =      9286.78908895    -9030.04042950
  entropy T*S    EENTRO =        -0.10786944
  eigenvalues    EBANDS =       172.35973058
  atomic energy  EATOM  =     11734.93787338
  ---------------------------------------------------
  free energy    TOTEN  =      3093.97260942 eV

  energy without entropy =     3094.08047886  energy(sigma->0) =     3094.02654414


--------------------------------------------------------------------------------------------------------




--------------------------------------- Iteration      1(   2)  ---------------------------------------


    TRIAL :  cpu time      5.4744: real time      5.4939
    CORREC:  cpu time      0.0001: real time      0.0001
    --------------------------------------------
      LOOP:  cpu time      5.4785: real time      5.5036

 eigenvalue-minimisations  :   560
 total energy-change (2. order) :-0.3010985E+04  (-0.2892317E+04)
 number of electron     222.0000000 magnetization 
 augmentation part      222.0000000 magnetization 

 Free energy of the ion-electron system (eV)
  ---------------------------------------------------
  alpha Z        PSCENC =       171.49134797
  Ewald energy   TEWEN  =      9959.13138061
  -Hartree energ DENC   =    -19698.37978568
  -exchange      EXHF   =         0.00000000
  -V(xc)+E(xc)   XCENC  =       497.79127255
  PAW double counting   =      9286.78908895    -9030.04042950
  entropy T*S    EENTRO =        -0.00000000
  eigenvalues    EBANDS =     -2838.73277871
  atomic energy  EATOM  =     11734.93787338
  ---------------------------------------------------
  free energy    TOTEN  =        82.98796958 eV

  energy without entropy =       82.98796958  energy(sigma->0) =       82.98796958


--------------------------------------------------------------------------------------------------------




--------------------------------------- Iteration      1(   3)  ---------------------------------------


    TRIAL :  cpu time      4.4884: real time      4.5029
    CORREC:  cpu time      0.0001: real time      0.0001
    --------------------------------------------
      LOOP:  cpu time      4.4887: real time      4.5128

 eigenvalue-minimisations  :   440
 total energy-change (2. order) :-0.4340457E+03  (-0.4321259E+03)
 number of electron     222.0000000 magnetization 
 augmentation part      222.0000000 magnetization 

 Free energy of the ion-electron system (eV)
  ---------------------------------------------------
  alpha Z        PSCENC =       171.49134797
  Ewald energy   TEWEN  =      9959.13138061
  -Hartree energ DENC   =    -19698.37978568
  -exchange      EXHF   =         0.00000000
  -V(xc)+E(xc)   XCENC  =       497.79127255
  PAW double counting   =      9286.78908895    -9030.04042950
  entropy T*S    EENTRO =        -0.00000000
  eigenvalues    EBANDS =     -3272.77848858
  atomic energy  EATOM  =     11734.93787338
  ---------------------------------------------------
  free energy    TOTEN  =      -351.05774029 eV

  energy without entropy =     -351.05774029  energy(sigma->0) =     -351.05774029


--------------------------------------------------------------------------------------------------------




--------------------------------------- Iteration      1(   4)  ---------------------------------------


    TRIAL :  cpu time      4.1605: real time      4.1752
    CORREC:  cpu time      0.0001: real time      0.0001
    --------------------------------------------
      LOOP:  cpu time      4.1615: real time      4.1849

 eigenvalue-minimisations  :   400
 total energy-change (2. order) :-0.9308335E+01  (-0.9292845E+01)
 number of electron     222.0000000 magnetization 
 augmentation part      222.0000000 magnetization 

 Free energy of the ion-electron system (eV)
  ---------------------------------------------------
  alpha Z        PSCENC =       171.49134797
  Ewald energy   TEWEN  =      9959.13138061
  -Hartree energ DENC   =    -19698.37978568
  -exchange      EXHF   =         0.00000000
  -V(xc)+E(xc)   XCENC  =       497.79127255
  PAW double counting   =      9286.78908895    -9030.04042950
  entropy T*S    EENTRO =        -0.00000000
  eigenvalues    EBANDS =     -3282.08682332
  atomic energy  EATOM  =     11734.93787338
  ---------------------------------------------------
  free energy    TOTEN  =      -360.36607503 eV

  energy without entropy =     -360.36607503  energy(sigma->0) =     -360.36607503


--------------------------------------------------------------------------------------------------------




--------------------------------------- Iteration      1(   5)  ---------------------------------------


    TRIAL :  cpu time      4.8173: real time      4.8931
    CORREC:  cpu time      0.0001: real time      0.0001
    CHARGE:  cpu time      0.6079: real time      0.6099
    --------------------------------------------
      LOOP:  cpu time      5.4257: real time      5.5120

 eigenvalue-minimisations  :   480
 total energy-change (2. order) :-0.2203367E+00  (-0.2203027E+00)
 number of electron     222.0000003 magnetization 
 augmentation part       17.0147206 magnetization 

 Free energy of the ion-electron system (eV)
  ---------------------------------------------------
  alpha Z        PSCENC =       171.49134797
  Ewald energy   TEWEN  =      9959.13138061
  -Hartree energ DENC   =    -19698.37978568
  -exchange      EXHF   =         0.00000000
  -V(xc)+E(xc)   XCENC  =       497.79127255
  PAW double counting   =      9286.78908895    -9030.04042950
  entropy T*S    EENTRO =        -0.00000000
  eigenvalues    EBANDS =     -3282.30716001
  atomic energy  EATOM  =     11734.93787338
  ---------------------------------------------------
  free energy    TOTEN  =      -360.58641173 eV

  energy without entropy =     -360.58641173  energy(sigma->0) =     -360.58641173


--------------------------------------------------------------------------------------------------------




--------------------------------------- Iteration      1(   6)  ---------------------------------------


    POTLOK:  cpu time     17.7213: real time     17.7938
    SETDIJ:  cpu time      0.2340: real time      0.2350
    TRIAL :  cpu time      2.2671: real time      2.2764
    CORREC:  cpu time     76.2713: real time     77.0832
    CHARGE:  cpu time      0.6064: real time      0.6079
    --------------------------------------------
      LOOP:  cpu time     97.1011: real time     98.0057

 eigenvalue-minimisations  :     0
 total energy-change (2. order) : 0.1049556E+03  (-0.2095102E+01)
 number of electron     222.0000002 magnetization 
 augmentation part       14.9165304 magnetization 

 Free energy of the ion-electron system (eV)
  ---------------------------------------------------
  alpha Z        PSCENC =       171.49134797
  Ewald energy   TEWEN  =      9959.13138061
  -Hartree energ DENC   =    -21445.44178659
  -exchange      EXHF   =         0.00000000
  -V(xc)+E(xc)   XCENC  =       588.24137612
  PAW double counting   =     18002.86159803   -17775.44842421
  entropy T*S    EENTRO =        -0.00000000
  eigenvalues    EBANDS =     -1491.40412744
  atomic energy  EATOM  =     11734.93787338
  ---------------------------------------------------
  free energy    TOTEN  =      -255.63076213 eV

  energy without entropy =     -255.63076213  energy(sigma->0) =     -255.63076213


--------------------------------------------------------------------------------------------------------




--------------------------------------- Iteration      1(   7)  ---------------------------------------


    POTLOK:  cpu time     17.6342: real time     17.6948
    SETDIJ:  cpu time      0.2315: real time      0.2324
    TRIAL :  cpu time      2.2572: real time      2.2688
    CORREC:  cpu time     19.1215: real time     19.2434
    CHARGE:  cpu time      0.6037: real time      0.6054
    --------------------------------------------
      LOOP:  cpu time     39.8516: real time     40.0555

 eigenvalue-minimisations  :     0
 total energy-change (2. order) :-0.5125098E+02  (-0.4850844E+01)
 number of electron     222.0000002 magnetization 
 augmentation part       14.6024822 magnetization 

 Free energy of the ion-electron system (eV)
  ---------------------------------------------------
  alpha Z        PSCENC =       171.49134797
  Ewald energy   TEWEN  =      9959.13138061
  -Hartree energ DENC   =    -20554.51998870
  -exchange      EXHF   =         0.00000000
  -V(xc)+E(xc)   XCENC  =       540.22336932
  PAW double counting   =     17431.55691580   -17190.87086499
  entropy T*S    EENTRO =        -0.00000000
  eigenvalues    EBANDS =     -2398.83177782
  atomic energy  EATOM  =     11734.93787338
  ---------------------------------------------------
  free energy    TOTEN  =      -306.88174443 eV

  energy without entropy =     -306.88174443  energy(sigma->0) =     -306.88174443


--------------------------------------------------------------------------------------------------------




--------------------------------------- Iteration      1(   8)  ---------------------------------------


    POTLOK:  cpu time     17.8456: real time     18.1449
    SETDIJ:  cpu time      0.2327: real time      0.2337
    TRIAL :  cpu time      2.2606: real time      2.2677
    CORREC:  cpu time     76.7459: real time     77.3238
    CHARGE:  cpu time      0.6050: real time      0.6069
    --------------------------------------------
      LOOP:  cpu time     97.6916: real time     98.5872

 eigenvalue-minimisations  :     0
 total energy-change (2. order) :-0.5011394E+01  (-0.8526540E-02)
 number of electron     222.0000002 magnetization 
 augmentation part       14.4743567 magnetization 

 Free energy of the ion-electron system (eV)
  ---------------------------------------------------
  alpha Z        PSCENC =       171.49134797
  Ewald energy   TEWEN  =      9959.13138061
  -Hartree energ DENC   =    -20587.89637278
  -exchange      EXHF   =         0.00000000
  -V(xc)+E(xc)   XCENC  =       541.23745520
  PAW double counting   =     17743.17227708   -17499.67113916
  entropy T*S    EENTRO =        -0.00000000
  eigenvalues    EBANDS =     -2374.29596083
  atomic energy  EATOM  =     11734.93787338
  ---------------------------------------------------
  free energy    TOTEN  =      -311.89313854 eV

  energy without entropy =     -311.89313854  energy(sigma->0) =     -311.89313854


--------------------------------------------------------------------------------------------------------




--------------------------------------- Iteration      1(   9)  ---------------------------------------


    POTLOK:  cpu time     17.5871: real time     17.6464
    SETDIJ:  cpu time      0.2331: real time      0.2339
    TRIAL :  cpu time      2.2709: real time      2.2782
    CORREC:  cpu time     19.1723: real time     19.4690
    CHARGE:  cpu time      0.6038: real time      0.6056
    --------------------------------------------
      LOOP:  cpu time     39.8769: real time     40.2435

 eigenvalue-minimisations  :     0
 total energy-change (2. order) :-0.1680150E+01  (-0.7859095E+00)
 number of electron     222.0000002 magnetization 
 augmentation part       14.3748259 magnetization 

 Free energy of the ion-electron system (eV)
  ---------------------------------------------------
  alpha Z        PSCENC =       171.49134797
  Ewald energy   TEWEN  =      9959.13138061
  -Hartree energ DENC   =    -20586.79221580
  -exchange      EXHF   =         0.00000000
  -V(xc)+E(xc)   XCENC  =       541.25962885
  PAW double counting   =     18066.65405101   -17821.90322616
  entropy T*S    EENTRO =        -0.00000000
  eigenvalues    EBANDS =     -2378.35212807
  atomic energy  EATOM  =     11734.93787338
  ---------------------------------------------------
  free energy    TOTEN  =      -313.57328821 eV

  energy without entropy =     -313.57328821  energy(sigma->0) =     -313.57328821


--------------------------------------------------------------------------------------------------------




--------------------------------------- Iteration      1(  10)  ---------------------------------------


    POTLOK:  cpu time     17.6005: real time     17.6522
    SETDIJ:  cpu time      0.2328: real time      0.2335
    TRIAL :  cpu time      2.2582: real time      2.2655
    CORREC:  cpu time     18.9515: real time     19.0189
    CHARGE:  cpu time      0.6046: real time      0.6065
    --------------------------------------------
      LOOP:  cpu time     39.6510: real time     39.7872

 eigenvalue-minimisations  :     0
 total energy-change (2. order) :-0.7591771E+00  (-0.3188240E+00)
 number of electron     222.0000002 magnetization 
 augmentation part       14.3948626 magnetization 

 Free energy of the ion-electron system (eV)
  ---------------------------------------------------
  alpha Z        PSCENC =       171.49134797
  Ewald energy   TEWEN  =      9959.13138061
  -Hartree energ DENC   =    -20552.19849269
  -exchange      EXHF   =         0.00000000
  -V(xc)+E(xc)   XCENC  =       539.77011594
  PAW double counting   =     18215.90402822   -17970.40572123
  entropy T*S    EENTRO =        -0.00000000
  eigenvalues    EBANDS =     -2412.96299749
  atomic energy  EATOM  =     11734.93787338
  ---------------------------------------------------
  free energy    TOTEN  =      -314.33246528 eV

  energy without entropy =     -314.33246528  energy(sigma->0) =     -314.33246528


--------------------------------------------------------------------------------------------------------




--------------------------------------- Iteration      1(  11)  ---------------------------------------


    POTLOK:  cpu time     17.9927: real time     18.3909
    SETDIJ:  cpu time      0.2323: real time      0.2330
    TRIAL :  cpu time      2.2570: real time      2.2645
    CORREC:  cpu time     18.9158: real time     19.0064
    CHARGE:  cpu time      0.6027: real time      0.6042
    --------------------------------------------
      LOOP:  cpu time     40.0026: real time     40.5112

 eigenvalue-minimisations  :     0
 total energy-change (2. order) :-0.3166051E+00  (-0.1201646E+00)
 number of electron     222.0000002 magnetization 
 augmentation part       14.4620294 magnetization 

 Free energy of the ion-electron system (eV)
  ---------------------------------------------------
  alpha Z        PSCENC =       171.49134797
  Ewald energy   TEWEN  =      9959.13138061
  -Hartree energ DENC   =    -20533.12559731
  -exchange      EXHF   =         0.00000000
  -V(xc)+E(xc)   XCENC  =       539.00227254
  PAW double counting   =     18203.06911498   -17957.77921866
  entropy T*S    EENTRO =        -0.00000000
  eigenvalues    EBANDS =     -2431.37624391
  atomic energy  EATOM  =     11734.93787338
  ---------------------------------------------------
  free energy    TOTEN  =      -314.64907039 eV

  energy without entropy =     -314.64907039  energy(sigma->0) =     -314.64907039


--------------------------------------------------------------------------------------------------------




--------------------------------------- Iteration      1(  12)  ---------------------------------------


    POTLOK:  cpu time     17.7705: real time     17.8429
    SETDIJ:  cpu time      0.2326: real time      0.2333
    TRIAL :  cpu time      2.2597: real time      2.2672
    CORREC:  cpu time     19.3815: real time     19.6397
    CHARGE:  cpu time      0.5975: real time      0.5997
    --------------------------------------------
      LOOP:  cpu time     40.2455: real time     40.5940

 eigenvalue-minimisations  :     0
 total energy-change (2. order) :-0.1206058E+00  (-0.3604894E-01)
 number of electron     222.0000002 magnetization 
 augmentation part       14.4922446 magnetization 

 Free energy of the ion-electron system (eV)
  ---------------------------------------------------
  alpha Z        PSCENC =       171.49134797
  Ewald energy   TEWEN  =      9959.13138061
  -Hartree energ DENC   =    -20535.60891146
  -exchange      EXHF   =         0.00000000
  -V(xc)+E(xc)   XCENC  =       539.17420677
  PAW double counting   =     18159.87982124   -17915.14312189
  entropy T*S    EENTRO =        -0.00000000
  eigenvalues    EBANDS =     -2428.63227277
  atomic energy  EATOM  =     11734.93787338
  ---------------------------------------------------
  free energy    TOTEN  =      -314.76967615 eV

  energy without entropy =     -314.76967615  energy(sigma->0) =     -314.76967615


--------------------------------------------------------------------------------------------------------




--------------------------------------- Iteration      1(  13)  ---------------------------------------


    POTLOK:  cpu time     17.6057: real time     17.6567
    SETDIJ:  cpu time      0.2333: real time      0.2338
    TRIAL :  cpu time      2.2577: real time      2.2654
    CORREC:  cpu time     18.9526: real time     19.0175
    CHARGE:  cpu time      0.6049: real time      0.6069
    --------------------------------------------
      LOOP:  cpu time     39.6569: real time     39.7916

 eigenvalue-minimisations  :     0
 total energy-change (2. order) :-0.3618835E-01  (-0.1286513E-01)
 number of electron     222.0000002 magnetization 
 augmentation part       14.4889846 magnetization 

 Free energy of the ion-electron system (eV)
  ---------------------------------------------------
  alpha Z        PSCENC =       171.49134797
  Ewald energy   TEWEN  =      9959.13138061
  -Hartree energ DENC   =    -20540.28197679
  -exchange      EXHF   =         0.00000000
  -V(xc)+E(xc)   XCENC  =       539.40401434
  PAW double counting   =     18121.84107474   -17877.38049420
  entropy T*S    EENTRO =        -0.00000000
  eigenvalues    EBANDS =     -2423.94908455
  atomic energy  EATOM  =     11734.93787338
  ---------------------------------------------------
  free energy    TOTEN  =      -314.80586450 eV

  energy without entropy =     -314.80586450  energy(sigma->0) =     -314.80586450


--------------------------------------------------------------------------------------------------------




--------------------------------------- Iteration      1(  14)  ---------------------------------------


    POTLOK:  cpu time     18.0760: real time     18.3858
    SETDIJ:  cpu time      0.2332: real time      0.2339
    TRIAL :  cpu time      2.2567: real time      2.2646
    CORREC:  cpu time     18.9075: real time     18.9640
    CHARGE:  cpu time      0.5979: real time      0.5998
    --------------------------------------------
      LOOP:  cpu time     40.0734: real time     40.4592

 eigenvalue-minimisations  :     0
 total energy-change (2. order) :-0.1290337E-01  (-0.4707609E-02)
 number of electron     222.0000002 magnetization 
 augmentation part       14.4839455 magnetization 

 Free energy of the ion-electron system (eV)
  ---------------------------------------------------
  alpha Z        PSCENC =       171.49134797
  Ewald energy   TEWEN  =      9959.13138061
  -Hartree energ DENC   =    -20538.85685370
  -exchange      EXHF   =         0.00000000
  -V(xc)+E(xc)   XCENC  =       539.31036253
  PAW double counting   =     18086.84529496   -17842.40645113
  entropy T*S    EENTRO =        -0.00000000
  eigenvalues    EBANDS =     -2425.27172249
  atomic energy  EATOM  =     11734.93787338
  ---------------------------------------------------
  free energy    TOTEN  =      -314.81876787 eV

  energy without entropy =     -314.81876787  energy(sigma->0) =     -314.81876787


--------------------------------------------------------------------------------------------------------




--------------------------------------- Iteration      1(  15)  ---------------------------------------


    POTLOK:  cpu time     17.6443: real time     17.7075
    SETDIJ:  cpu time      0.2331: real time      0.2336
    TRIAL :  cpu time      2.2616: real time      2.2691
    CORREC:  cpu time     19.3235: real time     19.6268
    CHARGE:  cpu time      0.5988: real time      0.6007
    --------------------------------------------
      LOOP:  cpu time     40.0651: real time     40.4481

 eigenvalue-minimisations  :     0
 total energy-change (2. order) :-0.4712404E-02  (-0.1838055E-02)
 number of electron     222.0000002 magnetization 
 augmentation part       14.4843387 magnetization 

 Free energy of the ion-electron system (eV)
  ---------------------------------------------------
  alpha Z        PSCENC =       171.49134797
  Ewald energy   TEWEN  =      9959.13138061
  -Hartree energ DENC   =    -20538.07853556
  -exchange      EXHF   =         0.00000000
  -V(xc)+E(xc)   XCENC  =       539.24685120
  PAW double counting   =     18067.80483255   -17823.34069921
  entropy T*S    EENTRO =        -0.00000000
  eigenvalues    EBANDS =     -2426.01653121
  atomic energy  EATOM  =     11734.93787338
  ---------------------------------------------------
  free energy    TOTEN  =      -314.82348027 eV

  energy without entropy =     -314.82348027  energy(sigma->0) =     -314.82348027


--------------------------------------------------------------------------------------------------------




--------------------------------------- Iteration      1(  16)  ---------------------------------------


    POTLOK:  cpu time     17.6137: real time     17.7105
    SETDIJ:  cpu time      0.2331: real time      0.2339
    TRIAL :  cpu time      2.2598: real time      2.2676
    CORREC:  cpu time     18.9061: real time     18.9729
    CHARGE:  cpu time      0.6000: real time      0.6019
    --------------------------------------------
      LOOP:  cpu time     39.6233: real time     39.7978

 eigenvalue-minimisations  :     0
 total energy-change (2. order) :-0.1837675E-02  (-0.7107273E-03)
 number of electron     222.0000002 magnetization 
 augmentation part       14.4841466 magnetization 

 Free energy of the ion-electron system (eV)
  ---------------------------------------------------
  alpha Z        PSCENC =       171.49134797
  Ewald energy   TEWEN  =      9959.13138061
  -Hartree energ DENC   =    -20539.63204805
  -exchange      EXHF   =         0.00000000
  -V(xc)+E(xc)   XCENC  =       539.31301707
  PAW double counting   =     18061.89393672   -17817.42497863
  entropy T*S    EENTRO =        -0.00000000
  eigenvalues    EBANDS =     -2424.53584702
  atomic energy  EATOM  =     11734.93787338
  ---------------------------------------------------
  free energy    TOTEN  =      -314.82531795 eV

  energy without entropy =     -314.82531795  energy(sigma->0) =     -314.82531795


--------------------------------------------------------------------------------------------------------




--------------------------------------- Iteration      1(  17)  ---------------------------------------


    POTLOK:  cpu time     17.9134: real time     18.3264
    SETDIJ:  cpu time      0.2328: real time      0.2335
    TRIAL :  cpu time      2.2560: real time      2.2651
    CORREC:  cpu time     18.8990: real time     18.9647
    CHARGE:  cpu time      0.6008: real time      0.6032
    --------------------------------------------
      LOOP:  cpu time     39.9051: real time     40.4036

 eigenvalue-minimisations  :     0
 total energy-change (2. order) :-0.7072876E-03  (-0.2520934E-03)
 number of electron     222.0000002 magnetization 
 augmentation part       14.4836434 magnetization 

 Free energy of the ion-electron system (eV)
  ---------------------------------------------------
  alpha Z        PSCENC =       171.49134797
  Ewald energy   TEWEN  =      9959.13138061
  -Hartree energ DENC   =    -20540.35464085
  -exchange      EXHF   =         0.00000000
  -V(xc)+E(xc)   XCENC  =       539.34800242
  PAW double counting   =     18061.03206868   -17816.55583313
  entropy T*S    EENTRO =        -0.00000000
  eigenvalues    EBANDS =     -2423.85622432
  atomic energy  EATOM  =     11734.93787338
  ---------------------------------------------------
  free energy    TOTEN  =      -314.82602523 eV

  energy without entropy =     -314.82602523  energy(sigma->0) =     -314.82602523


--------------------------------------------------------------------------------------------------------




--------------------------------------- Iteration      1(  18)  ---------------------------------------


    POTLOK:  cpu time     17.6339: real time     17.6981
    SETDIJ:  cpu time      0.2325: real time      0.2336
    TRIAL :  cpu time      2.2647: real time      2.2747
    CORREC:  cpu time     18.7179: real time     19.6615
    CHARGE:  cpu time      0.5988: real time      0.6004
    --------------------------------------------
      LOOP:  cpu time     39.4505: real time     40.4796

 eigenvalue-minimisations  :     0
 total energy-change (2. order) :-0.2479676E-03  (-0.8699415E-04)
 number of electron     222.0000002 magnetization 
 augmentation part       14.4838248 magnetization 

 Free energy of the ion-electron system (eV)
  ---------------------------------------------------
  alpha Z        PSCENC =       171.49134797
  Ewald energy   TEWEN  =      9959.13138061
  -Hartree energ DENC   =    -20540.35164691
  -exchange      EXHF   =         0.00000000
  -V(xc)+E(xc)   XCENC  =       539.34772429
  PAW double counting   =     18061.78346762   -17817.29988179
  entropy T*S    EENTRO =        -0.00000000
  eigenvalues    EBANDS =     -2423.86653837
  atomic energy  EATOM  =     11734.93787338
  ---------------------------------------------------
  free energy    TOTEN  =      -314.82627320 eV

  energy without entropy =     -314.82627320  energy(sigma->0) =     -314.82627320


--------------------------------------------------------------------------------------------------------




--------------------------------------- Iteration      1(  19)  ---------------------------------------


    POTLOK:  cpu time     17.6255: real time     17.6843
    SETDIJ:  cpu time      0.2330: real time      0.2338
    TRIAL :  cpu time      2.2569: real time      2.2651
    CORREC:  cpu time     18.8509: real time     19.0345
    CHARGE:  cpu time      0.6019: real time      0.6039
    --------------------------------------------
      LOOP:  cpu time     39.5709: real time     39.8316

 eigenvalue-minimisations  :     0
 total energy-change (2. order) :-0.8436706E-04  (-0.2962542E-04)
 number of electron     222.0000002 magnetization 
 augmentation part       14.4837730 magnetization 

 Free energy of the ion-electron system (eV)
  ---------------------------------------------------
  alpha Z        PSCENC =       171.49134797
  Ewald energy   TEWEN  =      9959.13138061
  -Hartree energ DENC   =    -20540.49310693
  -exchange      EXHF   =         0.00000000
  -V(xc)+E(xc)   XCENC  =       539.35423297
  PAW double counting   =     18063.17154279   -17818.68690451
  entropy T*S    EENTRO =        -0.00000000
  eigenvalues    EBANDS =     -2423.73272386
  atomic energy  EATOM  =     11734.93787338
  ---------------------------------------------------
  free energy    TOTEN  =      -314.82635757 eV

  energy without entropy =     -314.82635757  energy(sigma->0) =     -314.82635757


--------------------------------------------------------------------------------------------------------




--------------------------------------- Iteration      1(  20)  ---------------------------------------


    POTLOK:  cpu time     17.5169: real time     18.3002
    SETDIJ:  cpu time      0.2333: real time      0.2342
    TRIAL :  cpu time      2.2592: real time      2.2676
    CORREC:  cpu time     18.8373: real time     18.9948
    CHARGE:  cpu time      0.5974: real time      0.5995
    --------------------------------------------
      LOOP:  cpu time     39.4474: real time     40.4068

 eigenvalue-minimisations  :     0
 total energy-change (2. order) :-0.2808354E-04  (-0.1081035E-04)
 number of electron     222.0000002 magnetization 
 augmentation part       14.4837811 magnetization 

 Free energy of the ion-electron system (eV)
  ---------------------------------------------------
  alpha Z        PSCENC =       171.49134797
  Ewald energy   TEWEN  =      9959.13138061
  -Hartree energ DENC   =    -20540.50554505
  -exchange      EXHF   =         0.00000000
  -V(xc)+E(xc)   XCENC  =       539.35467906
  PAW double counting   =     18064.20433418   -17819.71937129
  entropy T*S    EENTRO =        -0.00000000
  eigenvalues    EBANDS =     -2423.72108451
  atomic energy  EATOM  =     11734.93787338
  ---------------------------------------------------
  free energy    TOTEN  =      -314.82638565 eV

  energy without entropy =     -314.82638565  energy(sigma->0) =     -314.82638565


--------------------------------------------------------------------------------------------------------




--------------------------------------- Iteration      1(  21)  ---------------------------------------


    POTLOK:  cpu time     17.6362: real time     17.7010
    SETDIJ:  cpu time      0.2324: real time      0.2330
    TRIAL :  cpu time      2.2588: real time      2.2679
    CORREC:  cpu time     18.8324: real time     19.6485
    CHARGE:  cpu time      0.5992: real time      0.6015
    --------------------------------------------
      LOOP:  cpu time     39.5612: real time     40.4625

 eigenvalue-minimisations  :     0
 total energy-change (2. order) :-0.1037983E-04  (-0.3832135E-05)
 number of electron     222.0000002 magnetization 
 augmentation part       14.4838710 magnetization 

 Free energy of the ion-electron system (eV)
  ---------------------------------------------------
  alpha Z        PSCENC =       171.49134797
  Ewald energy   TEWEN  =      9959.13138061
  -Hartree energ DENC   =    -20540.45036590
  -exchange      EXHF   =         0.00000000
  -V(xc)+E(xc)   XCENC  =       539.35214110
  PAW double counting   =     18064.79407531   -17820.30939681
  entropy T*S    EENTRO =        -0.00000000
  eigenvalues    EBANDS =     -2423.77345169
  atomic energy  EATOM  =     11734.93787338
  ---------------------------------------------------
  free energy    TOTEN  =      -314.82639603 eV

  energy without entropy =     -314.82639603  energy(sigma->0) =     -314.82639603


--------------------------------------------------------------------------------------------------------




--------------------------------------- Iteration      1(  22)  ---------------------------------------


    POTLOK:  cpu time     17.6165: real time     17.6743
    SETDIJ:  cpu time      0.2327: real time      0.2334
    TRIAL :  cpu time      2.2575: real time      2.2658
    CORREC:  cpu time     18.9362: real time     19.0032
    CHARGE:  cpu time      0.6029: real time      0.6055
    --------------------------------------------
      LOOP:  cpu time     39.6488: real time     39.7946

 eigenvalue-minimisations  :     0
 total energy-change (2. order) :-0.3917230E-05  (-0.1378785E-05)
 number of electron     222.0000002 magnetization 
 augmentation part       14.4838729 magnetization 

 Free energy of the ion-electron system (eV)
  ---------------------------------------------------
  alpha Z        PSCENC =       171.49134797
  Ewald energy   TEWEN  =      9959.13138061
  -Hartree energ DENC   =    -20540.43512169
  -exchange      EXHF   =         0.00000000
  -V(xc)+E(xc)   XCENC  =       539.35160979
  PAW double counting   =     18065.05175628   -17820.56772034
  entropy T*S    EENTRO =        -0.00000000
  eigenvalues    EBANDS =     -2423.78752595
  atomic energy  EATOM  =     11734.93787338
  ---------------------------------------------------
  free energy    TOTEN  =      -314.82639995 eV

  energy without entropy =     -314.82639995  energy(sigma->0) =     -314.82639995


--------------------------------------------------------------------------------------------------------




--------------------------------------- Iteration      1(  23)  ---------------------------------------


    POTLOK:  cpu time     17.6531: real time     18.1812
    SETDIJ:  cpu time      0.2336: real time      0.2342
    TRIAL :  cpu time      2.2582: real time      2.2664
    CORREC:  cpu time     18.9064: real time     18.9674
    CHARGE:  cpu time      0.5994: real time      0.6015
    --------------------------------------------
      LOOP:  cpu time     39.6598: real time     40.2606

 eigenvalue-minimisations  :     0
 total energy-change (2. order) :-0.1446129E-05  (-0.4353532E-06)
 number of electron     222.0000002 magnetization 
 augmentation part       14.4838623 magnetization 

 Free energy of the ion-electron system (eV)
  ---------------------------------------------------
  alpha Z        PSCENC =       171.49134797
  Ewald energy   TEWEN  =      9959.13138061
  -Hartree energ DENC   =    -20540.42118602
  -exchange      EXHF   =         0.00000000
  -V(xc)+E(xc)   XCENC  =       539.35101397
  PAW double counting   =     18065.10278330   -17820.61889659
  entropy T*S    EENTRO =        -0.00000000
  eigenvalues    EBANDS =     -2423.80071802
  atomic energy  EATOM  =     11734.93787338
  ---------------------------------------------------
  free energy    TOTEN  =      -314.82640139 eV

  energy without entropy =     -314.82640139  energy(sigma->0) =     -314.82640139


--------------------------------------------------------------------------------------------------------




--------------------------------------- Iteration      1(  24)  ---------------------------------------


    POTLOK:  cpu time     17.6384: real time     17.7068
    SETDIJ:  cpu time      0.2326: real time      0.2333
    TRIAL :  cpu time      2.2584: real time      2.2660
    CORREC:  cpu time     19.0532: real time     19.4588
    CHARGE:  cpu time      0.5988: real time      0.6004
    --------------------------------------------
      LOOP:  cpu time     39.7832: real time     40.2760

 eigenvalue-minimisations  :     0
 total energy-change (2. order) :-0.4395188E-06  (-0.1396135E-06)
 number of electron     222.0000002 magnetization 
 augmentation part       14.4838642 magnetization 

 Free energy of the ion-electron system (eV)
  ---------------------------------------------------
  alpha Z        PSCENC =       171.49134797
  Ewald energy   TEWEN  =      9959.13138061
  -Hartree energ DENC   =    -20540.41310685
  -exchange      EXHF   =         0.00000000
  -V(xc)+E(xc)   XCENC  =       539.35067471
  PAW double counting   =     18065.08542273   -17820.60155182
  entropy T*S    EENTRO =        -0.00000000
  eigenvalues    EBANDS =     -2423.80844257
  atomic energy  EATOM  =     11734.93787338
  ---------------------------------------------------
  free energy    TOTEN  =      -314.82640183 eV

  energy without entropy =     -314.82640183  energy(sigma->0) =     -314.82640183


--------------------------------------------------------------------------------------------------------




--------------------------------------- Iteration      1(  25)  ---------------------------------------


    POTLOK:  cpu time     17.5912: real time     17.7017
    SETDIJ:  cpu time      0.2328: real time      0.2336
    TRIAL :  cpu time      2.2571: real time      2.2667
    CORREC:  cpu time     18.9466: real time     19.0144
    CHARGE:  cpu time      0.6028: real time      0.6045
    --------------------------------------------
      LOOP:  cpu time     39.6331: real time     39.8317

 eigenvalue-minimisations  :     0
 total energy-change (2. order) :-0.1232693E-06  (-0.5997881E-07)
 number of electron     222.0000002 magnetization 
 augmentation part       14.4838696 magnetization 

 Free energy of the ion-electron system (eV)
  ---------------------------------------------------
  alpha Z        PSCENC =       171.49134797
  Ewald energy   TEWEN  =      9959.13138061
  -Hartree energ DENC   =    -20540.41108451
  -exchange      EXHF   =         0.00000000
  -V(xc)+E(xc)   XCENC  =       539.35061453
  PAW double counting   =     18065.06274161   -17820.57891092
  entropy T*S    EENTRO =        -0.00000000
  eigenvalues    EBANDS =     -2423.81036463
  atomic energy  EATOM  =     11734.93787338
  ---------------------------------------------------
  free energy    TOTEN  =      -314.82640196 eV

  energy without entropy =     -314.82640196  energy(sigma->0) =     -314.82640196


--------------------------------------------------------------------------------------------------------




--------------------------------------- Iteration      1(  26)  ---------------------------------------


    POTLOK:  cpu time     17.9066: real time     18.2016
    SETDIJ:  cpu time      0.2337: real time      0.2345
    TRIAL :  cpu time      2.2587: real time      2.2667
    CORREC:  cpu time     18.9083: real time     18.9674
    EDDIAG:  cpu time      0.8124: real time      0.8156
    CHARGE:  cpu time      0.5986: real time      0.6003
    --------------------------------------------
      LOOP:  cpu time     40.7224: real time     41.0996

 eigenvalue-minimisations  :     0
 total energy-change (2. order) :-0.4909089E-07  (-0.1951083E-07)
 number of electron     222.0000002 magnetization 
 augmentation part       14.4838689 magnetization 

 Free energy of the ion-electron system (eV)
  ---------------------------------------------------
  alpha Z        PSCENC =       171.49134797
  Ewald energy   TEWEN  =      9959.13138061
  -Hartree energ DENC   =    -20540.41143144
  -exchange      EXHF   =         0.00000000
  -V(xc)+E(xc)   XCENC  =       539.35064302
  PAW double counting   =     18065.04255809   -17820.55876841
  entropy T*S    EENTRO =        -0.00000000
  eigenvalues    EBANDS =     -2423.81000523
  atomic energy  EATOM  =     11734.93787338
  ---------------------------------------------------
  free energy    TOTEN  =      -314.82640201 eV

  energy without entropy =     -314.82640201  energy(sigma->0) =     -314.82640201


--------------------------------------------------------------------------------------------------------


  average scaling for gradient   0.9293


 average (electrostatic) potential at core
  the test charge radii are     0.6991  0.5201  0.7215  1.0714
  (the norm of the test charge is              1.0000)
       1 -59.4373       2 -56.4791       3 -57.5336       4 -56.0073       5 -59.4370
       6 -56.4791       7 -57.5338       8 -56.0074       9 -59.4368      10 -56.4789
      11 -57.5336      12 -56.0071      13 -59.4370      14 -56.4790      15 -57.5336
      16 -56.0071      17 -59.4372      18 -56.4792      19 -57.5336      20 -56.0072
      21 -59.4373      22 -56.4790      23 -57.5334      24 -56.0072      25 -41.0453
      26 -41.0458      27 -41.0449      28 -41.0453      29 -41.0459      30 -41.0455
      31 -78.5873      32 -78.3114      33 -77.8123      34 -78.5875      35 -78.3107
      36 -77.8124      37 -78.5871      38 -78.3108      39 -77.8125      40 -78.5869
      41 -78.3111      42 -77.8124      43 -78.5870      44 -78.3115      45 -77.8121
      46 -78.5874      47 -78.3113      48 -77.8119      49 -43.2180      50 -43.2182
      51 -43.2182      52 -43.2180      53 -43.2178      54 -43.2179
 
 
 
 E-fermi :  -2.0165     XC(G=0):  -5.0317     alpha+bet : -3.6057

 Fermi energy:        -2.0164842559

 k-point     1 :       0.0000    0.0000    0.0000
  band No.  band energies     occupation 
      1     -24.7740      2.00000
      2     -24.7689      2.00000
      3     -24.6379      2.00000
      4     -24.6378      2.00000
      5     -24.6335      2.00000
      6     -24.6335      2.00000
      7     -22.6000      2.00000
      8     -22.5830      2.00000
      9     -22.5546      2.00000
     10     -22.5543      2.00000
     11     -22.5176      2.00000
     12     -22.5173      2.00000
     13     -22.2846      2.00000
     14     -22.2846      2.00000
     15     -22.2697      2.00000
     16     -22.2628      2.00000
     17     -22.2627      2.00000
     18     -22.2314      2.00000
     19     -18.4922      2.00000
     20     -18.4457      2.00000
     21     -18.4456      2.00000
     22     -16.7178      2.00000
     23     -16.6714      2.00000
     24     -16.6712      2.00000
     25     -15.3414      2.00000
     26     -15.2458      2.00000
     27     -15.2457      2.00000
     28     -14.1529      2.00000
     29     -14.1361      2.00000
     30     -14.1360      2.00000
     31     -12.3843      2.00000
     32     -12.3654      2.00000
     33     -12.3652      2.00000
     34     -12.1017      2.00000
     35     -11.9734      2.00000
     36     -11.9733      2.00000
     37     -11.7930      2.00000
     38     -11.1250      2.00000
     39     -11.1249      2.00000
     40     -10.3869      2.00000
     41     -10.3869      2.00000
     42     -10.3681      2.00000
     43     -10.3681      2.00000
     44     -10.3177      2.00000
     45     -10.0604      2.00000
     46      -9.8437      2.00000
     47      -9.7631      2.00000
     48      -9.7630      2.00000
     49      -9.6751      2.00000
     50      -9.6750      2.00000
     51      -9.4765      2.00000
     52      -9.2151      2.00000
     53      -9.2150      2.00000
     54      -9.0842      2.00000
     55      -9.0176      2.00000
     56      -9.0175      2.00000
     57      -8.9574      2.00000
     58      -8.7829      2.00000
     59      -8.7829      2.00000
     60      -8.6450      2.00000
     61      -8.6449      2.00000
     62      -8.5917      2.00000
     63      -8.4323      2.00000
     64      -7.9031      2.00000
     65      -7.9031      2.00000
     66      -7.8546      2.00000
     67      -7.8540      2.00000
     68      -7.8536      2.00000
     69      -7.8197      2.00000
     70      -7.5407      2.00000
     71      -7.4801      2.00000
     72      -7.4800      2.00000
     73      -7.1823      2.00000
     74      -7.1822      2.00000
     75      -7.0372      2.00000
     76      -6.8473      2.00000
     77      -6.8138      2.00000
     78      -6.8137      2.00000
     79      -6.2307      2.00000
     80      -5.9856      2.00000
     81      -5.9855      2.00000
     82      -5.9057      2.00000
     83      -5.8493      2.00000
     84      -5.8491      2.00000
     85      -5.5707      2.00000
     86      -5.5707      2.00000
     87      -5.3730      2.00000
     88      -5.3729      2.00000
     89      -5.1228      2.00000
     90      -5.0492      2.00000
     91      -4.9564      2.00000
     92      -4.9563      2.00000
     93      -4.8968      2.00000
     94      -4.8299      2.00000
     95      -4.8299      2.00000
     96      -4.7674      2.00000
     97      -4.6678      2.00000
     98      -4.6678      2.00000
     99      -4.5807      2.00000
    100      -4.2813      2.00000
    101      -4.2813      2.00000
    102      -4.1820      2.00000
    103      -4.1818      2.00000
    104      -4.1035      2.00000
    105      -4.0995      2.00000
    106      -4.0146      2.00000
    107      -4.0146      2.00000
    108      -3.9045      2.00000
    109      -2.6720      2.00000
    110      -2.6719      2.00000
    111      -2.5276      2.00000
    112      -0.4672      0.00000
    113      -0.4672      0.00000
    114      -0.4341      0.00000
    115       0.6832      0.00000
    116       1.1341      0.00000
    117       1.1956      0.00000
    118       1.1956      0.00000
    119       1.2882      0.00000
    120       1.3725      0.00000
    121       1.3726      0.00000
    122       1.5113      0.00000
    123       1.6033      0.00000
    124       1.6034      0.00000
    125       1.7344      0.00000
    126       1.7345      0.00000
    127       2.5011      0.00000
    128       2.9162      0.00000
    129       2.9163      0.00000
    130       3.0824      0.00000
    131       3.0824      0.00000
    132       3.2363      0.00000
    133       3.4112      0.00000
    134       3.4535      0.00000
    135       3.4715      0.00000
    136       3.4716      0.00000
    137       3.7106      0.00000
    138       3.7106      0.00000
    139       3.8823      0.00000
    140       3.8824      0.00000
    141       3.9193      0.00000
    142       4.0453      0.00000
    143       4.3052      0.00000
    144       4.3053      0.00000
    145       4.6050      0.00000
    146       4.7870      0.00000
    147       4.7885      0.00000
    148       4.7898      0.00000
    149       4.9356      0.00000
    150       4.9421      0.00000
    151       4.9812      0.00000
    152       4.9998      0.00000
    153       5.0223      0.00000
    154       5.3647      0.00000
    155       5.4859      0.00000
    156       5.6399      0.00000
    157       5.8114      0.00000
    158       5.9394      0.00000
    159       5.9778      0.00000
    160       6.1724      0.00000


--------------------------------------------------------------------------------------------------------


 soft charge-density along one line, spin component           1
         0         1         2         3         4         5         6         7         8         9
 total charge-density along one line
 
 pseudopotential strength for first ion, spin component:           1
 10.303  13.698   0.004   0.001  -0.000  -0.012  -0.005   0.000
 13.698  18.210   0.005   0.001  -0.000  -0.015  -0.006   0.000
  0.004   0.005  -4.498   0.005  -0.001   8.902  -0.011   0.001
  0.001   0.001   0.005  -4.507   0.002  -0.011   8.919  -0.000
 -0.000  -0.000  -0.001   0.002  -4.499   0.001  -0.000   8.926
 -0.012  -0.015   8.902  -0.011   0.001 -19.776   0.023  -0.002
 -0.005  -0.006  -0.011   8.919  -0.000   0.023 -19.808  -0.005
  0.000   0.000   0.001  -0.000   8.926  -0.002  -0.005 -19.856
 total augmentation occupancy for first ion, spin component:           1
  6.742  -3.012   0.436   0.255  -0.016   0.095   0.055  -0.003
 -3.012   1.560  -0.356  -0.184   0.012  -0.061  -0.035   0.002
  0.436  -0.356   1.731   0.001   0.028   0.150  -0.016   0.007
  0.255  -0.184   0.001   1.816  -0.123  -0.015   0.185  -0.022
 -0.016   0.012   0.028  -0.123   1.035   0.007  -0.022   0.058
  0.095  -0.061   0.150  -0.015   0.007   0.016  -0.003   0.001
  0.055  -0.035  -0.016   0.185  -0.022  -0.003   0.024  -0.003
 -0.003   0.002   0.007  -0.022   0.058   0.001  -0.003   0.004


------------------------ aborting loop because EDIFF is reached ----------------------------------------


    FORLOC:  cpu time      0.2191: real time      0.2197
    FORNL :  cpu time      2.0457: real time      2.0525
    STRESS:  cpu time      5.9919: real time      6.0211
    FORCOR:  cpu time     17.8838: real time     18.4693
    OFIELD:  cpu time      0.0030: real time      0.0030

  FORCE on cell =-STRESS in cart. coord.  units (eV):
  Direction    XX          YY          ZZ          XY          YZ          ZX
  --------------------------------------------------------------------------------------
  Alpha Z   171.49135   171.49135   171.49135
  Ewald   -2415.38025 -1685.80552 14060.28395   692.37927  4402.91845  2657.36715
  Hartree  1817.19527  2456.99254 16266.22287   607.23259  3861.34103  2330.46317
  E(xc)    -997.04233  -996.48952  -984.56151     0.52427     3.33527     2.01341
  Local   -2211.33784 -3576.63803-33044.12418 -1295.75418 -8239.69925 -4973.00208
  n-local  -523.77289  -524.48093  -539.78772    -0.65948    -4.27759    -2.58041
  augment   114.62060   114.66059   115.52793     0.02596     0.24055     0.14292
  Kinetic  4051.07831  4047.11089  3961.57399    -3.75823   -23.91884   -14.44132
  Fock        0.00000     0.00000     0.00000     0.00000     0.00000     0.00000
  -------------------------------------------------------------------------------------
  Total       6.85222     6.84137     6.62667    -0.00980    -0.06039    -0.03716
  in kB       8.00535     7.99267     7.74184    -0.01145    -0.07055    -0.04341
  external pressure =        7.91 kB  Pullay stress =        0.00 kB


 VOLUME and BASIS-vectors are now :
 -----------------------------------------------------------------------------
  energy-cutoff  :     1000.00
  volume of cell :     1371.39
      direct lattice vectors                 reciprocal lattice vectors
    15.258013385  0.006374814  0.024579381     0.065314117  0.034130566  0.130953070
    -7.105142985 13.502791256  0.024499078    -0.000241744  0.073693958  0.130953351
    -7.105097270-11.773071197  6.612175988    -0.000241896 -0.000399920  0.150264152

  length of vectors
    15.258034514 15.258080769 15.258062915     0.150264886  0.150265226  0.150264879


 FORCES acting on ions:
    Electron-Ion                     Ewald-Force                    Non-Local-Force
 -----------------------------------------------------------------------------------------------
   0.368E+02 0.138E+03 -.170E+02   -.366E+02 -.144E+03 0.147E+02   -.174E+00 0.617E+01 0.212E+01
   0.879E+01 0.438E+02 -.368E+02   -.890E+01 -.450E+02 0.364E+02   0.107E+00 0.128E+01 0.425E+00
   -.320E+02 0.805E+02 -.506E+01   0.315E+02 -.854E+02 0.832E+01   0.528E+00 0.446E+01 -.304E+01
   -.519E+02 0.227E+02 0.110E+03   0.525E+02 -.226E+02 -.112E+03   -.556E+00 -.106E+00 0.184E+01
   -.131E+03 -.275E+02 0.526E+02   0.135E+03 0.297E+02 -.577E+02   -.377E+01 -.218E+01 0.487E+01
   -.538E+02 -.184E+02 -.107E+02   0.546E+02 0.187E+02 0.976E+01   -.852E+00 -.328E+00 0.993E+00
   -.494E+02 -.622E+02 0.349E+02   0.549E+02 0.645E+02 -.344E+02   -.500E+01 -.204E+01 -.475E+00
   0.540E+02 -.302E+02 0.107E+03   -.553E+02 0.301E+02 -.109E+03   0.114E+01 -.304E-01 0.156E+01
   0.105E+03 -.928E+02 0.325E+02   -.111E+03 0.942E+02 -.358E+02   0.554E+01 -.134E+01 0.318E+01
   0.346E+02 -.425E+02 -.183E+02   -.357E+02 0.429E+02 0.176E+02   0.108E+01 -.394E+00 0.707E+00
   0.862E+02 -.105E+02 0.481E-01   -.902E+02 0.145E+02 0.146E+01   0.370E+01 -.370E+01 -.141E+01
   0.443E+02 0.843E+02 0.785E+02   -.445E+02 -.860E+02 -.802E+02   0.163E+00 0.137E+01 0.134E+01
   -.368E+02 -.138E+03 0.169E+02   0.366E+02 0.144E+03 -.147E+02   0.173E+00 -.617E+01 -.212E+01
   -.882E+01 -.438E+02 0.368E+02   0.893E+01 0.450E+02 -.364E+02   -.107E+00 -.128E+01 -.425E+00
   0.320E+02 -.805E+02 0.507E+01   -.315E+02 0.854E+02 -.834E+01   -.527E+00 -.446E+01 0.304E+01
   0.519E+02 -.227E+02 -.110E+03   -.525E+02 0.226E+02 0.112E+03   0.556E+00 0.108E+00 -.184E+01
   0.131E+03 0.274E+02 -.526E+02   -.135E+03 -.297E+02 0.577E+02   0.377E+01 0.218E+01 -.487E+01
   0.538E+02 0.184E+02 0.107E+02   -.546E+02 -.187E+02 -.975E+01   0.852E+00 0.328E+00 -.992E+00
   0.494E+02 0.622E+02 -.349E+02   -.548E+02 -.645E+02 0.344E+02   0.500E+01 0.204E+01 0.473E+00
   -.540E+02 0.302E+02 -.107E+03   0.553E+02 -.302E+02 0.109E+03   -.114E+01 0.302E-01 -.156E+01
   -.105E+03 0.928E+02 -.325E+02   0.111E+03 -.942E+02 0.358E+02   -.554E+01 0.134E+01 -.318E+01
   -.346E+02 0.425E+02 0.183E+02   0.357E+02 -.429E+02 -.177E+02   -.108E+01 0.394E+00 -.707E+00
   -.861E+02 0.105E+02 -.676E-01   0.902E+02 -.145E+02 -.144E+01   -.370E+01 0.370E+01 0.141E+01
   -.443E+02 -.844E+02 -.785E+02   0.444E+02 0.860E+02 0.802E+02   -.166E+00 -.137E+01 -.134E+01
   -.293E+02 0.909E+01 0.589E+02   0.299E+02 -.997E+01 -.647E+02   -.591E+00 0.938E+00 0.606E+01
   0.321E+02 -.162E+02 0.558E+02   -.342E+02 0.158E+02 -.613E+02   0.217E+01 0.473E+00 0.575E+01
   0.217E+02 0.477E+02 0.408E+02   -.227E+02 -.506E+02 -.458E+02   0.111E+01 0.303E+01 0.525E+01
   0.293E+02 -.910E+01 -.589E+02   -.299E+02 0.997E+01 0.647E+02   0.592E+00 -.939E+00 -.606E+01
   -.321E+02 0.162E+02 -.558E+02   0.342E+02 -.158E+02 0.613E+02   -.217E+01 -.473E+00 -.575E+01
   -.217E+02 -.477E+02 -.408E+02   0.227E+02 0.506E+02 0.458E+02   -.111E+01 -.303E+01 -.525E+01
   -.566E+01 -.269E+02 0.518E+02   0.967E+01 0.540E+02 -.734E+02   -.398E+01 -.268E+02 0.215E+02
   0.181E+03 0.131E+03 -.273E+03   -.189E+03 -.136E+03 0.315E+03   0.794E+01 0.525E+01 -.424E+02
   -.123E+03 0.679E+02 0.102E+03   0.129E+03 -.476E+02 -.125E+03   -.610E+01 -.199E+02 0.217E+02
   0.457E+02 0.177E+02 0.321E+02   -.779E+02 -.301E+02 -.377E+02   0.318E+02 0.123E+02 0.567E+01
   -.303E+03 0.448E+02 -.174E+03   0.329E+03 -.400E+02 0.209E+03   -.260E+02 -.476E+01 -.344E+02
   0.493E+02 -.113E+03 0.123E+03   -.773E+02 0.106E+03 -.132E+03   0.276E+02 0.764E+01 0.921E+01
   -.211E+02 0.406E+02 0.366E+02   0.432E+02 -.653E+02 -.476E+02   -.219E+02 0.245E+02 0.109E+02
   0.313E+02 -.326E+03 -.130E+03   -.321E+02 0.355E+03 0.163E+03   0.941E+00 -.289E+02 -.324E+02
   0.117E+03 0.118E+03 0.517E+02   -.102E+03 -.141E+03 -.636E+02   -.148E+02 0.234E+02 0.118E+02
   0.564E+01 0.269E+02 -.518E+02   -.964E+01 -.540E+02 0.734E+02   0.398E+01 0.268E+02 -.215E+02
   -.181E+03 -.131E+03 0.273E+03   0.189E+03 0.136E+03 -.315E+03   -.793E+01 -.525E+01 0.424E+02
   0.123E+03 -.678E+02 -.102E+03   -.129E+03 0.476E+02 0.125E+03   0.610E+01 0.199E+02 -.217E+02
   -.458E+02 -.176E+02 -.321E+02   0.779E+02 0.300E+02 0.378E+02   -.318E+02 -.123E+02 -.567E+01
   0.303E+03 -.449E+02 0.174E+03   -.329E+03 0.401E+02 -.209E+03   0.261E+02 0.474E+01 0.344E+02
   -.492E+02 0.113E+03 -.123E+03   0.773E+02 -.105E+03 0.132E+03   -.276E+02 -.765E+01 -.920E+01
   0.211E+02 -.405E+02 -.366E+02   -.432E+02 0.652E+02 0.476E+02   0.219E+02 -.245E+02 -.109E+02
   -.312E+02 0.326E+03 0.130E+03   0.321E+02 -.355E+03 -.163E+03   -.950E+00 0.289E+02 0.324E+02
   -.117E+03 -.118E+03 -.516E+02   0.102E+03 0.141E+03 0.636E+02   0.148E+02 -.234E+02 -.118E+02
   -.798E+02 0.171E+02 0.265E+01   0.784E+02 -.168E+02 -.300E+01   0.188E+01 -.376E+00 0.416E+00
   0.252E+02 -.769E+02 0.106E+02   -.249E+02 0.755E+02 -.108E+02   -.407E+00 0.191E+01 0.181E+00
   0.523E+02 0.560E+02 -.283E+02   -.513E+02 -.552E+02 0.274E+02   -.121E+01 -.110E+01 0.109E+01
   0.798E+02 -.171E+02 -.264E+01   -.784E+02 0.168E+02 0.300E+01   -.188E+01 0.378E+00 -.417E+00
   -.252E+02 0.769E+02 -.106E+02   0.249E+02 -.755E+02 0.108E+02   0.407E+00 -.192E+01 -.179E+00
   -.523E+02 -.560E+02 0.283E+02   0.514E+02 0.552E+02 -.274E+02   0.121E+01 0.110E+01 -.109E+01
 -----------------------------------------------------------------------------------------------
   0.437E-02 -.142E-01 -.434E-02   0.142E-13 0.242E-12 0.320E-13   -.381E-02 0.108E-01 0.432E-02
 
 
 POSITION                                       TOTAL-FORCE (eV/Angst)
 -----------------------------------------------------------------------------------
      7.59511      2.64755      1.18809        -0.017754     -0.297864     -0.134984
      7.63873      1.30894      0.54329        -0.003689      0.011484      0.027890
     -6.43784      2.86224      5.76282        -0.040350     -0.433801      0.258539
     -6.45160      1.54590      5.28467         0.042676      0.009495     -0.411189
     -5.07078      5.91373      2.32906         0.182610      0.075579     -0.259990
     -4.33584      6.35007      1.11298         0.002332     -0.002217      0.027815
      3.27899     -5.54896      6.42675         0.465965      0.199926      0.012371
      4.09541     -5.13451      5.36685        -0.205170     -0.059868     -0.350711
     -1.19743     -6.36168      4.91918        -0.254954      0.069685     -0.192261
     -2.40204     -6.16560      4.07077         0.012303      0.010697      0.024551
      5.53246      6.62037      2.90060        -0.366814      0.335148      0.108829
      4.37425      6.93301      2.17788        -0.015050     -0.235404     -0.338895
     -6.54734     -0.91088      5.47311         0.017831      0.297794      0.135310
     -6.59084      0.42773      6.11788         0.003314     -0.012609     -0.027289
      7.48575     -1.12559      0.89836         0.040491      0.435071     -0.259286
      7.49946      0.19072      1.37651        -0.042406     -0.005963      0.409300
      6.11852     -4.17693      4.33219        -0.178381     -0.074536      0.264261
      5.38356     -4.61337      5.54826        -0.001752      0.002969     -0.026241
     -2.23129      7.28571      0.23459        -0.464410     -0.198887     -0.016556
     -3.04766      6.87118      1.29440         0.204806      0.059738      0.352152
      2.24508      8.09818      1.74212         0.256342     -0.069617      0.192969
      3.44979      7.90210      2.59056        -0.011947     -0.011274     -0.024515
     -4.48465     -4.88386      3.76077         0.363130     -0.333215     -0.110641
     -3.32642     -5.19653      4.48345         0.010200      0.237639      0.336964
     -6.34631      1.38326      4.21249        -0.017528      0.065014      0.254606
      3.70895     -5.21906      4.35174         0.066694      0.015669      0.251832
      4.18117      6.39460      1.25052         0.066519      0.111138      0.230081
      7.39408      0.35351      2.44864         0.017565     -0.065705     -0.253635
     -2.66112      6.95567      2.30948        -0.067217     -0.015524     -0.251380
     -3.13344     -4.65798      5.41066        -0.065243     -0.110609     -0.227781
      7.76122      3.68660      0.43750         0.024008      0.303094     -0.165207
      7.40383      2.77061      2.43852        -0.051196      0.078939      0.425432
     -6.30653      3.87970      4.88258         0.078443      0.333768     -0.353016
     -6.27463      5.46731      2.18121        -0.320378     -0.140394      0.001813
     -4.53666      5.97898      3.48050         0.147002      0.019186      0.409458
      2.05194     -6.04679      6.15509        -0.445943     -0.147253     -0.144312
     -0.35557     -7.27894      4.57230         0.258756     -0.226404     -0.067609
     -0.99934     -5.65370      5.95586         0.093063      0.217103      0.369864
      6.37140      5.67555      2.42043         0.262238     -0.371148     -0.199018
     -6.71344     -1.94995      6.22364        -0.024381     -0.303059      0.167034
     -6.35615     -1.03396      4.22271         0.051147     -0.078092     -0.427637
      7.35449     -2.14299      1.77856        -0.078233     -0.337329      0.355314
      7.32258     -3.73083      4.48014         0.315159      0.138952     -0.003713
      5.58434     -4.24178      3.18082        -0.146419     -0.019969     -0.410987
     -1.00428      7.78374      0.50622         0.444633      0.145467      0.145465
      1.40320      9.01549      2.08911        -0.256259      0.221663      0.064429
      2.04712      7.39009      0.70540        -0.094303     -0.212785     -0.366174
     -5.32367     -3.93889      4.24083        -0.257208      0.366467      0.198251
      1.51449     -7.74281      5.18874         0.077875      0.004038     -0.013096
      7.51420      5.67007      0.74920        -0.044445      0.064446     -0.008955
     -7.55659      4.51281      3.42128        -0.033255     -0.066472      0.023689
     -0.46680      9.47956      1.47260        -0.077643     -0.003447      0.011688
     -6.46642     -3.93339      5.91213         0.044147     -0.064563      0.008877
      8.60443     -2.77629      3.23998         0.033080      0.067837     -0.023706
 -----------------------------------------------------------------------------------
    total drift:                                0.000561     -0.003319     -0.000024


--------------------------------------------------------------------------------------------------------



  FREE ENERGIE OF THE ION-ELECTRON SYSTEM (eV)
  ---------------------------------------------------
  free  energy   TOTEN  =      -314.82640201 eV

  energy  without entropy=     -314.82640201  energy(sigma->0) =     -314.82640201
 


--------------------------------------------------------------------------------------------------------


    POTLOK:  cpu time     17.8965: real time     17.9663


--------------------------------------------------------------------------------------------------------


 writing wavefunctions
     LOOP+:  cpu time  29795.3126: real time  30022.5673
    4ORBIT:  cpu time      0.0000: real time      0.0000

 total amount of memory used by VASP MPI-rank0   354938. kBytes
=======================================================================

   base      :      30000. kBytes
   nonlr-proj:      47485. kBytes
   fftplans  :      44218. kBytes
   grid      :     223518. kBytes
   one-center:        219. kBytes
   wavefun   :       9498. kBytes
 
  
  
 General timing and accounting informations for this job:
 ========================================================
  
                  Total CPU time used (sec):    29833.705
                            User time (sec):    29764.509
                          System time (sec):       69.196
                         Elapsed time (sec):    30062.300
  
                   Maximum memory used (kb):     1064948.
                   Average memory used (kb):          N/A
  
                          Minor page faults:       726216
                          Major page faults:            3
                 Voluntary context switches:       327727
