SYSTEM = MOFCO2

# Electronic Relaxation
ISTART = 0
ICHARG = 2
ISMEAR = 0  # Gaussian smearing
SIGMA = 0.1
PREC = Accurate

# Spin polarization

# Convergence criteria
EDIFF = 1E-5
NELM = 500

# Ion relaxation (turn off ionic optimization)
IBRION = -1  # No ionic relaxation
NSW = 0  # Number of ionic steps to perform (0 means no ionic steps)

# Electronic minimization
ALGO = All
TIME = 0.05
LREAL = Auto

# HSE06 calculation

LHFCALC = .TRUE.
GGA = PE
HFSCREEN = 0.2
LASPH = .TRUE.
PRECFOCK = Normal

#van der Waals
IVDW = 11
VDW_S8 = 0.109
VDW_SR = 1.129

# Output settings
LWAVE = .TRUE.
LCHARG = .TRUE.
NWRITE = 1
