 vasp.6.2.1 16May21 (build Aug 03 2024 02:50:01) gamma-only                     
  
 executed on             LinuxIFC date 2024.09.05  15:28:43
 running on  128 total cores
 distrk:  each k-point on  128 cores,    1 groups
 distr:  one band on NCORE=   1 cores,  128 groups


--------------------------------------------------------------------------------------------------------


 INCAR:
   SYSTEM = MOFCO2
   ISMEAR = 0
   SIGMA = 0.1
   ENCUT = 320.
   PREC = Accurate
   ISYM = -1
   NELM = 1
   IBRION = -1
   NSW = 0
   ALGO = sub
   NBANDS = 18176
   NBANDSLOW = 131
   TIME = 0.05
   LHFCALC = .TRUE.
   AEXX = 1
   LASPH = .TRUE.
   PRECFOCK = Normal
   LWAVE = .TRUE.
   LCHARG = .TRUE.
   NWRITE = 1
   LORBIT = 11

 POTCAR:    PAW_PBE C_GW 28Sep2005                
 POTCAR:    PAW_PBE H_GW 21Apr2008                
 POTCAR:    PAW_PBE O_GW 28Sep2005                
 POTCAR:    PAW_PBE Fe_sv_GW 05Dec2013            
 -----------------------------------------------------------------------------
|                                                                             |
|           W    W    AA    RRRRR   N    N  II  N    N   GGGG   !!!           |
|           W    W   A  A   R    R  NN   N  II  NN   N  G    G  !!!           |
|           W    W  A    A  R    R  N N  N  II  N N  N  G       !!!           |
|           W WW W  AAAAAA  RRRRR   N  N N  II  N  N N  G  GGG   !            |
|           WW  WW  A    A  R   R   N   NN  II  N   NN  G    G                |
|           W    W  A    A  R    R  N    N  II  N    N   GGGG   !!!           |
|                                                                             |
|     For optimal performance we recommend to set                             |
|       NCORE = 2 up to number-of-cores-per-socket                            |
|     NCORE specifies how many cores store one orbital (NPAR=cpu/NCORE).      |
|     This setting can greatly improve the performance of VASP for DFT.       |
|     The default, NCORE=1 might be grossly inefficient on modern             |
|     multi-core architectures or massively parallel machines. Do your        |
|     own testing! More info at https://www.vasp.at/wiki/index.php/NCORE      |
|     Unfortunately you need to use the default for GW and RPA                |
|     calculations (for HF NCORE is supported but not extensively tested      |
|     yet).                                                                   |
|                                                                             |
 -----------------------------------------------------------------------------

 POTCAR:    PAW_PBE C_GW 28Sep2005                
  local pseudopotential read in
  kinetic energy density of atom read in
  atomic valenz-charges read in
  non local Contribution for L=           0  read in
    real space projection operators read in
  non local Contribution for L=           0  read in
    real space projection operators read in
  non local Contribution for L=           1  read in
    real space projection operators read in
  non local Contribution for L=           1  read in
    real space projection operators read in
    PAW grid and wavefunctions read in
 
   number of l-projection  operators is LMAX  =           4
   number of lm-projection operators is LMMAX =           8
 
 POTCAR:    PAW_PBE H_GW 21Apr2008                
  local pseudopotential read in
  kinetic energy density of atom read in
  atomic valenz-charges read in
  non local Contribution for L=           0  read in
    real space projection operators read in
  non local Contribution for L=           0  read in
    real space projection operators read in
  non local Contribution for L=           1  read in
    real space projection operators read in
  non local Contribution for L=           1  read in
    real space projection operators read in
  non local Contribution for L=           2  read in
    real space projection operators read in
    PAW grid and wavefunctions read in
 
   number of l-projection  operators is LMAX  =           5
   number of lm-projection operators is LMMAX =          13
 
 POTCAR:    PAW_PBE O_GW 28Sep2005                
  local pseudopotential read in
  kinetic energy density of atom read in
  atomic valenz-charges read in
  non local Contribution for L=           0  read in
    real space projection operators read in
  non local Contribution for L=           0  read in
    real space projection operators read in
  non local Contribution for L=           1  read in
    real space projection operators read in
  non local Contribution for L=           1  read in
    real space projection operators read in
    PAW grid and wavefunctions read in
 
   number of l-projection  operators is LMAX  =           4
   number of lm-projection operators is LMMAX =           8
 
 POTCAR:    PAW_PBE Fe_sv_GW 05Dec2013            
  local pseudopotential read in
  partial core-charges read in
  partial kinetic energy density read in
  kinetic energy density of atom read in
  atomic valenz-charges read in
  non local Contribution for L=           0  read in
    real space projection operators read in
  non local Contribution for L=           0  read in
    real space projection operators read in
  non local Contribution for L=           0  read in
    real space projection operators read in
  non local Contribution for L=           1  read in
    real space projection operators read in
  non local Contribution for L=           1  read in
    real space projection operators read in
  non local Contribution for L=           1  read in
    real space projection operators read in
  non local Contribution for L=           2  read in
    real space projection operators read in
  non local Contribution for L=           2  read in
    real space projection operators read in
  non local Contribution for L=           2  read in
    real space projection operators read in
  non local Contribution for L=           3  read in
    real space projection operators read in
  non local Contribution for L=           3  read in
    real space projection operators read in
    PAW grid and wavefunctions read in
 
   number of l-projection  operators is LMAX  =          11
   number of lm-projection operators is LMMAX =          41
 
 -----------------------------------------------------------------------------
|                                                                             |
|               ----> ADVICE to this user running VASP <----                  |
|                                                                             |
|     You have a (more or less) 'large supercell' and for larger cells it     |
|     might be more efficient to use real-space projection operators.         |
|     Therefore, try LREAL= Auto in the INCAR file.                           |
|     Mind: For very accurate calculation, you might also keep the            |
|     reciprocal projection scheme (i.e. LREAL=.FALSE.).                      |
|                                                                             |
 -----------------------------------------------------------------------------

  PAW_PBE C_GW 28Sep2005                :
 energy of atom  1       EATOM= -147.1560
 kinetic energy error for atom=    0.1682 (will be added to EATOM!!)
  PAW_PBE H_GW 21Apr2008                :
 energy of atom  2       EATOM=  -12.4884
 kinetic energy error for atom=    0.0737 (will be added to EATOM!!)
  PAW_PBE O_GW 28Sep2005                :
 energy of atom  3       EATOM= -432.3788
 kinetic energy error for atom=    0.7698 (will be added to EATOM!!)
  PAW_PBE Fe_sv_GW 05Dec2013            :
 energy of atom  4       EATOM=-3376.4015
 kinetic energy error for atom=    1.3391 (will be added to EATOM!!)
 
 
 POSCAR:  C  H  O Fe
  positions in direct lattice
  No initial velocities read in
 exchange correlation table for  LEXCH =        8
   RHO(1)=    0.500       N(1)  =     2000
   RHO(2)=  100.500       N(2)  =     4000
 


--------------------------------------------------------------------------------------------------------


 ion  position               nearest neighbor table
   1  0.295  0.941  0.220-  32 1.17  33 1.18
   2  0.032  0.132  0.567-  35 1.36   7 1.40  22 1.43
   3  0.081  0.617  0.166-   8 1.40  23 1.43   6 1.49
   4  0.131  0.566  0.032-  37 1.36   8 1.40  24 1.43
   5  0.166  0.081  0.617-   7 1.40  25 1.43  11 1.49
   6  0.179  0.747  0.349-  41 1.27  34 1.29   3 1.49
   7  0.192  0.205  0.678-  27 1.09   2 1.40   5 1.40
   8  0.205  0.677  0.192-  28 1.09   4 1.40   3 1.40
   9  0.253  0.651  0.822-  36 1.27  38 1.29  12 1.49
  10  0.322  0.808  0.795-  26 1.09  13 1.40  12 1.40
  11  0.349  0.179  0.747-  43 1.27  39 1.29   5 1.49
  12  0.383  0.834  0.919-  10 1.40  14 1.43   9 1.49
  13  0.433  0.968  0.868-  40 1.36  10 1.40  15 1.43
  14  0.567  0.032  0.132-  45 1.36  17 1.40  12 1.43
  15  0.617  0.166  0.081-  17 1.40  13 1.43  18 1.49
  16  0.651  0.821  0.253-  42 1.27  46 1.29  22 1.49
  17  0.678  0.192  0.205-  31 1.09  14 1.40  15 1.40
  18  0.747  0.349  0.178-  49 1.27  47 1.29  15 1.49
  19  0.795  0.323  0.808-  29 1.09  23 1.40  24 1.40
  20  0.808  0.795  0.322-  30 1.09  25 1.40  22 1.40
  21  0.821  0.253  0.651-  44 1.27  51 1.29  24 1.49
  22  0.834  0.919  0.383-  20 1.40   2 1.43  16 1.49
  23  0.869  0.434  0.968-  48 1.36  19 1.40   3 1.43
  24  0.919  0.383  0.834-  19 1.40   4 1.43  21 1.49
  25  0.968  0.868  0.433-  50 1.36  20 1.40   5 1.43
  26  0.182  0.656  0.634-  10 1.09
  27  0.344  0.366  0.818-   7 1.09
  28  0.366  0.817  0.344-   8 1.09
  29  0.634  0.183  0.656-  19 1.09
  30  0.656  0.634  0.182-  20 1.09
  31  0.818  0.344  0.366-  17 1.09
  32  0.310  0.006  0.317-   1 1.17
  33  0.278  0.875  0.120-   1 1.18
  34  0.067  0.696  0.328-   6 1.29  54 2.11  52 2.12
  35  0.073  0.264  0.640-   2 1.36  57 2.06  55 2.07
  36  0.098  0.479  0.633-   9 1.27  57 2.07
  37  0.264  0.638  0.074-   4 1.36  55 2.05  56 2.09
  38  0.303  0.671  0.933-   9 1.29  56 2.10  55 2.12
  39  0.328  0.067  0.696-  11 1.29  52 2.10  53 2.12
  40  0.361  0.926  0.736-  13 1.36  53 2.06  52 2.08
  41  0.367  0.903  0.521-   6 1.27  53 2.07
  42  0.479  0.633  0.098-  16 1.27  55 2.07
  43  0.521  0.367  0.902-  11 1.27  54 2.07
  44  0.633  0.097  0.479-  21 1.27  56 2.07
  45  0.639  0.074  0.264-  14 1.36  56 2.06  57 2.08
  46  0.672  0.933  0.304-  16 1.29  57 2.10  56 2.12
  47  0.697  0.329  0.067-  18 1.29  53 2.10  54 2.12
  48  0.736  0.362  0.926-  23 1.36  54 2.05  53 2.09
  49  0.902  0.521  0.367-  18 1.27  52 2.07
  50  0.927  0.736  0.360-  25 1.36  52 2.06  54 2.07
  51  0.933  0.304  0.672-  21 1.29  55 2.11  57 2.12
  52  0.107  0.783  0.515-  50 2.06  49 2.07  40 2.08  39 2.10  34 2.12
  53  0.515  0.107  0.783-  40 2.06  41 2.07  48 2.09  47 2.10  39 2.12
  54  0.783  0.516  0.106-  48 2.05  50 2.07  43 2.07  34 2.11  47 2.12
  55  0.217  0.484  0.894-  37 2.05  35 2.07  42 2.07  51 2.11  38 2.12
  56  0.485  0.893  0.217-  45 2.06  44 2.07  37 2.09  38 2.10  46 2.12
  57  0.893  0.217  0.485-  35 2.06  36 2.07  45 2.08  46 2.10  51 2.12
 

IMPORTANT INFORMATION: All symmetrisations will be switched off!
NOSYMM: (Re-)initialisation of all symmetry stuff for point group C_1.


----------------------------------------------------------------------------------------

                                     Primitive cell                                     

  volume of cell :    1403.0148

  direct lattice vectors                    reciprocal lattice vectors
    15.439217752  0.004465832 -0.038376892     0.065085042  0.034326685  0.130688713
    -7.186282924 13.630928377 -0.001416099     0.000303919  0.073536393  0.130825479
    -7.182834812-11.890639092  6.700359279     0.000372844  0.000212151  0.150021909

  length of vectors
    15.439266094 15.409246337 15.423204220     0.149979744  0.150076646  0.150022522

  position of ions in fractional coordinates (direct lattice)
     0.295019501  0.941160170  0.219875959
     0.032140205  0.131596472  0.567243074
     0.080939400  0.617136620  0.166081282
     0.131311660  0.566131401  0.032072370
     0.166052468  0.080890174  0.616656951
     0.178934143  0.747136406  0.349358741
     0.192223384  0.205099135  0.677753253
     0.204817095  0.677208988  0.192172431
     0.252895436  0.650728993  0.821583851
     0.322307724  0.807597299  0.795016362
     0.349319458  0.178891109  0.746556755
     0.382922059  0.833947320  0.919292900
     0.433306216  0.967704379  0.868314174
     0.566693754  0.032295640  0.131685826
     0.617077941  0.166052695  0.080707123
     0.650680572  0.821108876  0.253443275
     0.677692276  0.192402701  0.204983653
     0.747104594  0.349271007  0.178416179
     0.795182905  0.322791042  0.807827584
     0.807776602  0.794900865  0.322246747
     0.821065842  0.252863594  0.650641229
     0.833947517  0.919109811  0.383343020
     0.868688340  0.433868599  0.967927620
     0.919060577  0.382863380  0.833918703
     0.967859819  0.868403528  0.432756926
     0.182479428  0.655565764  0.633945057
     0.344103209  0.366270524  0.817662957
     0.365791429  0.816735938  0.344089651
     0.634208571  0.183264047  0.655910379
     0.655896791  0.633729476  0.182337028
     0.817520572  0.344434206  0.366054943
     0.309634406  0.006275347  0.316899865
     0.277845133  0.874684412  0.119782242
     0.067421933  0.696011040  0.328229224
     0.073185170  0.264301200  0.639867354
     0.097668867  0.478758507  0.633498145
     0.264148327  0.637872795  0.073659183
     0.302715318  0.671496338  0.932846989
     0.328490557  0.067484104  0.696479021
     0.361353031  0.926373201  0.735541372
     0.367302190  0.903369468  0.521413749
     0.478945773  0.633023796  0.098161017
     0.521054227  0.366976174  0.901838960
     0.632697810  0.096630539  0.478586221
     0.638646969  0.073626784  0.264458628
     0.671509473  0.932515918  0.303521008
     0.697284712  0.328503632  0.067153018
     0.735851673  0.362127205  0.926340817
     0.902331148  0.521241523  0.366501884
     0.926814852  0.735698800  0.360132676
     0.932578089  0.303988990  0.671770806
     0.107174485  0.783307327  0.515334558
     0.515337162  0.106795323  0.782801462
     0.783372319  0.515771295  0.106356464
     0.216627696  0.484228705  0.893643529
     0.484662838  0.893204670  0.217198508
     0.892825508  0.216692673  0.484665412

  ion indices of the primitive-cell ions
   primitive index   ion index
                 1           1
                 2           2
                 3           3
                 4           4
                 5           5
                 6           6
                 7           7
                 8           8
                 9           9
                10          10
                11          11
                12          12
                13          13
                14          14
                15          15
                16          16
                17          17
                18          18
                19          19
                20          20
                21          21
                22          22
                23          23
                24          24
                25          25
                26          26
                27          27
                28          28
                29          29
                30          30
                31          31
                32          32
                33          33
                34          34
                35          35
                36          36
                37          37
                38          38
                39          39
                40          40
                41          41
                42          42
                43          43
                44          44
                45          45
                46          46
                47          47
                48          48
                49          49
                50          50
                51          51
                52          52
                53          53
                54          54
                55          55
                56          56
                57          57

----------------------------------------------------------------------------------------

 
 
 KPOINTS: KPOINTS                                 

Automatic generation of k-mesh.
 Grid dimensions read from file:
 generate k-points for:    1    1    1

 Generating k-lattice:

  Cartesian coordinates                     Fractional coordinates (reciprocal lattice)
     0.065085042  0.034326685  0.130688713     1.000000000  0.000000000 -0.000000000
     0.000303919  0.073536393  0.130825479     0.000000000  1.000000000  0.000000000
     0.000372844  0.000212151  0.150021909    -0.000000000  0.000000000  1.000000000

  Length of vectors
     0.149979744  0.150076646  0.150022522

  Shift w.r.t. Gamma in fractional coordinates (k-lattice)
     0.000000000  0.000000000  0.000000000

 
 Subroutine IBZKPT returns following result:
 ===========================================
 
 Found      1 irreducible k-points:
 
 Following reciprocal coordinates:
            Coordinates               Weight
  0.000000  0.000000  0.000000      1.000000
 
 Following cartesian coordinates:
            Coordinates               Weight
  0.000000  0.000000  0.000000      1.000000
 
 WARNING: full set of k-points will be restricted to regular points only.

 
 Subroutine IBZKPT_HF returns following result:
 ==============================================
 
 Found      1 k-points in 1st BZ
 the following      1 k-points will be used (e.g. in the exchange kernel)
 Following reciprocal coordinates:   # in IRBZ
  0.000000  0.000000  0.000000    1.00000000   1 t-inv F


--------------------------------------------------------------------------------------------------------




 Dimension of arrays:
   k-points           NKPTS =      1   k-points in BZ     NKDIM =      1   number of bands    NBANDS=  18176
   number of dos      NEDOS =    301   number of ions     NIONS =     57
   non local maximal  LDIM  =     11   non local SUM 2l+1 LMDIM =     41
   total plane-waves  NPLWV = 729000
   max r-space proj   IRMAX =      1   max aug-charges    IRDMAX=  12993
   dimension x,y,z NGX =    90 NGY =   90 NGZ =   90
   dimension x,y,z NGXF=   180 NGYF=  180 NGZF=  180
   support grid    NGXF=   180 NGYF=  180 NGZF=  180
   ions per type =              25   6  20   6
   lowest and highest band optimized NBANDSLOW=     131 NBANDSHIGH=      -1
   NGX,Y,Z   is equivalent  to a cutoff of   9.69,  9.71,  9.70 a.u.
   NGXF,Y,Z  is equivalent  to a cutoff of  19.38, 19.42, 19.40 a.u.

 SYSTEM =  MOFCO2                                  
 POSCAR =   C  H  O Fe                             

 Startparameter for this run:
   NWRITE =      1    write-flag & timer
   PREC   = accura    normal or accurate (medium, high low for compatibility)
   ISTART =      1    job   : 0-new  1-cont  2-samecut
   ICHARG =      0    charge: 1-file 2-atom 10-const
   ISPIN  =      1    spin polarized calculation?
   LNONCOLLINEAR =      F non collinear calculations
   LSORBIT =      F    spin-orbit coupling
   INIWAV =      1    electr: 0-lowe 1-rand  2-diag
   LASPH  =      T    aspherical Exc in radial PAW
 Electronic Relaxation 1
   ENCUT  =  320.0 eV  23.52 Ry    4.85 a.u.  22.52 22.48 22.50*2*pi/ulx,y,z
   ENINI  =  320.0     initial cutoff
   ENAUG  =  963.7 eV  augmentation charge cutoff
   NELM   =      1;   NELMIN=  2; NELMDL=  0     # of ELM steps 
   EDIFF  = 0.1E-03   stopping-criterion for ELM
   LREAL  =      F    real-space projection
   NLSPLINE    = F    spline interpolate recip. space projectors
   LCOMPAT=      F    compatible to vasp.4.4
   GGA_COMPAT  = T    GGA compatible to vasp.4.4-vasp.4.6
   LMAXPAW     = -100 max onsite density
   LMAXMIX     =    2 max onsite mixed and CHGCAR
   VOSKOWN=      0    Vosko Wilk Nusair interpolation
   ROPT   =    0.00000   0.00000   0.00000   0.00000
 Ionic relaxation
   EDIFFG = 0.1E-02   stopping-criterion for IOM
   NSW    =      0    number of steps for IOM
   NBLOCK =      1;   KBLOCK =      1    inner block; outer block 
   IBRION =     -1    ionic relax: 0-MD 1-quasi-New 2-CG
   NFREE  =      0    steps in history (QN), initial steepest desc. (CG)
   ISIF   =      0    stress and relaxation
   IWAVPR =     10    prediction:  0-non 1-charg 2-wave 3-comb
   ISYM   =     -1    0-nonsym 1-usesym 2-fastsym
   LCORR  =      T    Harris-Foulkes like correction to forces

   POTIM  = 0.5000    time-step for ionic-motion
   TEIN   =    0.0    initial temperature
   TEBEG  =    0.0;   TEEND  =   0.0 temperature during run
   SMASS  =  -3.00    Nose mass-parameter (am)
   estimated Nose-frequenzy (Omega)   =  0.10E-29 period in steps = 0.13E+47 mass=  -0.545E-26a.u.
   SCALEE = 1.0000    scale energy and forces
   NPACO  =    256;   APACO  = 16.0  distance and # of slots for P.C.
   PSTRESS=    0.0 pullay stress

  Mass of Ions in am
   POMASS =  12.01  1.00 16.00 55.85
  Ionic Valenz
   ZVAL   =   4.00  1.00  6.00 16.00
  Atomic Wigner-Seitz radii
   RWIGS  =  -1.00 -1.00 -1.00 -1.00
  virtual crystal weights 
   VCA    =   1.00  1.00  1.00  1.00
   NELECT =     322.0000    total number of electrons
   NUPDOWN=      -1.0000    fix difference up-down

 DOS related values:
   EMIN   =  10.00;   EMAX   =-10.00  energy-range for DOS
   EFERMI =   0.00
   ISMEAR =     0;   SIGMA  =   0.10  broadening in eV -4-tet -1-fermi 0-gaus

 Electronic relaxation 2 (details)
   IALGO  =      4    algorithm
   LDIAG  =      T    sub-space diagonalisation (order eigenvalues)
   LSUBROT=      F    optimize rotation matrix (better conditioning)
   TURBO    =      0    0=normal 1=particle mesh
   IRESTART =      0    0=no restart 2=restart with 2 vectors
   NREBOOT  =      0    no. of reboots
   NMIN     =      0    reboot dimension
   EREF     =   0.00    reference energy to select bands
   IMIX   =      1    mixing-type and parameters
     AMIX     =   0.40;   BMIX     =  1.00
     AMIX_MAG =   1.60;   BMIX_MAG =  1.00
     AMIN     =   0.10
     WC   =   100.;   INIMIX=   1;  MIXPRE=   1;  MAXMIX= -45

 Intra band minimization:
   WEIMIN = 0.0000     energy-eigenvalue tresh-hold
   EBREAK =  0.14E-08  absolut break condition
   DEPER  =   0.30     relativ break condition  

   TIME   =   0.05     timestep for ELM

  volume/ion in A,a.u.               =      24.61       166.11
  Fermi-wavevector in a.u.,A,eV,Ry     =   1.002319  1.894109 13.669007  1.004644
  Thomas-Fermi vector in A             =   2.134799
 
 Write flags
   LWAVE        =      T    write WAVECAR
   LDOWNSAMPLE  =      F    k-point downsampling of WAVECAR
   LCHARG       =      T    write CHGCAR
   LVTOT        =      F    write LOCPOT, total local potential
   LVHAR        =      F    write LOCPOT, Hartree potential only
   LELF         =      F    write electronic localiz. function (ELF)
   LORBIT       =     11    0 simple, 1 ext, 2 COOP (PROOUT), +10 PAW based schemes


 Dipole corrections
   LMONO  =      F    monopole corrections only (constant potential shift)
   LDIPOL =      F    correct potential (dipole corrections)
   IDIPOL =      0    1-x, 2-y, 3-z, 4-all directions 
   EPSILON=  1.0000000 bulk dielectric constant

 Exchange correlation treatment:
   GGA     =    --    GGA type
   LEXCH   =     8    internal setting for exchange type
   VOSKOWN=      0    Vosko Wilk Nusair interpolation
   EXXOEP  =     0    0=HF, 1=EXX-LHF (local Hartree Fock) 2=EXX OEP
   LHFCALC =     T    Hartree Fock is set to
   LSYMGRAD=     F    symmetrize gradient (conserves proper symmetry)
   PRECFOCK=normal    Normal, Fast or Accurate (Low or Medium for compatibility)
   LRHFCALC=     F    long range Hartree Fock
   LRSCOR  =     F    long range correlation only (use DFT for short range part)
   LTHOMAS =     F    Thomas Fermi screening in HF
   LMODELHF=     F    short range full HF, long range fraction AEXX
   LFOCKACE=     T    use Adeptively-Compressed-Exchange operator
   ENCUT4O =  -1.0   cutoff for four orbital integrals eV
   LMAXFOCK=     4    L truncation for augmentation on plane wave grid
   LMAXFOCKAE=  -1    L truncation for all-electron charge restoration on plane wave grid
   NMAXFOCKAE=   1    number of basis functions for all-electron charge restoration
   LFOCKAEDFT=     F  apply the AE augmentation even for DFT
   NKREDX  =     1    reduce k-point grid by
   NKREDY  =     1    reduce k-point grid by
   NKREDZ  =     1    reduce k-point grid by
   SHIFTRED=     F    shift reduced grid of Gamma
   HFKIDENT=     F    idential grid for each k-point
   ODDONLY =     F    use only odd q-grid points
   EVENONLY=     F    use only even q-grid points
   HFALPHA =   -1.0000 decay constant for conv. correction
   MCALPHA =    0.0000 extent of test-charge in conv. correction in multipole expansion
   AEXX    =    1.0000 exact exchange contribution
   HFSCREEN=    0.0000 screening length (either q_TF or 0.3 A-1)
   HFSCREENC=   0.0000 screening length for correlation (either q_TF or 0.3 A-1)
   HFRCUT  =    0.0000 spherical cutoff for potential kernel
   ALDAX   =    0.0000 LDA exchange part
   AGGAX   =    0.0000 GGA exchange part
   ALDAC   =    0.0000 LDA correlation
   AGGAC   =    0.0000 GGA correlation
   ENCUTFOCK=  -1.0 apply spherical cutoff to Coloumb kernel
   NBANDSGWLOW=     1    first orbital included in HF term
   NBLOCK_FOCK=    64    blocking factor in FOCK_ACC
 Linear response parameters
   LEPSILON=     F    determine dielectric tensor
   LRPA    =     F    only Hartree local field effects (RPA)
   LNABLA  =     F    use nabla operator in PAW spheres
   LVEL    =     F    velocity operator in full k-point grid
   CSHIFT  =0.1000    complex shift for real part using Kramers Kronig
   OMEGAMAX=  -1.0    maximum frequency
   DEG_THRESHOLD= 0.2000000E-02 threshold for treating states as degnerate
   RTIME   =   -0.100 relaxation time in fs
  (WPLASMAI=    0.000 imaginary part of plasma frequency in eV, 0.658/RTIME)
   DFIELD  = 0.0000000 0.0000000 0.0000000 field for delta impulse in time
 
  Optional k-point grid parameters
   LKPOINTS_OPT  =     F    use optional k-point grid
   KPOINTS_OPT_MODE=     1    mode for optional k-point grid
 
 Orbital magnetization related:
   ORBITALMAG=     F  switch on orbital magnetization
   LCHIMAG   =     F  perturbation theory with respect to B field
   DQ        =  0.001000  dq finite difference perturbation B field
   LLRAUG    =     F  two centre corrections for induced B field



--------------------------------------------------------------------------------------------------------


 Static calculation
 charge density and potential will be updated during run
 non-spin polarized calculation
 Subrot: only subspace diagonalization (rotation)
    band-by band algorithm
 perform sub-space diagonalisation
    before iterative eigenvector-optimisation
 Kerker-like  mixing scheme
 using additional bands        18015
 reciprocal scheme for non local part
 use partial core corrections
 calculate Harris-corrections to forces 
   (improved forces if not selfconsistent)
 use gradient corrections 
 use of overlap-Matrix (Vanderbilt PP)
 Gauss-broadening in eV      SIGMA  =   0.10


--------------------------------------------------------------------------------------------------------


  energy-cutoff  :      320.00
  volume of cell :     1403.01
      direct lattice vectors                 reciprocal lattice vectors
    15.439217752  0.004465832 -0.038376892     0.065085042  0.034326685  0.130688713
    -7.186282924 13.630928377 -0.001416099     0.000303919  0.073536393  0.130825479
    -7.182834812-11.890639092  6.700359279     0.000372844  0.000212151  0.150021909

  length of vectors
    15.439266094 15.409246337 15.423204220     0.149979744  0.150076646  0.150022522


 
 old parameters found on file WAVECAR:
  energy-cutoff  :      320.00
  volume of cell :     1403.01
      direct lattice vectors                 reciprocal lattice vectors
    15.439217752  0.004465832 -0.038376892     0.065085042  0.034326685  0.130688713
    -7.186282924 13.630928377 -0.001416099     0.000303919  0.073536393  0.130825479
    -7.182834812-11.890639092  6.700359279     0.000372844  0.000212151  0.150021909

  length of vectors

 
 k-points in units of 2pi/SCALE and weight: KPOINTS                                 
   0.00000000  0.00000000  0.00000000       1.000
 
 k-points in reciprocal lattice and weights: KPOINTS                                 
   0.00000000  0.00000000  0.00000000       1.000
 
 position of ions in fractional coordinates (direct lattice) 
   0.29501950  0.94116017  0.21987596
   0.03214020  0.13159647  0.56724307
   0.08093940  0.61713662  0.16608128
   0.13131166  0.56613140  0.03207237
   0.16605247  0.08089017  0.61665695
   0.17893414  0.74713641  0.34935874
   0.19222338  0.20509913  0.67775325
   0.20481709  0.67720899  0.19217243
   0.25289544  0.65072899  0.82158385
   0.32230772  0.80759730  0.79501636
   0.34931946  0.17889111  0.74655676
   0.38292206  0.83394732  0.91929290
   0.43330622  0.96770438  0.86831417
   0.56669375  0.03229564  0.13168583
   0.61707794  0.16605269  0.08070712
   0.65068057  0.82110888  0.25344327
   0.67769228  0.19240270  0.20498365
   0.74710459  0.34927101  0.17841618
   0.79518291  0.32279104  0.80782758
   0.80777660  0.79490087  0.32224675
   0.82106584  0.25286359  0.65064123
   0.83394752  0.91910981  0.38334302
   0.86868834  0.43386860  0.96792762
   0.91906058  0.38286338  0.83391870
   0.96785982  0.86840353  0.43275693
   0.18247943  0.65556576  0.63394506
   0.34410321  0.36627052  0.81766296
   0.36579143  0.81673594  0.34408965
   0.63420857  0.18326405  0.65591038
   0.65589679  0.63372948  0.18233703
   0.81752057  0.34443421  0.36605494
   0.30963441  0.00627535  0.31689987
   0.27784513  0.87468441  0.11978224
   0.06742193  0.69601104  0.32822922
   0.07318517  0.26430120  0.63986735
   0.09766887  0.47875851  0.63349814
   0.26414833  0.63787280  0.07365918
   0.30271532  0.67149634  0.93284699
   0.32849056  0.06748410  0.69647902
   0.36135303  0.92637320  0.73554137
   0.36730219  0.90336947  0.52141375
   0.47894577  0.63302380  0.09816102
   0.52105423  0.36697617  0.90183896
   0.63269781  0.09663054  0.47858622
   0.63864697  0.07362678  0.26445863
   0.67150947  0.93251592  0.30352101
   0.69728471  0.32850363  0.06715302
   0.73585167  0.36212720  0.92634082
   0.90233115  0.52124152  0.36650188
   0.92681485  0.73569880  0.36013268
   0.93257809  0.30398899  0.67177081
   0.10717448  0.78330733  0.51533456
   0.51533716  0.10679532  0.78280146
   0.78337232  0.51577130  0.10635646
   0.21662770  0.48422870  0.89364353
   0.48466284  0.89320467  0.21719851
   0.89282551  0.21669267  0.48466541
 
 position of ions in cartesian coordinates  (Angst):
  -3.78790563 10.21573870  1.46059321
  -4.52388317 -4.95095705  3.79931260
  -4.37821175  6.43769394  1.10882413
  -2.27140164  7.33612202  0.20905537
  -2.44692449 -6.22909552  4.12533600
  -5.11591652  6.03086322  2.33290413
  -3.37431139 -5.26236927  4.53352292
  -3.08474249  6.94684887  1.27880509
  -6.67311603 -0.89798737  5.49428014
  -6.53791475  1.55648768  5.31338245
  -1.25473680 -6.43702504  4.98853936
  -6.68409337  0.43820617  6.14371640
  -6.50124571  2.86783369  5.80001762
   7.57134513 -1.12307831  0.86054867
   7.75419311  1.30654888  0.51685004
   2.32483717  8.18177960  1.67202713
   7.60801466  0.18826726  1.34718394
   7.74321629  2.64274213  1.16628635
   4.15484218 -5.20209353  5.38176130
   4.44441119  7.00712439  2.12704337
   6.18601652 -4.28610774  4.32766196
   3.51702459  7.97385078  2.53523010
   3.34150173 -5.59136678  6.45151085
   5.44831152 -4.69293864  5.55174206
   5.59398355  6.69571217  2.86125369
  -6.44726406  1.39877301  4.23972831
  -3.19257720 -4.72839114  5.46491130
  -2.69330113  7.04305679  2.29032977
   3.76340103 -5.29830223  4.37023672
   4.26267732  6.47314643  1.19565489
   7.51736429  0.34598169  2.42083798
   2.45917722 -3.68122035  2.11145126
  -2.85639420 10.49971397  0.79068259
  -6.31840665  5.58472248  2.19568066
  -5.36548293 -4.00543421  4.28415826
  -6.48287571 -1.00633871  4.24023897
  -1.03477259  7.82012327  0.48250251
  -6.85236078 -1.93767650  6.23784180
  -0.41601639 -7.36024271  4.65395766
  -6.36144396  3.88288350  4.91321202
  -4.56623892  6.11546212  3.47828427
   2.14038562  7.46364369  0.63843721
  -1.07028522 -5.71888870  6.02212893
   5.63633910 -4.37070655  3.18228181
   7.43154408 -2.13812859  1.74735427
   1.48611650  9.10499778  2.00660882
   7.92246143  3.68243113  0.42272453
   2.10487260 -6.07536816  6.17806378
   7.55297553  2.75109390  2.42032751
   6.43558307  5.75018897  2.37640822
   7.38850658 -3.83996731  4.46488582
  -7.67594086  4.55002746  3.44770442
   1.56620766 -7.84998885  5.22512277
   7.62423645  5.76929366  0.68183275
  -6.55413615 -4.02453846  5.97873350
  -0.49610738  9.59474423  1.43544332
   8.74604099 -2.80527198  3.21286166
 


--------------------------------------------------------------------------------------------------------


 use serial FFT for orbitals x direction half grid
 k-point   1 :   0.0000 0.0000 0.0000  plane waves:    9119

 maximum and minimum number of plane-waves per node :      9119     9119

 maximum number of plane-waves:      9119
 maximum index in each direction: 
   IXMAX=   22   IYMAX=   19   IZMAX=   19
   IXMIN=    0   IYMIN=  -22   IZMIN=  -22


 serial   3D FFT for wavefunctions
 parallel 3D FFT for charge:
    minimum data exchange during FFTs selected (reduces bandwidth)


 FFT grid for exact exchange (Hartree Fock) 
  NGX = 70; NGY = 70; NGZ = 70

 use serial FFT for orbitals x direction half grid
 
 Radii for the augmentation spheres in the non-local exchange
 for species   1 augmentation radius   0.874 (default was   0.699)
       energy cutoff for augmentation   1280.0
 for species   2 augmentation radius   0.735 (default was   0.588)
       energy cutoff for augmentation   1280.0
 for species   3 augmentation radius   0.902 (default was   0.722)
       energy cutoff for augmentation   1280.0
 for species   4 augmentation radius   1.117 (default was   0.893)
       energy cutoff for augmentation   1280.0
 Maximum index for augmentation-charges in exchange         1435
  SETUP_FOCK is finished

 total amount of memory used by VASP MPI-rank0   119967. kBytes
=======================================================================

   base      :      30000. kBytes
   nonl-proj :      20496. kBytes
   fftplans  :       5045. kBytes
   grid      :      33995. kBytes
   one-center:       2299. kBytes
   HF        :       1344. kBytes
   nonlr-proj:       4977. kBytes
   wavefun   :      21811. kBytes
 
     INWAV:  cpu time      8.7255: real time      8.7770
 charge density for first step will be calculated from the start-wavefunctions


--------------------------------------------------------------------------------------------------------


 Maximum index for augmentation-charges          275 (set IRDMAX)


--------------------------------------------------------------------------------------------------------


 initial charge from wavefunction
    FEWALD:  cpu time      0.0016: real time      0.0018


--------------------------------------- Iteration      1(   1)  ---------------------------------------


    POTLOK:  cpu time      0.0998: real time      0.1321
    SETDIJ:  cpu time      0.3854: real time      0.3863
    EDDIAG:  cpu time   1608.5404: real time   1613.3966
       DOS:  cpu time      0.0022: real time      0.0045
    --------------------------------------------
      LOOP:  cpu time   1609.0278: real time   1613.9195

 eigenvalue-minimisations  :     0
 total energy-change (2. order) :-0.8910489E+03  ( 0.0000000E+00)
 number of electron     322.0000075 magnetization 
 augmentation part       48.9454409 magnetization 

 Free energy of the ion-electron system (eV)
  ---------------------------------------------------
  alpha Z        PSCENC =       379.72439301
  Ewald energy   TEWEN  =     18509.04670523
  -Hartree energ DENC   =    -47229.31284973
  -exchange      EXHF   =      4579.34287048
  -V(xc)+E(xc)   XCENC  =         0.00000000
  PAW double counting   =     32696.89130492   -32919.14419401
  entropy T*S    EENTRO =        -0.00000000
  eigenvalues    EBANDS =     -8568.01410551
  atomic energy  EATOM  =     31660.41701529
  Solvation  Ediel_sol  =         0.00000000
  ---------------------------------------------------
  free energy    TOTEN  =      -891.04886032 eV

  energy without entropy =     -891.04886032  energy(sigma->0) =     -891.04886032
  exchange ACFDT corr.  =         0.00000000  see jH, gK, PRB 81, 115126


--------------------------------------------------------------------------------------------------------




 average (electrostatic) potential at core
  the test charge radii are     0.6991  0.5883  0.7215  0.8933
  (the norm of the test charge is              1.0000)
       1 -45.5880       2 -40.6572       3 -39.4948       4 -40.7468       5 -39.3955
       6 -43.2842       7 -38.8807       8 -38.9544       9 -43.1476      10 -38.8302
      11 -43.2334      12 -39.3303      13 -40.6187      14 -40.5949      15 -39.3495
      16 -43.2155      17 -38.8283      18 -43.2110      19 -39.0013      20 -38.8808
      21 -43.3184      22 -39.3917      23 -40.7469      24 -39.4794      25 -40.6615
      26 -18.7746      27 -18.8201      28 -18.9377      29 -18.9344      30 -18.8229
      31 -18.7727      32 -53.4477      33 -53.5113      34 -50.9765      35 -49.8555
      36 -50.5586      37 -49.8493      38 -50.8275      39 -50.9409      40 -49.8474
      41 -50.6839      42 -50.6248      43 -50.6396      44 -50.7391      45 -49.7589
      46 -50.9086      47 -50.9306      48 -49.9130      49 -50.6143      50 -49.8708
      51 -50.9848      52 -57.4764      53 -57.5030      54 -57.4910      55 -57.4598
      56 -57.3274      57 -57.4381
 
 
 
 E-fermi :  -6.8400     XC(G=0):   0.0000     alpha+bet : -3.7365

 Fermi energy:        -6.8400189614

 k-point     1 :       0.0000    0.0000    0.0000
  band No.  band energies     occupation 
      1    -104.1015      2.00000
      2    -102.0967      2.00000
      3    -101.7234      2.00000
      4    -101.0337      2.00000
      5     -99.1951      2.00000
      6     -82.9975      2.00000
      7     -81.2115      2.00000
      8     -80.4023      2.00000
      9     -80.0753      2.00000
     10     -77.8299      2.00000
     11     -71.0389      2.00000
     12     -70.9485      2.00000
     13     -70.9295      2.00000
     14     -70.9175      2.00000
     15     -70.8919      2.00000
     16     -70.5705      2.00000
     17     -70.3390      2.00000
     18     -70.2984      2.00000
     19     -70.2486      2.00000
     20     -70.1847      2.00000
     21     -31.4070      2.00000
     22     -31.3978      2.00000
     23     -31.3842      2.00000
     24     -31.3457      2.00000
     25     -31.2894      2.00000
     26     -31.2074      2.00000
     27     -31.1994      2.00000
     28     -31.1278      2.00000
     29     -31.1193      2.00000
     30     -31.0907      2.00000
     31     -27.7791      2.00000
     32     -27.7417      2.00000
     33     -27.7301      2.00000
     34     -27.7299      2.00000
     35     -19.9314      2.00000
     36     -19.9291      2.00000
     37     -19.8245      2.00000
     38     -19.8227      2.00000
     39     -19.7758      2.00000
     40     -19.7603      2.00000
     41     -19.6602      2.00000
     42     -19.6574      2.00000
     43     -19.6280      2.00000
     44     -19.6208      2.00000
     45     -19.6179      2.00000
     46     -19.6170      2.00000
     47     -19.5509      2.00000
     48     -19.5496      2.00000
     49     -19.5351      2.00000
     50     -19.5267      2.00000
     51     -19.5258      2.00000
     52     -19.5221      2.00000
     53     -19.5162      2.00000
     54     -19.5033      2.00000
     55     -19.4916      2.00000
     56     -19.4793      2.00000
     57     -19.4688      2.00000
     58     -19.4487      2.00000
     59     -17.1824      2.00000
     60     -17.1599      2.00000
     61     -17.1476      2.00000
     62     -17.1455      2.00000
     63     -17.0715      2.00000
     64     -16.9525      2.00000
     65     -16.9393      2.00000
     66     -16.9234      2.00000
     67     -16.8929      2.00000
     68     -16.8371      2.00000
     69     -16.7630      2.00000
     70     -16.7613      2.00000
     71     -16.7099      2.00000
     72     -16.5913      2.00000
     73     -15.8661      2.00000
     74     -15.8653      2.00000
     75     -15.7029      2.00000
     76     -15.6416      2.00000
     77     -15.5869      2.00000
     78     -15.4682      2.00000
     79     -15.4651      2.00000
     80     -15.3465      2.00000
     81     -15.3441      2.00000
     82     -15.2979      2.00000
     83     -15.2957      2.00000
     84     -14.9564      2.00000
     85     -14.7145      2.00000
     86     -14.6122      2.00000
     87     -14.5429      2.00000
     88     -13.5503      2.00000
     89     -13.4444      2.00000
     90     -13.4420      2.00000
     91     -13.4287      2.00000
     92     -13.4109      2.00000
     93     -12.5157      2.00000
     94     -12.4908      2.00000
     95     -12.4807      2.00000
     96     -12.4674      2.00000
     97     -12.4345      2.00000
     98     -12.4338      2.00000
     99     -12.4230      2.00000
    100     -12.4029      2.00000
    101     -12.3822      2.00000
    102     -12.3760      2.00000
    103     -12.3034      2.00000
    104     -12.2984      2.00000
    105     -12.2665      2.00000
    106     -12.2648      2.00000
    107     -12.2258      2.00000
    108     -11.9898      2.00000
    109     -11.9804      2.00000
    110     -11.9577      2.00000
    111     -11.9187      2.00000
    112     -11.8945      2.00000
    113     -11.5987      2.00000
    114     -11.5506      2.00000
    115     -11.5267      2.00000
    116     -11.5130      2.00000
    117     -11.4734      2.00000
    118     -10.8384      2.00000
    119     -10.8319      2.00000
    120     -10.7580      2.00000
    121     -10.5652      2.00000
    122      -8.7808      2.00000
    123      -8.5885      2.00000
    124      -8.5216      2.00000
    125      -8.5143      2.00000
    126      -8.5046      2.00000
    127      -8.4747      2.00000
    128      -7.7774      2.00000
    129      -7.6251      2.00000
    130      -7.5633      2.00000
    131    -111.6187      2.00000
    132     -71.0594      2.00000
    133     -71.0332      2.00000
    134     -71.0280      2.00000
    135     -38.9209      2.00000
    136     -37.4297      2.00000
    137     -34.4204      2.00000
    138     -34.3535      2.00000
    139     -32.6320      2.00000
    140     -32.5127      2.00000
    141     -19.0935      2.00000
    142     -17.2917      2.00000
    143     -17.1829      2.00000
    144     -16.8407      2.00000
    145     -16.4798      2.00000
    146     -16.0885      2.00000
    147     -15.4748      2.00000
    148     -15.3343      2.00000
    149     -12.9462      2.00000
    150     -12.5659      2.00000
    151     -12.3677      2.00000
    152     -12.2036      2.00000
    153     -11.9626      2.00000
    154     -11.9059      2.00000
    155     -11.6222      2.00000
    156     -11.1833      2.00000
    157     -11.0386      2.00000
    158     -10.8973      2.00000
    159     -10.6755      2.00000
    160      -9.9572      2.00000
    161      -9.7659      2.00000
    162       3.5004      0.00000
    163       4.1970      0.00000
    164       4.2160      0.00000
    165       4.3457      0.00000
    166       4.4628      0.00000
    167       4.5059      0.00000
    168       4.8202      0.00000
    169       4.8645      0.00000
    170       4.9635      0.00000
    171       5.2525      0.00000
    172       6.1962      0.00000
    173       6.2672      0.00000
    174       6.3802      0.00000
    175       6.6114      0.00000
    176       6.6121      0.00000
    177       6.6517      0.00000
    178       6.6756      0.00000
    179       6.7593      0.00000
    180       6.9497      0.00000
    181       7.1144      0.00000
    182       7.2086      0.00000
    183       7.2353      0.00000
    184       7.3079      0.00000
    185       7.4215      0.00000
    186       7.4279      0.00000
    187       7.4840      0.00000
    188       7.5260      0.00000
    189       7.6071      0.00000
    190       7.7189      0.00000
    191       7.7437      0.00000
    192       7.8033      0.00000
    193       7.8351      0.00000
    194       7.8804      0.00000
    195       7.9469      0.00000
    196       8.0975      0.00000
    197       8.1249      0.00000
    198       8.1609      0.00000
    199       8.2567      0.00000
    200       8.2992      0.00000
    201       8.3232      0.00000
    202       8.4712      0.00000
    203       8.7060      0.00000
    204       8.9217      0.00000
    205       8.9612      0.00000
    206       8.9772      0.00000
    207       9.0590      0.00000
    208       9.2082      0.00000
    209       9.2614      0.00000
    210       9.3096      0.00000
    211       9.3688      0.00000
    212       9.5075      0.00000
    213       9.5761      0.00000
    214       9.6939      0.00000
    215       9.7500      0.00000
    216       9.8062      0.00000
    217       9.9051      0.00000
    218       9.9616      0.00000
    219      10.0580      0.00000
    220      10.1390      0.00000
    221      10.1458      0.00000
    222      10.2126      0.00000
    223      10.2941      0.00000
    224      10.3650      0.00000
    225      10.4857      0.00000
    226      10.5678      0.00000
    227      10.5878      0.00000
    228      10.6789      0.00000
    229      10.7492      0.00000
    230      10.7659      0.00000
    231      10.8248      0.00000
    232      10.8448      0.00000
    233      10.8650      0.00000
    234      10.8825      0.00000
    235      10.9394      0.00000
    236      11.0333      0.00000
    237      11.0938      0.00000
    238      11.1282      0.00000
    239      11.1583      0.00000
    240      11.1809      0.00000
    241      11.1926      0.00000
    242      11.2630      0.00000
    243      11.2842      0.00000
    244      11.3572      0.00000
    245      11.3732      0.00000
    246      11.4574      0.00000
    247      11.5275      0.00000
    248      11.5607      0.00000
    249      11.6106      0.00000
    250      11.6822      0.00000
    251      11.7521      0.00000
    252      11.7806      0.00000
    253      11.8688      0.00000
    254      11.9654      0.00000
    255      12.0443      0.00000
    256      12.1671      0.00000
    257      12.2385      0.00000
    258      12.3181      0.00000
    259      12.4009      0.00000
    260      12.4702      0.00000
    261      12.6458      0.00000
    262      12.6500      0.00000
    263      12.6913      0.00000
    264      12.7449      0.00000
    265      12.8324      0.00000
    266      12.8563      0.00000
    267      12.9807      0.00000
    268      13.1504      0.00000
    269      13.2126      0.00000
    270      13.2376      0.00000
    271      13.2840      0.00000
    272      13.3097      0.00000
    273      13.3236      0.00000
    274      13.4474      0.00000
    275      13.5025      0.00000
    276      13.6514      0.00000
    277      13.7309      0.00000
    278      13.8392      0.00000
    279      13.9175      0.00000
    280      13.9473      0.00000
    281      13.9777      0.00000
    282      14.0278      0.00000
    283      14.0946      0.00000
    284      14.0981      0.00000
    285      14.1311      0.00000
    286      14.1608      0.00000
    287      14.2266      0.00000
    288      14.2748      0.00000
    289      14.3433      0.00000
    290      14.3724      0.00000
    291      14.4786      0.00000
    292      14.5410      0.00000
    293      14.5731      0.00000
    294      14.6913      0.00000
    295      14.7597      0.00000
    296      14.7822      0.00000
    297      14.8306      0.00000
    298      14.8746      0.00000
    299      14.9835      0.00000
    300      15.0035      0.00000
    301      15.0762      0.00000
    302      15.1542      0.00000
    303      15.1709      0.00000
    304      15.2178      0.00000
    305      15.3581      0.00000
    306      15.4620      0.00000
    307      15.4907      0.00000
    308      15.5202      0.00000
    309      15.5878      0.00000
    310      15.6472      0.00000
    311      15.6667      0.00000
    312      15.7541      0.00000
    313      15.8405      0.00000
    314      15.8811      0.00000
    315      15.9452      0.00000
    316      15.9585      0.00000
    317      16.0425      0.00000
    318      16.0528      0.00000
    319      16.0789      0.00000
    320      16.0994      0.00000
    321      16.1363      0.00000
    322      16.1916      0.00000
    323      16.1925      0.00000
    324      16.2110      0.00000
    325      16.3229      0.00000
    326      16.3497      0.00000
    327      16.3741      0.00000
    328      16.4259      0.00000
    329      16.5453      0.00000
    330      16.5593      0.00000
    331      16.6214      0.00000
    332      16.7091      0.00000
    333      16.7297      0.00000
    334      16.7801      0.00000
    335      16.8050      0.00000
    336      16.8554      0.00000
    337      16.9216      0.00000
    338      16.9276      0.00000
    339      16.9690      0.00000
    340      16.9845      0.00000
    341      17.0272      0.00000
    342      17.0786      0.00000
    343      17.0975      0.00000
    344      17.2215      0.00000
    345      17.2438      0.00000
    346      17.2616      0.00000
    347      17.3014      0.00000
    348      17.4019      0.00000
    349      17.4573      0.00000
    350      17.4917      0.00000
    351      17.5558      0.00000
    352      17.6104      0.00000
    353      17.6335      0.00000
    354      17.6419      0.00000
    355      17.6879      0.00000
    356      17.7438      0.00000
    357      17.7881      0.00000
    358      17.8255      0.00000
    359      17.8567      0.00000
    360      17.9299      0.00000
    361      17.9531      0.00000
    362      17.9640      0.00000
    363      18.0206      0.00000
    364      18.1219      0.00000
    365      18.1449      0.00000
    366      18.2244      0.00000
    367      18.2874      0.00000
    368      18.3175      0.00000
    369      18.3415      0.00000
    370      18.4019      0.00000
    371      18.4519      0.00000
    372      18.5175      0.00000
    373      18.5512      0.00000
    374      18.5931      0.00000
    375      18.6399      0.00000
    376      18.6789      0.00000
    377      18.6799      0.00000
    378      18.6965      0.00000
    379      18.7185      0.00000
    380      18.7442      0.00000
    381      18.8023      0.00000
    382      18.8329      0.00000
    383      18.8714      0.00000
    384      18.9164      0.00000
    385      19.0260      0.00000
    386      19.0411      0.00000
    387      19.0562      0.00000
    388      19.1457      0.00000
    389      19.1908      0.00000
    390      19.2004      0.00000
    391      19.2360      0.00000
    392      19.2790      0.00000
    393      19.3024      0.00000
    394      19.3206      0.00000
    395      19.3491      0.00000
    396      19.4174      0.00000
    397      19.4438      0.00000
    398      19.4624      0.00000
    399      19.5182      0.00000
    400      19.5592      0.00000
    401      19.6636      0.00000
    402      19.6877      0.00000
    403      19.7154      0.00000
    404      19.7946      0.00000
    405      19.8745      0.00000
    406      19.9882      0.00000
    407      20.0597      0.00000
    408      20.1315      0.00000
    409      20.1986      0.00000
    410      20.2484      0.00000
    411      20.2522      0.00000
    412      20.2831      0.00000
    413      20.3508      0.00000
    414      20.3669      0.00000
    415      20.4254      0.00000
    416      20.4580      0.00000
    417      20.4995      0.00000
    418      20.5615      0.00000
    419      20.6327      0.00000
    420      20.6891      0.00000
    421      20.7491      0.00000
    422      20.7797      0.00000
    423      20.8185      0.00000
    424      20.8240      0.00000
    425      20.9181      0.00000
    426      20.9446      0.00000
    427      20.9520      0.00000
    428      21.0408      0.00000
    429      21.0798      0.00000
    430      21.1081      0.00000
    431      21.2254      0.00000
    432      21.2566      0.00000
    433      21.2989      0.00000
    434      21.3164      0.00000
    435      21.3777      0.00000
    436      21.4129      0.00000
    437      21.4209      0.00000
    438      21.4705      0.00000
    439      21.4913      0.00000
    440      21.5633      0.00000
    441      21.6146      0.00000
    442      21.6579      0.00000
    443      21.6825      0.00000
    444      21.7267      0.00000
    445      21.7695      0.00000
    446      21.7833      0.00000
    447      21.8356      0.00000
    448      21.8931      0.00000
    449      21.9139      0.00000
    450      21.9360      0.00000
    451      21.9538      0.00000
    452      22.0388      0.00000
    453      22.0746      0.00000
    454      22.1267      0.00000
    455      22.1427      0.00000
    456      22.1696      0.00000
    457      22.2632      0.00000
    458      22.2728      0.00000
    459      22.3204      0.00000
    460      22.4286      0.00000
    461      22.4626      0.00000
    462      22.4871      0.00000
    463      22.5171      0.00000
    464      22.5958      0.00000
    465      22.6107      0.00000
    466      22.6299      0.00000
    467      22.6759      0.00000
    468      22.7140      0.00000
    469      22.7322      0.00000
    470      22.7456      0.00000
    471      22.8294      0.00000
    472      22.8619      0.00000
    473      22.9518      0.00000
    474      22.9864      0.00000
    475      23.0969      0.00000
    476      23.1358      0.00000
    477      23.1394      0.00000
    478      23.1671      0.00000
    479      23.2018      0.00000
    480      23.3150      0.00000
    481      23.3946      0.00000
    482      23.4090      0.00000
    483      23.4450      0.00000
    484      23.5365      0.00000
    485      23.5672      0.00000
    486      23.5850      0.00000
    487      23.6550      0.00000
    488      23.6689      0.00000
    489      23.7516      0.00000
    490      23.7725      0.00000
    491      23.8463      0.00000
    492      23.9020      0.00000
    493      23.9158      0.00000
    494      23.9503      0.00000
    495      24.0163      0.00000
    496      24.0778      0.00000
    497      24.1417      0.00000
    498      24.2279      0.00000
    499      24.2567      0.00000
    500      24.2609      0.00000
    501      24.3090      0.00000
    502      24.3757      0.00000
    503      24.4821      0.00000
    504      24.5181      0.00000
    505      24.5901      0.00000
    506      24.6622      0.00000
    507      24.6870      0.00000
    508      24.7509      0.00000
    509      24.7758      0.00000
    510      24.8324      0.00000
    511      24.8715      0.00000
    512      24.9059      0.00000
    513      24.9730      0.00000
    514      24.9953      0.00000
    515      25.0190      0.00000
    516      25.0622      0.00000
    517      25.0870      0.00000
    518      25.1077      0.00000
    519      25.1780      0.00000
    520      25.1869      0.00000
    521      25.2489      0.00000
    522      25.2665      0.00000
    523      25.3249      0.00000
    524      25.3291      0.00000
    525      25.3731      0.00000
    526      25.4371      0.00000
    527      25.4522      0.00000
    528      25.5455      0.00000
    529      25.5716      0.00000
    530      25.6135      0.00000
    531      25.6660      0.00000
    532      25.6988      0.00000
    533      25.7566      0.00000
    534      25.8034      0.00000
    535      25.8525      0.00000
    536      25.9046      0.00000
    537      25.9086      0.00000
    538      25.9514      0.00000
    539      25.9833      0.00000
    540      26.0097      0.00000
    541      26.0614      0.00000
    542      26.0935      0.00000
    543      26.1451      0.00000
    544      26.2088      0.00000
    545      26.2698      0.00000
    546      26.2941      0.00000
    547      26.3470      0.00000
    548      26.3822      0.00000
    549      26.4221      0.00000
    550      26.4979      0.00000
    551      26.5266      0.00000
    552      26.5834      0.00000
    553      26.6361      0.00000
    554      26.6700      0.00000
    555      26.6866      0.00000
    556      26.7152      0.00000
    557      26.7561      0.00000
    558      26.8148      0.00000
    559      26.8238      0.00000
    560      26.9192      0.00000
    561      26.9320      0.00000
    562      26.9618      0.00000
    563      26.9776      0.00000
    564      27.0253      0.00000
    565      27.0850      0.00000
    566      27.1262      0.00000
    567      27.1792      0.00000
    568      27.2393      0.00000
    569      27.2695      0.00000
    570      27.3090      0.00000
    571      27.3479      0.00000
    572      27.3947      0.00000
    573      27.4254      0.00000
    574      27.4429      0.00000
    575      27.5333      0.00000
    576      27.5999      0.00000
    577      27.6679      0.00000
    578      27.7254      0.00000
    579      27.7757      0.00000
    580      27.8253      0.00000
    581      27.8505      0.00000
    582      27.8780      0.00000
    583      27.9406      0.00000
    584      27.9559      0.00000
    585      28.0564      0.00000
    586      28.0819      0.00000
    587      28.1373      0.00000
    588      28.1463      0.00000
    589      28.2876      0.00000
    590      28.3124      0.00000
    591      28.3806      0.00000
    592      28.4198      0.00000
    593      28.4708      0.00000
    594      28.4770      0.00000
    595      28.5132      0.00000
    596      28.5283      0.00000
    597      28.5565      0.00000
    598      28.5691      0.00000
    599      28.5830      0.00000
    600      28.6924      0.00000
    601      28.7251      0.00000
    602      28.7713      0.00000
    603      28.7935      0.00000
    604      28.8465      0.00000
    605      28.8904      0.00000
    606      28.9194      0.00000
    607      28.9668      0.00000
    608      29.0276      0.00000
    609      29.0633      0.00000
    610      29.0860      0.00000
    611      29.1193      0.00000
    612      29.1671      0.00000
    613      29.1721      0.00000
    614      29.2321      0.00000
    615      29.3122      0.00000
    616      29.3250      0.00000
    617      29.4435      0.00000
    618      29.4771      0.00000
    619      29.5384      0.00000
    620      29.5521      0.00000
    621      29.6424      0.00000
    622      29.6646      0.00000
    623      29.7192      0.00000
    624      29.7672      0.00000
    625      29.7721      0.00000
    626      29.8508      0.00000
    627      29.8652      0.00000
    628      29.9293      0.00000
    629      29.9646      0.00000
    630      29.9875      0.00000
    631      30.0440      0.00000
    632      30.0698      0.00000
    633      30.1249      0.00000
    634      30.1483      0.00000
    635      30.2517      0.00000
    636      30.2595      0.00000
    637      30.2891      0.00000
    638      30.3231      0.00000
    639      30.3664      0.00000
    640      30.4247      0.00000
    641      30.4474      0.00000
    642      30.5096      0.00000
    643      30.5175      0.00000
    644      30.5614      0.00000
    645      30.5677      0.00000
    646      30.6348      0.00000
    647      30.6559      0.00000
    648      30.7337      0.00000
    649      30.7508      0.00000
    650      30.7576      0.00000
    651      30.8719      0.00000
    652      30.8911      0.00000
    653      30.9226      0.00000
    654      30.9289      0.00000
    655      30.9908      0.00000
    656      31.0241      0.00000
    657      31.0954      0.00000
    658      31.1347      0.00000
    659      31.1906      0.00000
    660      31.2171      0.00000
    661      31.2949      0.00000
    662      31.3163      0.00000
    663      31.3617      0.00000
    664      31.3932      0.00000
    665      31.4411      0.00000
    666      31.4812      0.00000
    667      31.5042      0.00000
    668      31.5474      0.00000
    669      31.5648      0.00000
    670      31.5878      0.00000
    671      31.6541      0.00000
    672      31.6556      0.00000
    673      31.7005      0.00000
    674      31.7257      0.00000
    675      31.7559      0.00000
    676      31.7994      0.00000
    677      31.8194      0.00000
    678      31.8542      0.00000
    679      31.8938      0.00000
    680      31.9255      0.00000
    681      31.9961      0.00000
    682      32.0065      0.00000
    683      32.0500      0.00000
    684      32.0619      0.00000
    685      32.0803      0.00000
    686      32.1102      0.00000
    687      32.1749      0.00000
    688      32.2423      0.00000
    689      32.2683      0.00000
    690      32.3120      0.00000
    691      32.3260      0.00000
    692      32.3677      0.00000
    693      32.3882      0.00000
    694      32.4142      0.00000
    695      32.4516      0.00000
    696      32.4955      0.00000
    697      32.5102      0.00000
    698      32.5365      0.00000
    699      32.5749      0.00000
    700      32.6054      0.00000
    701      32.6432      0.00000
    702      32.6451      0.00000
    703      32.7127      0.00000
    704      32.7364      0.00000
    705      32.7608      0.00000
    706      32.8250      0.00000
    707      32.8272      0.00000
    708      32.8881      0.00000
    709      32.9019      0.00000
    710      32.9341      0.00000
    711      32.9535      0.00000
    712      32.9656      0.00000
    713      33.0259      0.00000
    714      33.0600      0.00000
    715      33.0819      0.00000
    716      33.1224      0.00000
    717      33.1414      0.00000
    718      33.1695      0.00000
    719      33.2216      0.00000
    720      33.2523      0.00000
    721      33.2772      0.00000
    722      33.3014      0.00000
    723      33.3651      0.00000
    724      33.3955      0.00000
    725      33.4696      0.00000
    726      33.4898      0.00000
    727      33.5079      0.00000
    728      33.5304      0.00000
    729      33.5904      0.00000
    730      33.6275      0.00000
    731      33.6573      0.00000
    732      33.6989      0.00000
    733      33.7593      0.00000
    734      33.8112      0.00000
    735      33.8316      0.00000
    736      33.8704      0.00000
    737      33.8839      0.00000
    738      33.9009      0.00000
    739      33.9721      0.00000
    740      33.9864      0.00000
    741      34.0145      0.00000
    742      34.0354      0.00000
    743      34.0508      0.00000
    744      34.0718      0.00000
    745      34.1134      0.00000
    746      34.1431      0.00000
    747      34.1729      0.00000
    748      34.2092      0.00000
    749      34.2745      0.00000
    750      34.2966      0.00000
    751      34.3378      0.00000
    752      34.3485      0.00000
    753      34.3921      0.00000
    754      34.4199      0.00000
    755      34.4391      0.00000
    756      34.4420      0.00000
    757      34.4557      0.00000
    758      34.5520      0.00000
    759      34.5796      0.00000
    760      34.6146      0.00000
    761      34.6732      0.00000
    762      34.7086      0.00000
    763      34.7341      0.00000
    764      34.7589      0.00000
    765      34.8100      0.00000
    766      34.8400      0.00000
    767      34.8705      0.00000
    768      34.8838      0.00000
    769      34.9098      0.00000
    770      34.9214      0.00000
    771      34.9857      0.00000
    772      35.0133      0.00000
    773      35.0497      0.00000
    774      35.0980      0.00000
    775      35.1195      0.00000
    776      35.1346      0.00000
    777      35.1723      0.00000
    778      35.1961      0.00000
    779      35.2686      0.00000
    780      35.2733      0.00000
    781      35.3025      0.00000
    782      35.3434      0.00000
    783      35.3759      0.00000
    784      35.4134      0.00000
    785      35.4271      0.00000
    786      35.4371      0.00000
    787      35.4736      0.00000
    788      35.5164      0.00000
    789      35.5805      0.00000
    790      35.5846      0.00000
    791      35.6165      0.00000
    792      35.6386      0.00000
    793      35.6549      0.00000
    794      35.6672      0.00000
    795      35.7424      0.00000
    796      35.7938      0.00000
    797      35.8399      0.00000
    798      35.8448      0.00000
    799      35.8766      0.00000
    800      35.9647      0.00000
    801      35.9761      0.00000
    802      35.9883      0.00000
    803      36.0380      0.00000
    804      36.0708      0.00000
    805      36.1007      0.00000
    806      36.1064      0.00000
    807      36.1927      0.00000
    808      36.2091      0.00000
    809      36.2315      0.00000
    810      36.2655      0.00000
    811      36.2749      0.00000
    812      36.3118      0.00000
    813      36.3393      0.00000
    814      36.3579      0.00000
    815      36.4163      0.00000
    816      36.4287      0.00000
    817      36.4972      0.00000
    818      36.5134      0.00000
    819      36.5291      0.00000
    820      36.5863      0.00000
    821      36.6032      0.00000
    822      36.6562      0.00000
    823      36.6929      0.00000
    824      36.7168      0.00000
    825      36.7699      0.00000
    826      36.8057      0.00000
    827      36.8341      0.00000
    828      36.8364      0.00000
    829      36.8938      0.00000
    830      36.9247      0.00000
    831      36.9548      0.00000
    832      36.9655      0.00000
    833      37.0057      0.00000
    834      37.0172      0.00000
    835      37.0585      0.00000
    836      37.1088      0.00000
    837      37.1531      0.00000
    838      37.1872      0.00000
    839      37.2642      0.00000
    840      37.2780      0.00000
    841      37.3434      0.00000
    842      37.4075      0.00000
    843      37.4154      0.00000
    844      37.4391      0.00000
    845      37.5058      0.00000
    846      37.5712      0.00000
    847      37.6335      0.00000
    848      37.6558      0.00000
    849      37.6662      0.00000
    850      37.7202      0.00000
    851      37.7428      0.00000
    852      37.7894      0.00000
    853      37.8167      0.00000
    854      37.8851      0.00000
    855      37.9402      0.00000
    856      37.9513      0.00000
    857      37.9849      0.00000
    858      38.0036      0.00000
    859      38.0267      0.00000
    860      38.0937      0.00000
    861      38.1400      0.00000
    862      38.1886      0.00000
    863      38.2514      0.00000
    864      38.2669      0.00000
    865      38.3177      0.00000
    866      38.3417      0.00000
    867      38.3887      0.00000
    868      38.4114      0.00000
    869      38.4519      0.00000
    870      38.4634      0.00000
    871      38.5116      0.00000
    872      38.5243      0.00000
    873      38.5521      0.00000
    874      38.6162      0.00000
    875      38.6526      0.00000
    876      38.6566      0.00000
    877      38.6694      0.00000
    878      38.7402      0.00000
    879      38.7590      0.00000
    880      38.7987      0.00000
    881      38.8365      0.00000
    882      38.8606      0.00000
    883      38.9052      0.00000
    884      38.9197      0.00000
    885      38.9915      0.00000
    886      39.0168      0.00000
    887      39.0511      0.00000
    888      39.0600      0.00000
    889      39.0785      0.00000
    890      39.1617      0.00000
    891      39.2455      0.00000
    892      39.2919      0.00000
    893      39.3203      0.00000
    894      39.3363      0.00000
    895      39.3962      0.00000
    896      39.4450      0.00000
    897      39.4699      0.00000
    898      39.4945      0.00000
    899      39.5183      0.00000
    900      39.5534      0.00000
    901      39.5879      0.00000
    902      39.6279      0.00000
    903      39.6982      0.00000
    904      39.7336      0.00000
    905      39.7420      0.00000
    906      39.8510      0.00000
    907      39.8832      0.00000
    908      39.9026      0.00000
    909      39.9194      0.00000
    910      39.9592      0.00000
    911      40.0060      0.00000
    912      40.0163      0.00000
    913      40.0268      0.00000
    914      40.0778      0.00000
    915      40.0948      0.00000
    916      40.1248      0.00000
    917      40.1557      0.00000
    918      40.2004      0.00000
    919      40.2013      0.00000
    920      40.2466      0.00000
    921      40.2698      0.00000
    922      40.2875      0.00000
    923      40.3002      0.00000
    924      40.3241      0.00000
    925      40.3695      0.00000
    926      40.4378      0.00000
    927      40.4587      0.00000
    928      40.4860      0.00000
    929      40.5315      0.00000
    930      40.5727      0.00000
    931      40.5865      0.00000
    932      40.6142      0.00000
    933      40.6408      0.00000
    934      40.6802      0.00000
    935      40.7128      0.00000
    936      40.7401      0.00000
    937      40.7813      0.00000
    938      40.8219      0.00000
    939      40.8323      0.00000
    940      40.8623      0.00000
    941      40.8881      0.00000
    942      40.9284      0.00000
    943      40.9532      0.00000
    944      40.9833      0.00000
    945      41.0230      0.00000
    946      41.0806      0.00000
    947      41.0986      0.00000
    948      41.1215      0.00000
    949      41.1620      0.00000
    950      41.2011      0.00000
    951      41.2346      0.00000
    952      41.2851      0.00000
    953      41.3009      0.00000
    954      41.3533      0.00000
    955      41.3607      0.00000
    956      41.4136      0.00000
    957      41.4311      0.00000
    958      41.4808      0.00000
    959      41.5362      0.00000
    960      41.5579      0.00000
    961      41.5670      0.00000
    962      41.6212      0.00000
    963      41.6382      0.00000
    964      41.7039      0.00000
    965      41.7352      0.00000
    966      41.7702      0.00000
    967      41.7773      0.00000
    968      41.8035      0.00000
    969      41.8493      0.00000
    970      41.8763      0.00000
    971      41.8989      0.00000
    972      41.9526      0.00000
    973      41.9925      0.00000
    974      42.0045      0.00000
    975      42.0231      0.00000
    976      42.0797      0.00000
    977      42.0870      0.00000
    978      42.1406      0.00000
    979      42.1531      0.00000
    980      42.1734      0.00000
    981      42.2504      0.00000
    982      42.2875      0.00000
    983      42.3076      0.00000
    984      42.3490      0.00000
    985      42.3537      0.00000
    986      42.3774      0.00000
    987      42.4400      0.00000
    988      42.4563      0.00000
    989      42.4928      0.00000
    990      42.5365      0.00000
    991      42.5656      0.00000
    992      42.5893      0.00000
    993      42.6040      0.00000
    994      42.6145      0.00000
    995      42.6490      0.00000
    996      42.7191      0.00000
    997      42.7386      0.00000
    998      42.7831      0.00000
    999      42.8006      0.00000
   1000      42.8217      0.00000
   1001      42.8880      0.00000
   1002      42.9157      0.00000
   1003      42.9481      0.00000
   1004      42.9755      0.00000
   1005      43.0210      0.00000
   1006      43.0304      0.00000
   1007      43.0340      0.00000
   1008      43.1107      0.00000
   1009      43.1447      0.00000
   1010      43.2097      0.00000
   1011      43.2313      0.00000
   1012      43.2377      0.00000
   1013      43.2488      0.00000
   1014      43.2924      0.00000
   1015      43.3069      0.00000
   1016      43.3553      0.00000
   1017      43.3765      0.00000
   1018      43.4051      0.00000
   1019      43.4208      0.00000
   1020      43.4411      0.00000
   1021      43.4832      0.00000
   1022      43.5089      0.00000
   1023      43.5400      0.00000
   1024      43.5718      0.00000
   1025      43.5809      0.00000
   1026      43.5966      0.00000
   1027      43.6197      0.00000
   1028      43.6826      0.00000
   1029      43.7035      0.00000
   1030      43.7421      0.00000
   1031      43.7706      0.00000
   1032      43.7908      0.00000
   1033      43.8152      0.00000
   1034      43.8459      0.00000
   1035      43.8937      0.00000
   1036      43.9067      0.00000
   1037      43.9480      0.00000
   1038      43.9935      0.00000
   1039      43.9981      0.00000
   1040      44.0546      0.00000
   1041      44.0916      0.00000
   1042      44.1600      0.00000
   1043      44.1752      0.00000
   1044      44.2159      0.00000
   1045      44.2502      0.00000
   1046      44.2757      0.00000
   1047      44.2911      0.00000
   1048      44.3381      0.00000
   1049      44.3572      0.00000
   1050      44.3805      0.00000
   1051      44.4396      0.00000
   1052      44.4555      0.00000
   1053      44.4849      0.00000
   1054      44.5504      0.00000
   1055      44.5932      0.00000
   1056      44.6085      0.00000
   1057      44.6313      0.00000
   1058      44.6607      0.00000
   1059      44.7122      0.00000
   1060      44.7349      0.00000
   1061      44.8024      0.00000
   1062      44.8297      0.00000
   1063      44.8675      0.00000
   1064      44.8781      0.00000
   1065      44.9070      0.00000
   1066      44.9468      0.00000
   1067      45.0044      0.00000
   1068      45.0622      0.00000
   1069      45.0785      0.00000
   1070      45.0960      0.00000
   1071      45.1080      0.00000
   1072      45.1462      0.00000
   1073      45.1765      0.00000
   1074      45.2024      0.00000
   1075      45.2050      0.00000
   1076      45.2321      0.00000
   1077      45.2969      0.00000
   1078      45.3376      0.00000
   1079      45.3543      0.00000
   1080      45.4148      0.00000
   1081      45.4369      0.00000
   1082      45.4661      0.00000
   1083      45.5106      0.00000
   1084      45.5489      0.00000
   1085      45.5748      0.00000
   1086      45.6280      0.00000
   1087      45.6579      0.00000
   1088      45.6733      0.00000
   1089      45.7371      0.00000
   1090      45.7551      0.00000
   1091      45.7955      0.00000
   1092      45.8203      0.00000
   1093      45.8357      0.00000
   1094      45.8893      0.00000
   1095      45.9022      0.00000
   1096      45.9322      0.00000
   1097      45.9543      0.00000
   1098      45.9840      0.00000
   1099      46.0068      0.00000
   1100      46.0299      0.00000
   1101      46.0747      0.00000
   1102      46.1237      0.00000
   1103      46.1571      0.00000
   1104      46.1781      0.00000
   1105      46.2120      0.00000
   1106      46.2232      0.00000
   1107      46.2702      0.00000
   1108      46.2858      0.00000
   1109      46.3682      0.00000
   1110      46.3718      0.00000
   1111      46.4028      0.00000
   1112      46.4322      0.00000
   1113      46.4651      0.00000
   1114      46.5243      0.00000
   1115      46.5531      0.00000
   1116      46.6050      0.00000
   1117      46.6271      0.00000
   1118      46.6604      0.00000
   1119      46.6724      0.00000
   1120      46.7015      0.00000
   1121      46.7521      0.00000
   1122      46.7931      0.00000
   1123      46.8536      0.00000
   1124      46.8982      0.00000
   1125      46.9122      0.00000
   1126      46.9575      0.00000
   1127      46.9866      0.00000
   1128      46.9993      0.00000
   1129      47.0322      0.00000
   1130      47.0450      0.00000
   1131      47.1019      0.00000
   1132      47.1536      0.00000
   1133      47.1587      0.00000
   1134      47.2205      0.00000
   1135      47.2497      0.00000
   1136      47.2709      0.00000
   1137      47.2857      0.00000
   1138      47.3262      0.00000
   1139      47.3979      0.00000
   1140      47.4226      0.00000
   1141      47.4542      0.00000
   1142      47.4641      0.00000
   1143      47.5108      0.00000
   1144      47.5359      0.00000
   1145      47.5503      0.00000
   1146      47.6131      0.00000
   1147      47.6431      0.00000
   1148      47.6601      0.00000
   1149      47.7208      0.00000
   1150      47.7468      0.00000
   1151      47.7567      0.00000
   1152      47.8031      0.00000
   1153      47.8465      0.00000
   1154      47.8683      0.00000
   1155      47.9014      0.00000
   1156      47.9213      0.00000
   1157      47.9680      0.00000
   1158      48.0028      0.00000
   1159      48.0224      0.00000
   1160      48.0352      0.00000
   1161      48.0853      0.00000
   1162      48.1159      0.00000
   1163      48.1384      0.00000
   1164      48.1723      0.00000
   1165      48.1997      0.00000
   1166      48.2823      0.00000
   1167      48.3016      0.00000
   1168      48.3408      0.00000
   1169      48.3873      0.00000
   1170      48.4191      0.00000
   1171      48.4397      0.00000
   1172      48.4718      0.00000
   1173      48.5019      0.00000
   1174      48.5484      0.00000
   1175      48.5919      0.00000
   1176      48.6178      0.00000
   1177      48.6398      0.00000
   1178      48.6614      0.00000
   1179      48.6791      0.00000
   1180      48.7274      0.00000
   1181      48.7761      0.00000
   1182      48.8210      0.00000
   1183      48.8508      0.00000
   1184      48.8756      0.00000
   1185      48.9370      0.00000
   1186      48.9477      0.00000
   1187      48.9910      0.00000
   1188      49.0250      0.00000
   1189      49.0419      0.00000
   1190      49.1523      0.00000
   1191      49.1709      0.00000
   1192      49.2051      0.00000
   1193      49.2507      0.00000
   1194      49.2715      0.00000
   1195      49.2994      0.00000
   1196      49.3225      0.00000
   1197      49.3520      0.00000
   1198      49.3828      0.00000
   1199      49.4062      0.00000
   1200      49.4672      0.00000
   1201      49.4958      0.00000
   1202      49.5299      0.00000
   1203      49.5820      0.00000
   1204      49.6410      0.00000
   1205      49.6711      0.00000
   1206      49.7095      0.00000
   1207      49.7348      0.00000
   1208      49.7460      0.00000
   1209      49.8073      0.00000
   1210      49.8243      0.00000
   1211      49.8302      0.00000
   1212      49.8656      0.00000
   1213      49.9003      0.00000
   1214      49.9291      0.00000
   1215      49.9702      0.00000
   1216      49.9907      0.00000
   1217      50.0066      0.00000
   1218      50.0396      0.00000
   1219      50.0600      0.00000
   1220      50.1166      0.00000
   1221      50.1490      0.00000
   1222      50.1618      0.00000
   1223      50.1839      0.00000
   1224      50.2159      0.00000
   1225      50.2453      0.00000
   1226      50.3103      0.00000
   1227      50.3464      0.00000
   1228      50.3629      0.00000
   1229      50.3952      0.00000
   1230      50.4250      0.00000
   1231      50.4335      0.00000
   1232      50.4609      0.00000
   1233      50.4958      0.00000
   1234      50.5437      0.00000
   1235      50.5708      0.00000
   1236      50.6038      0.00000
   1237      50.6251      0.00000
   1238      50.6452      0.00000
   1239      50.6828      0.00000
   1240      50.6963      0.00000
   1241      50.7593      0.00000
   1242      50.8083      0.00000
   1243      50.8130      0.00000
   1244      50.8448      0.00000
   1245      50.8695      0.00000
   1246      50.8939      0.00000
   1247      50.9099      0.00000
   1248      50.9266      0.00000
   1249      50.9512      0.00000
   1250      51.0236      0.00000
   1251      51.0373      0.00000
   1252      51.0542      0.00000
   1253      51.1472      0.00000
   1254      51.1613      0.00000
   1255      51.1770      0.00000
   1256      51.2008      0.00000
   1257      51.2416      0.00000
   1258      51.2745      0.00000
   1259      51.3207      0.00000
   1260      51.3301      0.00000
   1261      51.3926      0.00000
   1262      51.4060      0.00000
   1263      51.4156      0.00000
   1264      51.4209      0.00000
   1265      51.5284      0.00000
   1266      51.5666      0.00000
   1267      51.5696      0.00000
   1268      51.6054      0.00000
   1269      51.6204      0.00000
   1270      51.6437      0.00000
   1271      51.6749      0.00000
   1272      51.6938      0.00000
   1273      51.7208      0.00000
   1274      51.7672      0.00000
   1275      51.7914      0.00000
   1276      51.8313      0.00000
   1277      51.8516      0.00000
   1278      51.8835      0.00000
   1279      51.9070      0.00000
   1280      51.9332      0.00000
   1281      51.9498      0.00000
   1282      51.9798      0.00000
   1283      52.0123      0.00000
   1284      52.0272      0.00000
   1285      52.0422      0.00000
   1286      52.0684      0.00000
   1287      52.1131      0.00000
   1288      52.1363      0.00000
   1289      52.1521      0.00000
   1290      52.2305      0.00000
   1291      52.2516      0.00000
   1292      52.2876      0.00000
   1293      52.2978      0.00000
   1294      52.3601      0.00000
   1295      52.3768      0.00000
   1296      52.4051      0.00000
   1297      52.4168      0.00000
   1298      52.4414      0.00000
   1299      52.4554      0.00000
   1300      52.4813      0.00000
   1301      52.5701      0.00000
   1302      52.5841      0.00000
   1303      52.6036      0.00000
   1304      52.6180      0.00000
   1305      52.6553      0.00000
   1306      52.7056      0.00000
   1307      52.7195      0.00000
   1308      52.7253      0.00000
   1309      52.7434      0.00000
   1310      52.7550      0.00000
   1311      52.7937      0.00000
   1312      52.8591      0.00000
   1313      52.8965      0.00000
   1314      52.9172      0.00000
   1315      52.9552      0.00000
   1316      52.9845      0.00000
   1317      53.0030      0.00000
   1318      53.0217      0.00000
   1319      53.0603      0.00000
   1320      53.0983      0.00000
   1321      53.1079      0.00000
   1322      53.1355      0.00000
   1323      53.1609      0.00000
   1324      53.2052      0.00000
   1325      53.2131      0.00000
   1326      53.2656      0.00000
   1327      53.2794      0.00000
   1328      53.3212      0.00000
   1329      53.3420      0.00000
   1330      53.3646      0.00000
   1331      53.4042      0.00000
   1332      53.4177      0.00000
   1333      53.4252      0.00000
   1334      53.4625      0.00000
   1335      53.5060      0.00000
   1336      53.5209      0.00000
   1337      53.5362      0.00000
   1338      53.5666      0.00000
   1339      53.6004      0.00000
   1340      53.6160      0.00000
   1341      53.6297      0.00000
   1342      53.6471      0.00000
   1343      53.6716      0.00000
   1344      53.7150      0.00000
   1345      53.7237      0.00000
   1346      53.7704      0.00000
   1347      53.8006      0.00000
   1348      53.8053      0.00000
   1349      53.8132      0.00000
   1350      53.8474      0.00000
   1351      53.8635      0.00000
   1352      53.9074      0.00000
   1353      53.9324      0.00000
   1354      53.9511      0.00000
   1355      53.9548      0.00000
   1356      53.9922      0.00000
   1357      54.0164      0.00000
   1358      54.0532      0.00000
   1359      54.0668      0.00000
   1360      54.1096      0.00000
   1361      54.1335      0.00000
   1362      54.1807      0.00000
   1363      54.1961      0.00000
   1364      54.2100      0.00000
   1365      54.2521      0.00000
   1366      54.2926      0.00000
   1367      54.2967      0.00000
   1368      54.3189      0.00000
   1369      54.3541      0.00000
   1370      54.3819      0.00000
   1371      54.3988      0.00000
   1372      54.4150      0.00000
   1373      54.4609      0.00000
   1374      54.4676      0.00000
   1375      54.5036      0.00000
   1376      54.5623      0.00000
   1377      54.5677      0.00000
   1378      54.5938      0.00000
   1379      54.6170      0.00000
   1380      54.6426      0.00000
   1381      54.6644      0.00000
   1382      54.6792      0.00000
   1383      54.7047      0.00000
   1384      54.7296      0.00000
   1385      54.7691      0.00000
   1386      54.7776      0.00000
   1387      54.7828      0.00000
   1388      54.8349      0.00000
   1389      54.8461      0.00000
   1390      54.8745      0.00000
   1391      54.8880      0.00000
   1392      54.9263      0.00000
   1393      54.9422      0.00000
   1394      54.9653      0.00000
   1395      54.9722      0.00000
   1396      55.0044      0.00000
   1397      55.0287      0.00000
   1398      55.0314      0.00000
   1399      55.0996      0.00000
   1400      55.1427      0.00000
   1401      55.1558      0.00000
   1402      55.1993      0.00000
   1403      55.2088      0.00000
   1404      55.2287      0.00000
   1405      55.2476      0.00000
   1406      55.2847      0.00000
   1407      55.3399      0.00000
   1408      55.3565      0.00000
   1409      55.3731      0.00000
   1410      55.3865      0.00000
   1411      55.4065      0.00000
   1412      55.4258      0.00000
   1413      55.4605      0.00000
   1414      55.4864      0.00000
   1415      55.4993      0.00000
   1416      55.5389      0.00000
   1417      55.5433      0.00000
   1418      55.5581      0.00000
   1419      55.6121      0.00000
   1420      55.6254      0.00000
   1421      55.6520      0.00000
   1422      55.6815      0.00000
   1423      55.7017      0.00000
   1424      55.7257      0.00000
   1425      55.7467      0.00000
   1426      55.8002      0.00000
   1427      55.8048      0.00000
   1428      55.8338      0.00000
   1429      55.8544      0.00000
   1430      55.8688      0.00000
   1431      55.8910      0.00000
   1432      55.9140      0.00000
   1433      55.9327      0.00000
   1434      55.9492      0.00000
   1435      56.0147      0.00000
   1436      56.0320      0.00000
   1437      56.0398      0.00000
   1438      56.0636      0.00000
   1439      56.1132      0.00000
   1440      56.1513      0.00000
   1441      56.1600      0.00000
   1442      56.1872      0.00000
   1443      56.2062      0.00000
   1444      56.2377      0.00000
   1445      56.2477      0.00000
   1446      56.2873      0.00000
   1447      56.3192      0.00000
   1448      56.3308      0.00000
   1449      56.3565      0.00000
   1450      56.3933      0.00000
   1451      56.4132      0.00000
   1452      56.4272      0.00000
   1453      56.4830      0.00000
   1454      56.4981      0.00000
   1455      56.5257      0.00000
   1456      56.5400      0.00000
   1457      56.5483      0.00000
   1458      56.5838      0.00000
   1459      56.6231      0.00000
   1460      56.6616      0.00000
   1461      56.6837      0.00000
   1462      56.7025      0.00000
   1463      56.7230      0.00000
   1464      56.7477      0.00000
   1465      56.7951      0.00000
   1466      56.8392      0.00000
   1467      56.8620      0.00000
   1468      56.8795      0.00000
   1469      56.8872      0.00000
   1470      56.9193      0.00000
   1471      56.9423      0.00000
   1472      56.9649      0.00000
   1473      56.9868      0.00000
   1474      57.0361      0.00000
   1475      57.0668      0.00000
   1476      57.0867      0.00000
   1477      57.1290      0.00000
   1478      57.1347      0.00000
   1479      57.1648      0.00000
   1480      57.2094      0.00000
   1481      57.2284      0.00000
   1482      57.2553      0.00000
   1483      57.2777      0.00000
   1484      57.3244      0.00000
   1485      57.3795      0.00000
   1486      57.3800      0.00000
   1487      57.3916      0.00000
   1488      57.4175      0.00000
   1489      57.4552      0.00000
   1490      57.4755      0.00000
   1491      57.5218      0.00000
   1492      57.5970      0.00000
   1493      57.6153      0.00000
   1494      57.6482      0.00000
   1495      57.6665      0.00000
   1496      57.6998      0.00000
   1497      57.7182      0.00000
   1498      57.7512      0.00000
   1499      57.7548      0.00000
   1500      57.8153      0.00000
   1501      57.8363      0.00000
   1502      57.8989      0.00000
   1503      57.9316      0.00000
   1504      57.9718      0.00000
   1505      58.0063      0.00000
   1506      58.0420      0.00000
   1507      58.0595      0.00000
   1508      58.0693      0.00000
   1509      58.0752      0.00000
   1510      58.1175      0.00000
   1511      58.1666      0.00000
   1512      58.1883      0.00000
   1513      58.1983      0.00000
   1514      58.2386      0.00000
   1515      58.2838      0.00000
   1516      58.3124      0.00000
   1517      58.3765      0.00000
   1518      58.3847      0.00000
   1519      58.3951      0.00000
   1520      58.4650      0.00000
   1521      58.4923      0.00000
   1522      58.5077      0.00000
   1523      58.5439      0.00000
   1524      58.5535      0.00000
   1525      58.5918      0.00000
   1526      58.6415      0.00000
   1527      58.6523      0.00000
   1528      58.6811      0.00000
   1529      58.7133      0.00000
   1530      58.7511      0.00000
   1531      58.7950      0.00000
   1532      58.8075      0.00000
   1533      58.8418      0.00000
   1534      58.8522      0.00000
   1535      58.8892      0.00000
   1536      58.9499      0.00000
   1537      58.9754      0.00000
   1538      58.9897      0.00000
   1539      59.0430      0.00000
   1540      59.0623      0.00000
   1541      59.0898      0.00000
   1542      59.1078      0.00000
   1543      59.1416      0.00000
   1544      59.1564      0.00000
   1545      59.1725      0.00000
   1546      59.2008      0.00000
   1547      59.2043      0.00000
   1548      59.2516      0.00000
   1549      59.2665      0.00000
   1550      59.3089      0.00000
   1551      59.3214      0.00000
   1552      59.3801      0.00000
   1553      59.3890      0.00000
   1554      59.4041      0.00000
   1555      59.4371      0.00000
   1556      59.4720      0.00000
   1557      59.5083      0.00000
   1558      59.5255      0.00000
   1559      59.5530      0.00000
   1560      59.5995      0.00000
   1561      59.6528      0.00000
   1562      59.6765      0.00000
   1563      59.7054      0.00000
   1564      59.7559      0.00000
   1565      59.7652      0.00000
   1566      59.7909      0.00000
   1567      59.8003      0.00000
   1568      59.8522      0.00000
   1569      59.8952      0.00000
   1570      59.9041      0.00000
   1571      59.9436      0.00000
   1572      59.9663      0.00000
   1573      60.0167      0.00000
   1574      60.0308      0.00000
   1575      60.0442      0.00000
   1576      60.0836      0.00000
   1577      60.0964      0.00000
   1578      60.1650      0.00000
   1579      60.1764      0.00000
   1580      60.1860      0.00000
   1581      60.2016      0.00000
   1582      60.2094      0.00000
   1583      60.2301      0.00000
   1584      60.2702      0.00000
   1585      60.2878      0.00000
   1586      60.3012      0.00000
   1587      60.3264      0.00000
   1588      60.3670      0.00000
   1589      60.3768      0.00000
   1590      60.3973      0.00000
   1591      60.4216      0.00000
   1592      60.4716      0.00000
   1593      60.4816      0.00000
   1594      60.4948      0.00000
   1595      60.5424      0.00000
   1596      60.5706      0.00000
   1597      60.5889      0.00000
   1598      60.6226      0.00000
   1599      60.6490      0.00000
   1600      60.6858      0.00000
   1601      60.6961      0.00000
   1602      60.7171      0.00000
   1603      60.7412      0.00000
   1604      60.7511      0.00000
   1605      60.7898      0.00000
   1606      60.8002      0.00000
   1607      60.8247      0.00000
   1608      60.8353      0.00000
   1609      60.8646      0.00000
   1610      60.8740      0.00000
   1611      60.9289      0.00000
   1612      60.9457      0.00000
   1613      60.9635      0.00000
   1614      60.9879      0.00000
   1615      61.0493      0.00000
   1616      61.0577      0.00000
   1617      61.0794      0.00000
   1618      61.0858      0.00000
   1619      61.1301      0.00000
   1620      61.1455      0.00000
   1621      61.1753      0.00000
   1622      61.2273      0.00000
   1623      61.2446      0.00000
   1624      61.2595      0.00000
   1625      61.2959      0.00000
   1626      61.3215      0.00000
   1627      61.3266      0.00000
   1628      61.3610      0.00000
   1629      61.3677      0.00000
   1630      61.3949      0.00000
   1631      61.4146      0.00000
   1632      61.4314      0.00000
   1633      61.4483      0.00000
   1634      61.4949      0.00000
   1635      61.5063      0.00000
   1636      61.5651      0.00000
   1637      61.5826      0.00000
   1638      61.5967      0.00000
   1639      61.6231      0.00000
   1640      61.6494      0.00000
   1641      61.6682      0.00000
   1642      61.6881      0.00000
   1643      61.7028      0.00000
   1644      61.7439      0.00000
   1645      61.7624      0.00000
   1646      61.7842      0.00000
   1647      61.8051      0.00000
   1648      61.8286      0.00000
   1649      61.8421      0.00000
   1650      61.8903      0.00000
   1651      61.8994      0.00000
   1652      61.9359      0.00000
   1653      61.9595      0.00000
   1654      61.9977      0.00000
   1655      62.0239      0.00000
   1656      62.0405      0.00000
   1657      62.0852      0.00000
   1658      62.0970      0.00000
   1659      62.1336      0.00000
   1660      62.1434      0.00000
   1661      62.1618      0.00000
   1662      62.1894      0.00000
   1663      62.2240      0.00000
   1664      62.2282      0.00000
   1665      62.2848      0.00000
   1666      62.3073      0.00000
   1667      62.3288      0.00000
   1668      62.3359      0.00000
   1669      62.3665      0.00000
   1670      62.3802      0.00000
   1671      62.4088      0.00000
   1672      62.4202      0.00000
   1673      62.4475      0.00000
   1674      62.4574      0.00000
   1675      62.4905      0.00000
   1676      62.5264      0.00000
   1677      62.5532      0.00000
   1678      62.5824      0.00000
   1679      62.6040      0.00000
   1680      62.6260      0.00000
   1681      62.6569      0.00000
   1682      62.6703      0.00000
   1683      62.7035      0.00000
   1684      62.7230      0.00000
   1685      62.7354      0.00000
   1686      62.7494      0.00000
   1687      62.7831      0.00000
   1688      62.8079      0.00000
   1689      62.8109      0.00000
   1690      62.8279      0.00000
   1691      62.8648      0.00000
   1692      62.8857      0.00000
   1693      62.9085      0.00000
   1694      62.9523      0.00000
   1695      62.9925      0.00000
   1696      63.0019      0.00000
   1697      63.0310      0.00000
   1698      63.0955      0.00000
   1699      63.1066      0.00000
   1700      63.1396      0.00000
   1701      63.1632      0.00000
   1702      63.1704      0.00000
   1703      63.1836      0.00000
   1704      63.2012      0.00000
   1705      63.2412      0.00000
   1706      63.2850      0.00000
   1707      63.3244      0.00000
   1708      63.3497      0.00000
   1709      63.3828      0.00000
   1710      63.3974      0.00000
   1711      63.4183      0.00000
   1712      63.4434      0.00000
   1713      63.4908      0.00000
   1714      63.5047      0.00000
   1715      63.5210      0.00000
   1716      63.5585      0.00000
   1717      63.5725      0.00000
   1718      63.6124      0.00000
   1719      63.6374      0.00000
   1720      63.6611      0.00000
   1721      63.6818      0.00000
   1722      63.7212      0.00000
   1723      63.7553      0.00000
   1724      63.7629      0.00000
   1725      63.7859      0.00000
   1726      63.8059      0.00000
   1727      63.8256      0.00000
   1728      63.8664      0.00000
   1729      63.8907      0.00000
   1730      63.9089      0.00000
   1731      63.9363      0.00000
   1732      63.9691      0.00000
   1733      63.9726      0.00000
   1734      64.0070      0.00000
   1735      64.0410      0.00000
   1736      64.0788      0.00000
   1737      64.0884      0.00000
   1738      64.1214      0.00000
   1739      64.1437      0.00000
   1740      64.1689      0.00000
   1741      64.2069      0.00000
   1742      64.2243      0.00000
   1743      64.2539      0.00000
   1744      64.2957      0.00000
   1745      64.3276      0.00000
   1746      64.3370      0.00000
   1747      64.3511      0.00000
   1748      64.3906      0.00000
   1749      64.4257      0.00000
   1750      64.4445      0.00000
   1751      64.4834      0.00000
   1752      64.5136      0.00000
   1753      64.5768      0.00000
   1754      64.6101      0.00000
   1755      64.6431      0.00000
   1756      64.6825      0.00000
   1757      64.6977      0.00000
   1758      64.7188      0.00000
   1759      64.7419      0.00000
   1760      64.7812      0.00000
   1761      64.8035      0.00000
   1762      64.8450      0.00000
   1763      64.8699      0.00000
   1764      64.8824      0.00000
   1765      64.9298      0.00000
   1766      64.9484      0.00000
   1767      64.9870      0.00000
   1768      65.0071      0.00000
   1769      65.0586      0.00000
   1770      65.0829      0.00000
   1771      65.0988      0.00000
   1772      65.1186      0.00000
   1773      65.1314      0.00000
   1774      65.1664      0.00000
   1775      65.1804      0.00000
   1776      65.1935      0.00000
   1777      65.2257      0.00000
   1778      65.2458      0.00000
   1779      65.2637      0.00000
   1780      65.2809      0.00000
   1781      65.3047      0.00000
   1782      65.3258      0.00000
   1783      65.3406      0.00000
   1784      65.3723      0.00000
   1785      65.3874      0.00000
   1786      65.4431      0.00000
   1787      65.4470      0.00000
   1788      65.4757      0.00000
   1789      65.5027      0.00000
   1790      65.5234      0.00000
   1791      65.5696      0.00000
   1792      65.5738      0.00000
   1793      65.6067      0.00000
   1794      65.6135      0.00000
   1795      65.6604      0.00000
   1796      65.6741      0.00000
   1797      65.6927      0.00000
   1798      65.7094      0.00000
   1799      65.7285      0.00000
   1800      65.7497      0.00000
   1801      65.7832      0.00000
   1802      65.7932      0.00000
   1803      65.8389      0.00000
   1804      65.8458      0.00000
   1805      65.8585      0.00000
   1806      65.9060      0.00000
   1807      65.9463      0.00000
   1808      65.9670      0.00000
   1809      65.9794      0.00000
   1810      66.0201      0.00000
   1811      66.0367      0.00000
   1812      66.0679      0.00000
   1813      66.0873      0.00000
   1814      66.1065      0.00000
   1815      66.1501      0.00000
   1816      66.1642      0.00000
   1817      66.1843      0.00000
   1818      66.2075      0.00000
   1819      66.2334      0.00000
   1820      66.2489      0.00000
   1821      66.2628      0.00000
   1822      66.2931      0.00000
   1823      66.3360      0.00000
   1824      66.3663      0.00000
   1825      66.3951      0.00000
   1826      66.4039      0.00000
   1827      66.4332      0.00000
   1828      66.4580      0.00000
   1829      66.4837      0.00000
   1830      66.5045      0.00000
   1831      66.5106      0.00000
   1832      66.5402      0.00000
   1833      66.5892      0.00000
   1834      66.6144      0.00000
   1835      66.6399      0.00000
   1836      66.6547      0.00000
   1837      66.6704      0.00000
   1838      66.7060      0.00000
   1839      66.7411      0.00000
   1840      66.7720      0.00000
   1841      66.7811      0.00000
   1842      66.8129      0.00000
   1843      66.8263      0.00000
   1844      66.8563      0.00000
   1845      66.9159      0.00000
   1846      66.9264      0.00000
   1847      66.9475      0.00000
   1848      66.9680      0.00000
   1849      66.9882      0.00000
   1850      67.0346      0.00000
   1851      67.0477      0.00000
   1852      67.0766      0.00000
   1853      67.1228      0.00000
   1854      67.1390      0.00000
   1855      67.1526      0.00000
   1856      67.2019      0.00000
   1857      67.2532      0.00000
   1858      67.2616      0.00000
   1859      67.2698      0.00000
   1860      67.3293      0.00000
   1861      67.3545      0.00000
   1862      67.4009      0.00000
   1863      67.4206      0.00000
   1864      67.4664      0.00000
   1865      67.4846      0.00000
   1866      67.5073      0.00000
   1867      67.5441      0.00000
   1868      67.5753      0.00000
   1869      67.5880      0.00000
   1870      67.6177      0.00000
   1871      67.6515      0.00000
   1872      67.6809      0.00000
   1873      67.7363      0.00000
   1874      67.7517      0.00000
   1875      67.7875      0.00000
   1876      67.8219      0.00000
   1877      67.8453      0.00000
   1878      67.8612      0.00000
   1879      67.9060      0.00000
   1880      67.9271      0.00000
   1881      67.9531      0.00000
   1882      67.9787      0.00000
   1883      67.9981      0.00000
   1884      68.0276      0.00000
   1885      68.0382      0.00000
   1886      68.0671      0.00000
   1887      68.1255      0.00000
   1888      68.1299      0.00000
   1889      68.1398      0.00000
   1890      68.1766      0.00000
   1891      68.2227      0.00000
   1892      68.2494      0.00000
   1893      68.2588      0.00000
   1894      68.2944      0.00000
   1895      68.3127      0.00000
   1896      68.3518      0.00000
   1897      68.3932      0.00000
   1898      68.4094      0.00000
   1899      68.4264      0.00000
   1900      68.4652      0.00000
   1901      68.4716      0.00000
   1902      68.4970      0.00000
   1903      68.5114      0.00000
   1904      68.5947      0.00000
   1905      68.6213      0.00000
   1906      68.6350      0.00000
   1907      68.6555      0.00000
   1908      68.7022      0.00000
   1909      68.7106      0.00000
   1910      68.7323      0.00000
   1911      68.7584      0.00000
   1912      68.7848      0.00000
   1913      68.8163      0.00000
   1914      68.8518      0.00000
   1915      68.8800      0.00000
   1916      68.8906      0.00000
   1917      68.9002      0.00000
   1918      68.9384      0.00000
   1919      68.9589      0.00000
   1920      69.0015      0.00000
   1921      69.0207      0.00000
   1922      69.0598      0.00000
   1923      69.0811      0.00000
   1924      69.0900      0.00000
   1925      69.1391      0.00000
   1926      69.1524      0.00000
   1927      69.1782      0.00000
   1928      69.1938      0.00000
   1929      69.2100      0.00000
   1930      69.2395      0.00000
   1931      69.2821      0.00000
   1932      69.2921      0.00000
   1933      69.3367      0.00000
   1934      69.3500      0.00000
   1935      69.3968      0.00000
   1936      69.4257      0.00000
   1937      69.4392      0.00000
   1938      69.4613      0.00000
   1939      69.4707      0.00000
   1940      69.5019      0.00000
   1941      69.5234      0.00000
   1942      69.5825      0.00000
   1943      69.6111      0.00000
   1944      69.6471      0.00000
   1945      69.6595      0.00000
   1946      69.7045      0.00000
   1947      69.7429      0.00000
   1948      69.7478      0.00000
   1949      69.7624      0.00000
   1950      69.7843      0.00000
   1951      69.8017      0.00000
   1952      69.8481      0.00000
   1953      69.8966      0.00000
   1954      69.9153      0.00000
   1955      69.9530      0.00000
   1956      69.9732      0.00000
   1957      70.0079      0.00000
   1958      70.0451      0.00000
   1959      70.0734      0.00000
   1960      70.0925      0.00000
   1961      70.1465      0.00000
   1962      70.1817      0.00000
   1963      70.2051      0.00000
   1964      70.2080      0.00000
   1965      70.2454      0.00000
   1966      70.2707      0.00000
   1967      70.3113      0.00000
   1968      70.3449      0.00000
   1969      70.3638      0.00000
   1970      70.3840      0.00000
   1971      70.3933      0.00000
   1972      70.4169      0.00000
   1973      70.4729      0.00000
   1974      70.4816      0.00000
   1975      70.5102      0.00000
   1976      70.5275      0.00000
   1977      70.5797      0.00000
   1978      70.5868      0.00000
   1979      70.6137      0.00000
   1980      70.6455      0.00000
   1981      70.6644      0.00000
   1982      70.7036      0.00000
   1983      70.7168      0.00000
   1984      70.7401      0.00000
   1985      70.7690      0.00000
   1986      70.7830      0.00000
   1987      70.7863      0.00000
   1988      70.8176      0.00000
   1989      70.8592      0.00000
   1990      70.8775      0.00000
   1991      70.9099      0.00000
   1992      70.9327      0.00000
   1993      70.9531      0.00000
   1994      70.9769      0.00000
   1995      70.9891      0.00000
   1996      71.0233      0.00000
   1997      71.0411      0.00000
   1998      71.0544      0.00000
   1999      71.0767      0.00000
   2000      71.1072      0.00000
   2001      71.1215      0.00000
   2002      71.1470      0.00000
   2003      71.1851      0.00000
   2004      71.1876      0.00000
   2005      71.2190      0.00000
   2006      71.2343      0.00000
   2007      71.2542      0.00000
   2008      71.2983      0.00000
   2009      71.3306      0.00000
   2010      71.3655      0.00000
   2011      71.3950      0.00000
   2012      71.4060      0.00000
   2013      71.4162      0.00000
   2014      71.4484      0.00000
   2015      71.4533      0.00000
   2016      71.4949      0.00000
   2017      71.5611      0.00000
   2018      71.5918      0.00000
   2019      71.6117      0.00000
   2020      71.6176      0.00000
   2021      71.6425      0.00000
   2022      71.6652      0.00000
   2023      71.6891      0.00000
   2024      71.7142      0.00000
   2025      71.7339      0.00000
   2026      71.7627      0.00000
   2027      71.7952      0.00000
   2028      71.8099      0.00000
   2029      71.8162      0.00000
   2030      71.8544      0.00000
   2031      71.8639      0.00000
   2032      71.8900      0.00000
   2033      71.9207      0.00000
   2034      71.9612      0.00000
   2035      71.9876      0.00000
   2036      72.0075      0.00000
   2037      72.0154      0.00000
   2038      72.0485      0.00000
   2039      72.0714      0.00000
   2040      72.0967      0.00000
   2041      72.1133      0.00000
   2042      72.1296      0.00000
   2043      72.1553      0.00000
   2044      72.1801      0.00000
   2045      72.2302      0.00000
   2046      72.2428      0.00000
   2047      72.2749      0.00000
   2048      72.2825      0.00000
   2049      72.2970      0.00000
   2050      72.3160      0.00000
   2051      72.3576      0.00000
   2052      72.3928      0.00000
   2053      72.4113      0.00000
   2054      72.4421      0.00000
   2055      72.4495      0.00000
   2056      72.4582      0.00000
   2057      72.4890      0.00000
   2058      72.5516      0.00000
   2059      72.5645      0.00000
   2060      72.5672      0.00000
   2061      72.6098      0.00000
   2062      72.6132      0.00000
   2063      72.6262      0.00000
   2064      72.6386      0.00000
   2065      72.6790      0.00000
   2066      72.6899      0.00000
   2067      72.7329      0.00000
   2068      72.7757      0.00000
   2069      72.7863      0.00000
   2070      72.7878      0.00000
   2071      72.8059      0.00000
   2072      72.8427      0.00000
   2073      72.8573      0.00000
   2074      72.8751      0.00000
   2075      72.9157      0.00000
   2076      72.9424      0.00000
   2077      72.9531      0.00000
   2078      72.9743      0.00000
   2079      73.0204      0.00000
   2080      73.0372      0.00000
   2081      73.0795      0.00000
   2082      73.1160      0.00000
   2083      73.1254      0.00000
   2084      73.1485      0.00000
   2085      73.2026      0.00000
   2086      73.2189      0.00000
   2087      73.2403      0.00000
   2088      73.2566      0.00000
   2089      73.2851      0.00000
   2090      73.2900      0.00000
   2091      73.3356      0.00000
   2092      73.3562      0.00000
   2093      73.3841      0.00000
   2094      73.4158      0.00000
   2095      73.4478      0.00000
   2096      73.4554      0.00000
   2097      73.5122      0.00000
   2098      73.5328      0.00000
   2099      73.5649      0.00000
   2100      73.5767      0.00000
   2101      73.5913      0.00000
   2102      73.6030      0.00000
   2103      73.6308      0.00000
   2104      73.6489      0.00000
   2105      73.6734      0.00000
   2106      73.6968      0.00000
   2107      73.7143      0.00000
   2108      73.7310      0.00000
   2109      73.7624      0.00000
   2110      73.7888      0.00000
   2111      73.8214      0.00000
   2112      73.8314      0.00000
   2113      73.8506      0.00000
   2114      73.8725      0.00000
   2115      73.9178      0.00000
   2116      73.9363      0.00000
   2117      73.9753      0.00000
   2118      74.0241      0.00000
   2119      74.0293      0.00000
   2120      74.0413      0.00000
   2121      74.0731      0.00000
   2122      74.0950      0.00000
   2123      74.1348      0.00000
   2124      74.1733      0.00000
   2125      74.2035      0.00000
   2126      74.2407      0.00000
   2127      74.2626      0.00000
   2128      74.2745      0.00000
   2129      74.3086      0.00000
   2130      74.3216      0.00000
   2131      74.3631      0.00000
   2132      74.3991      0.00000
   2133      74.4214      0.00000
   2134      74.4324      0.00000
   2135      74.4638      0.00000
   2136      74.4712      0.00000
   2137      74.4964      0.00000
   2138      74.5160      0.00000
   2139      74.5297      0.00000
   2140      74.5654      0.00000
   2141      74.5715      0.00000
   2142      74.5906      0.00000
   2143      74.6050      0.00000
   2144      74.6352      0.00000
   2145      74.6612      0.00000
   2146      74.6826      0.00000
   2147      74.7025      0.00000
   2148      74.7672      0.00000
   2149      74.7982      0.00000
   2150      74.8124      0.00000
   2151      74.8404      0.00000
   2152      74.8769      0.00000
   2153      74.8873      0.00000
   2154      74.9171      0.00000
   2155      74.9371      0.00000
   2156      74.9724      0.00000
   2157      74.9943      0.00000
   2158      74.9981      0.00000
   2159      75.0340      0.00000
   2160      75.0666      0.00000
   2161      75.0811      0.00000
   2162      75.1083      0.00000
   2163      75.1435      0.00000
   2164      75.1574      0.00000
   2165      75.1995      0.00000
   2166      75.2062      0.00000
   2167      75.2440      0.00000
   2168      75.2809      0.00000
   2169      75.2970      0.00000
   2170      75.3167      0.00000
   2171      75.3340      0.00000
   2172      75.3605      0.00000
   2173      75.3638      0.00000
   2174      75.3988      0.00000
   2175      75.4564      0.00000
   2176      75.4754      0.00000
   2177      75.5035      0.00000
   2178      75.5317      0.00000
   2179      75.5794      0.00000
   2180      75.5823      0.00000
   2181      75.6220      0.00000
   2182      75.6378      0.00000
   2183      75.6656      0.00000
   2184      75.7043      0.00000
   2185      75.7152      0.00000
   2186      75.7431      0.00000
   2187      75.7811      0.00000
   2188      75.8044      0.00000
   2189      75.8353      0.00000
   2190      75.8610      0.00000
   2191      75.8866      0.00000
   2192      75.9172      0.00000
   2193      75.9283      0.00000
   2194      75.9480      0.00000
   2195      75.9903      0.00000
   2196      76.0031      0.00000
   2197      76.0307      0.00000
   2198      76.0566      0.00000
   2199      76.0816      0.00000
   2200      76.0901      0.00000
   2201      76.1163      0.00000
   2202      76.1443      0.00000
   2203      76.1626      0.00000
   2204      76.1820      0.00000
   2205      76.2097      0.00000
   2206      76.2250      0.00000
   2207      76.2489      0.00000
   2208      76.2881      0.00000
   2209      76.3142      0.00000
   2210      76.3333      0.00000
   2211      76.3380      0.00000
   2212      76.3515      0.00000
   2213      76.3909      0.00000
   2214      76.4132      0.00000
   2215      76.4313      0.00000
   2216      76.4493      0.00000
   2217      76.4968      0.00000
   2218      76.5027      0.00000
   2219      76.5665      0.00000
   2220      76.5953      0.00000
   2221      76.6103      0.00000
   2222      76.6555      0.00000
   2223      76.6799      0.00000
   2224      76.6915      0.00000
   2225      76.6999      0.00000
   2226      76.7504      0.00000
   2227      76.7870      0.00000
   2228      76.8038      0.00000
   2229      76.8109      0.00000
   2230      76.8492      0.00000
   2231      76.8742      0.00000
   2232      76.8837      0.00000
   2233      76.9294      0.00000
   2234      76.9568      0.00000
   2235      76.9870      0.00000
   2236      77.0126      0.00000
   2237      77.0353      0.00000
   2238      77.0464      0.00000
   2239      77.0673      0.00000
   2240      77.0938      0.00000
   2241      77.1659      0.00000
   2242      77.1751      0.00000
   2243      77.1919      0.00000
   2244      77.2247      0.00000
   2245      77.2526      0.00000
   2246      77.2653      0.00000
   2247      77.2857      0.00000
   2248      77.3227      0.00000
   2249      77.3825      0.00000
   2250      77.4147      0.00000
   2251      77.4320      0.00000
   2252      77.4360      0.00000
   2253      77.4499      0.00000
   2254      77.4851      0.00000
   2255      77.5125      0.00000
   2256      77.5737      0.00000
   2257      77.5874      0.00000
   2258      77.6170      0.00000
   2259      77.6339      0.00000
   2260      77.6653      0.00000
   2261      77.6736      0.00000
   2262      77.6968      0.00000
   2263      77.7333      0.00000
   2264      77.7532      0.00000
   2265      77.7746      0.00000
   2266      77.7975      0.00000
   2267      77.8229      0.00000
   2268      77.8542      0.00000
   2269      77.8833      0.00000
   2270      77.8936      0.00000
   2271      77.9272      0.00000
   2272      77.9429      0.00000
   2273      77.9770      0.00000
   2274      78.0055      0.00000
   2275      78.0141      0.00000
   2276      78.0207      0.00000
   2277      78.0747      0.00000
   2278      78.0938      0.00000
   2279      78.1160      0.00000
   2280      78.1383      0.00000
   2281      78.1530      0.00000
   2282      78.1714      0.00000
   2283      78.1865      0.00000
   2284      78.2166      0.00000
   2285      78.2521      0.00000
   2286      78.2828      0.00000
   2287      78.2917      0.00000
   2288      78.3367      0.00000
   2289      78.3580      0.00000
   2290      78.3762      0.00000
   2291      78.3979      0.00000
   2292      78.4164      0.00000
   2293      78.4371      0.00000
   2294      78.4712      0.00000
   2295      78.4780      0.00000
   2296      78.4911      0.00000
   2297      78.5366      0.00000
   2298      78.5372      0.00000
   2299      78.5920      0.00000
   2300      78.6126      0.00000
   2301      78.6508      0.00000
   2302      78.6982      0.00000
   2303      78.7166      0.00000
   2304      78.7291      0.00000
   2305      78.7443      0.00000
   2306      78.7921      0.00000
   2307      78.8086      0.00000
   2308      78.8221      0.00000
   2309      78.8682      0.00000
   2310      78.9005      0.00000
   2311      78.9124      0.00000
   2312      78.9396      0.00000
   2313      78.9691      0.00000
   2314      78.9972      0.00000
   2315      79.0147      0.00000
   2316      79.0274      0.00000
   2317      79.0562      0.00000
   2318      79.0971      0.00000
   2319      79.1185      0.00000
   2320      79.1536      0.00000
   2321      79.2011      0.00000
   2322      79.2233      0.00000
   2323      79.2371      0.00000
   2324      79.2607      0.00000
   2325      79.2808      0.00000
   2326      79.3040      0.00000
   2327      79.3417      0.00000
   2328      79.3508      0.00000
   2329      79.4108      0.00000
   2330      79.4361      0.00000
   2331      79.4490      0.00000
   2332      79.4808      0.00000
   2333      79.5048      0.00000
   2334      79.5215      0.00000
   2335      79.5509      0.00000
   2336      79.5899      0.00000
   2337      79.6147      0.00000
   2338      79.6494      0.00000
   2339      79.6597      0.00000
   2340      79.6923      0.00000
   2341      79.6971      0.00000
   2342      79.7150      0.00000
   2343      79.7322      0.00000
   2344      79.7685      0.00000
   2345      79.7824      0.00000
   2346      79.8555      0.00000
   2347      79.8634      0.00000
   2348      79.9010      0.00000
   2349      79.9288      0.00000
   2350      79.9525      0.00000
   2351      79.9900      0.00000
   2352      80.0141      0.00000
   2353      80.0289      0.00000
   2354      80.0668      0.00000
   2355      80.0842      0.00000
   2356      80.0954      0.00000
   2357      80.1172      0.00000
   2358      80.1356      0.00000
   2359      80.1560      0.00000
   2360      80.1698      0.00000
   2361      80.2025      0.00000
   2362      80.2359      0.00000
   2363      80.2657      0.00000
   2364      80.3052      0.00000
   2365      80.3206      0.00000
   2366      80.3571      0.00000
   2367      80.3688      0.00000
   2368      80.3902      0.00000
   2369      80.4260      0.00000
   2370      80.4305      0.00000
   2371      80.4560      0.00000
   2372      80.4975      0.00000
   2373      80.5067      0.00000
   2374      80.5340      0.00000
   2375      80.5553      0.00000
   2376      80.5713      0.00000
   2377      80.6013      0.00000
   2378      80.6160      0.00000
   2379      80.6551      0.00000
   2380      80.6651      0.00000
   2381      80.6705      0.00000
   2382      80.7015      0.00000
   2383      80.7172      0.00000
   2384      80.7366      0.00000
   2385      80.7614      0.00000
   2386      80.8003      0.00000
   2387      80.8443      0.00000
   2388      80.8518      0.00000
   2389      80.8872      0.00000
   2390      80.9065      0.00000
   2391      80.9360      0.00000
   2392      80.9545      0.00000
   2393      80.9856      0.00000
   2394      80.9908      0.00000
   2395      81.0254      0.00000
   2396      81.0495      0.00000
   2397      81.0768      0.00000
   2398      81.1052      0.00000
   2399      81.1119      0.00000
   2400      81.1381      0.00000
   2401      81.1445      0.00000
   2402      81.1807      0.00000
   2403      81.2037      0.00000
   2404      81.2480      0.00000
   2405      81.2546      0.00000
   2406      81.2687      0.00000
   2407      81.3022      0.00000
   2408      81.3239      0.00000
   2409      81.3401      0.00000
   2410      81.3625      0.00000
   2411      81.3734      0.00000
   2412      81.3963      0.00000
   2413      81.4188      0.00000
   2414      81.4322      0.00000
   2415      81.4586      0.00000
   2416      81.4921      0.00000
   2417      81.5326      0.00000
   2418      81.5330      0.00000
   2419      81.5660      0.00000
   2420      81.5789      0.00000
   2421      81.5965      0.00000
   2422      81.6226      0.00000
   2423      81.6380      0.00000
   2424      81.6820      0.00000
   2425      81.6947      0.00000
   2426      81.7032      0.00000
   2427      81.7324      0.00000
   2428      81.7628      0.00000
   2429      81.7648      0.00000
   2430      81.8099      0.00000
   2431      81.8196      0.00000
   2432      81.8295      0.00000
   2433      81.8582      0.00000
   2434      81.8835      0.00000
   2435      81.9038      0.00000
   2436      81.9102      0.00000
   2437      81.9367      0.00000
   2438      81.9543      0.00000
   2439      81.9920      0.00000
   2440      81.9973      0.00000
   2441      82.0141      0.00000
   2442      82.0356      0.00000
   2443      82.0619      0.00000
   2444      82.0825      0.00000
   2445      82.0985      0.00000
   2446      82.1277      0.00000
   2447      82.1472      0.00000
   2448      82.1658      0.00000
   2449      82.1770      0.00000
   2450      82.2140      0.00000
   2451      82.2347      0.00000
   2452      82.2536      0.00000
   2453      82.2723      0.00000
   2454      82.2782      0.00000
   2455      82.3014      0.00000
   2456      82.3363      0.00000
   2457      82.3570      0.00000
   2458      82.3778      0.00000
   2459      82.4016      0.00000
   2460      82.4083      0.00000
   2461      82.4177      0.00000
   2462      82.4534      0.00000
   2463      82.4661      0.00000
   2464      82.4950      0.00000
   2465      82.5311      0.00000
   2466      82.5511      0.00000
   2467      82.5680      0.00000
   2468      82.5839      0.00000
   2469      82.6062      0.00000
   2470      82.6097      0.00000
   2471      82.6411      0.00000
   2472      82.6654      0.00000
   2473      82.6744      0.00000
   2474      82.7045      0.00000
   2475      82.7316      0.00000
   2476      82.7479      0.00000
   2477      82.7655      0.00000
   2478      82.8061      0.00000
   2479      82.8121      0.00000
   2480      82.8199      0.00000
   2481      82.8404      0.00000
   2482      82.8501      0.00000
   2483      82.8830      0.00000
   2484      82.9124      0.00000
   2485      82.9328      0.00000
   2486      82.9416      0.00000
   2487      82.9807      0.00000
   2488      82.9918      0.00000
   2489      83.0068      0.00000
   2490      83.0261      0.00000
   2491      83.0364      0.00000
   2492      83.0778      0.00000
   2493      83.0968      0.00000
   2494      83.1257      0.00000
   2495      83.1431      0.00000
   2496      83.1500      0.00000
   2497      83.1629      0.00000
   2498      83.1832      0.00000
   2499      83.1896      0.00000
   2500      83.2324      0.00000
   2501      83.2427      0.00000
   2502      83.2561      0.00000
   2503      83.2781      0.00000
   2504      83.2897      0.00000
   2505      83.3155      0.00000
   2506      83.3263      0.00000
   2507      83.3571      0.00000
   2508      83.3876      0.00000
   2509      83.3963      0.00000
   2510      83.4094      0.00000
   2511      83.4318      0.00000
   2512      83.4529      0.00000
   2513      83.4703      0.00000
   2514      83.4757      0.00000
   2515      83.5042      0.00000
   2516      83.5297      0.00000
   2517      83.5433      0.00000
   2518      83.5521      0.00000
   2519      83.5629      0.00000
   2520      83.5894      0.00000
   2521      83.5943      0.00000
   2522      83.6092      0.00000
   2523      83.6250      0.00000
   2524      83.6562      0.00000
   2525      83.6752      0.00000
   2526      83.6941      0.00000
   2527      83.7071      0.00000
   2528      83.7321      0.00000
   2529      83.7435      0.00000
   2530      83.7707      0.00000
   2531      83.7963      0.00000
   2532      83.8236      0.00000
   2533      83.8490      0.00000
   2534      83.8553      0.00000
   2535      83.8850      0.00000
   2536      83.8965      0.00000
   2537      83.9238      0.00000
   2538      83.9488      0.00000
   2539      83.9621      0.00000
   2540      83.9904      0.00000
   2541      84.0238      0.00000
   2542      84.0378      0.00000
   2543      84.0576      0.00000
   2544      84.0633      0.00000
   2545      84.0888      0.00000
   2546      84.1138      0.00000
   2547      84.1264      0.00000
   2548      84.1497      0.00000
   2549      84.1559      0.00000
   2550      84.1736      0.00000
   2551      84.1868      0.00000
   2552      84.2349      0.00000
   2553      84.2565      0.00000
   2554      84.2747      0.00000
   2555      84.2843      0.00000
   2556      84.3085      0.00000
   2557      84.3365      0.00000
   2558      84.3588      0.00000
   2559      84.3741      0.00000
   2560      84.3931      0.00000
   2561      84.4017      0.00000
   2562      84.4417      0.00000
   2563      84.4735      0.00000
   2564      84.4915      0.00000
   2565      84.5009      0.00000
   2566      84.5241      0.00000
   2567      84.5432      0.00000
   2568      84.5637      0.00000
   2569      84.6173      0.00000
   2570      84.6308      0.00000
   2571      84.6392      0.00000
   2572      84.6674      0.00000
   2573      84.6711      0.00000
   2574      84.6856      0.00000
   2575      84.7237      0.00000
   2576      84.7434      0.00000
   2577      84.7706      0.00000
   2578      84.7919      0.00000
   2579      84.7983      0.00000
   2580      84.8044      0.00000
   2581      84.8412      0.00000
   2582      84.8547      0.00000
   2583      84.8861      0.00000
   2584      84.8989      0.00000
   2585      84.9099      0.00000
   2586      84.9325      0.00000
   2587      84.9770      0.00000
   2588      84.9855      0.00000
   2589      85.0018      0.00000
   2590      85.0373      0.00000
   2591      85.0705      0.00000
   2592      85.1152      0.00000
   2593      85.1469      0.00000
   2594      85.1531      0.00000
   2595      85.1635      0.00000
   2596      85.1848      0.00000
   2597      85.2021      0.00000
   2598      85.2323      0.00000
   2599      85.2389      0.00000
   2600      85.2969      0.00000
   2601      85.2984      0.00000
   2602      85.3115      0.00000
   2603      85.3401      0.00000
   2604      85.3780      0.00000
   2605      85.4079      0.00000
   2606      85.4343      0.00000
   2607      85.4597      0.00000
   2608      85.4987      0.00000
   2609      85.5328      0.00000
   2610      85.5442      0.00000
   2611      85.5597      0.00000
   2612      85.5984      0.00000
   2613      85.6537      0.00000
   2614      85.6723      0.00000
   2615      85.6874      0.00000
   2616      85.7171      0.00000
   2617      85.7495      0.00000
   2618      85.7698      0.00000
   2619      85.7758      0.00000
   2620      85.8123      0.00000
   2621      85.8265      0.00000
   2622      85.8439      0.00000
   2623      85.8642      0.00000
   2624      85.8721      0.00000
   2625      85.9050      0.00000
   2626      85.9346      0.00000
   2627      85.9603      0.00000
   2628      85.9878      0.00000
   2629      86.0040      0.00000
   2630      86.0229      0.00000
   2631      86.0293      0.00000
   2632      86.0675      0.00000
   2633      86.0804      0.00000
   2634      86.0932      0.00000
   2635      86.0967      0.00000
   2636      86.1278      0.00000
   2637      86.1594      0.00000
   2638      86.1869      0.00000
   2639      86.2041      0.00000
   2640      86.2406      0.00000
   2641      86.2503      0.00000
   2642      86.2714      0.00000
   2643      86.2904      0.00000
   2644      86.3152      0.00000
   2645      86.3394      0.00000
   2646      86.3595      0.00000
   2647      86.3947      0.00000
   2648      86.4060      0.00000
   2649      86.4260      0.00000
   2650      86.4347      0.00000
   2651      86.4951      0.00000
   2652      86.5371      0.00000
   2653      86.5539      0.00000
   2654      86.5579      0.00000
   2655      86.5878      0.00000
   2656      86.6069      0.00000
   2657      86.6206      0.00000
   2658      86.6705      0.00000
   2659      86.6810      0.00000
   2660      86.6934      0.00000
   2661      86.7078      0.00000
   2662      86.7380      0.00000
   2663      86.7709      0.00000
   2664      86.7872      0.00000
   2665      86.8131      0.00000
   2666      86.8311      0.00000
   2667      86.8806      0.00000
   2668      86.8894      0.00000
   2669      86.9241      0.00000
   2670      86.9377      0.00000
   2671      86.9706      0.00000
   2672      86.9952      0.00000
   2673      87.0057      0.00000
   2674      87.0253      0.00000
   2675      87.0480      0.00000
   2676      87.0752      0.00000
   2677      87.0842      0.00000
   2678      87.1109      0.00000
   2679      87.1296      0.00000
   2680      87.1407      0.00000
   2681      87.1847      0.00000
   2682      87.2054      0.00000
   2683      87.2325      0.00000
   2684      87.2357      0.00000
   2685      87.2559      0.00000
   2686      87.2949      0.00000
   2687      87.3167      0.00000
   2688      87.3286      0.00000
   2689      87.3437      0.00000
   2690      87.3607      0.00000
   2691      87.3893      0.00000
   2692      87.4044      0.00000
   2693      87.4222      0.00000
   2694      87.4679      0.00000
   2695      87.4949      0.00000
   2696      87.5061      0.00000
   2697      87.5171      0.00000
   2698      87.5374      0.00000
   2699      87.5473      0.00000
   2700      87.5658      0.00000
   2701      87.5796      0.00000
   2702      87.6252      0.00000
   2703      87.6416      0.00000
   2704      87.6503      0.00000
   2705      87.6726      0.00000
   2706      87.6802      0.00000
   2707      87.6959      0.00000
   2708      87.7123      0.00000
   2709      87.7560      0.00000
   2710      87.7912      0.00000
   2711      87.8188      0.00000
   2712      87.8453      0.00000
   2713      87.8635      0.00000
   2714      87.8751      0.00000
   2715      87.9054      0.00000
   2716      87.9236      0.00000
   2717      87.9566      0.00000
   2718      87.9782      0.00000
   2719      87.9995      0.00000
   2720      88.0369      0.00000
   2721      88.0504      0.00000
   2722      88.0558      0.00000
   2723      88.0659      0.00000
   2724      88.1153      0.00000
   2725      88.1474      0.00000
   2726      88.1721      0.00000
   2727      88.1980      0.00000
   2728      88.2296      0.00000
   2729      88.2374      0.00000
   2730      88.2793      0.00000
   2731      88.3056      0.00000
   2732      88.3106      0.00000
   2733      88.3309      0.00000
   2734      88.3645      0.00000
   2735      88.3839      0.00000
   2736      88.4180      0.00000
   2737      88.4275      0.00000
   2738      88.4529      0.00000
   2739      88.4665      0.00000
   2740      88.4780      0.00000
   2741      88.5152      0.00000
   2742      88.5356      0.00000
   2743      88.5596      0.00000
   2744      88.5831      0.00000
   2745      88.5990      0.00000
   2746      88.6252      0.00000
   2747      88.6523      0.00000
   2748      88.6619      0.00000
   2749      88.6769      0.00000
   2750      88.7344      0.00000
   2751      88.7612      0.00000
   2752      88.7647      0.00000
   2753      88.7841      0.00000
   2754      88.8093      0.00000
   2755      88.8470      0.00000
   2756      88.8766      0.00000
   2757      88.8879      0.00000
   2758      88.8977      0.00000
   2759      88.9170      0.00000
   2760      88.9407      0.00000
   2761      88.9583      0.00000
   2762      88.9843      0.00000
   2763      88.9986      0.00000
   2764      89.0364      0.00000
   2765      89.0595      0.00000
   2766      89.0751      0.00000
   2767      89.1137      0.00000
   2768      89.1191      0.00000
   2769      89.1516      0.00000
   2770      89.1588      0.00000
   2771      89.1727      0.00000
   2772      89.2005      0.00000
   2773      89.2164      0.00000
   2774      89.2329      0.00000
   2775      89.2565      0.00000
   2776      89.2752      0.00000
   2777      89.2975      0.00000
   2778      89.3528      0.00000
   2779      89.3711      0.00000
   2780      89.3983      0.00000
   2781      89.4100      0.00000
   2782      89.4179      0.00000
   2783      89.4392      0.00000
   2784      89.4447      0.00000
   2785      89.4885      0.00000
   2786      89.5042      0.00000
   2787      89.5248      0.00000
   2788      89.5626      0.00000
   2789      89.5859      0.00000
   2790      89.6030      0.00000
   2791      89.6278      0.00000
   2792      89.6429      0.00000
   2793      89.6692      0.00000
   2794      89.6856      0.00000
   2795      89.6944      0.00000
   2796      89.7110      0.00000
   2797      89.7455      0.00000
   2798      89.7599      0.00000
   2799      89.7850      0.00000
   2800      89.8151      0.00000
   2801      89.8210      0.00000
   2802      89.8643      0.00000
   2803      89.8880      0.00000
   2804      89.9056      0.00000
   2805      89.9215      0.00000
   2806      89.9709      0.00000
   2807      89.9730      0.00000
   2808      89.9844      0.00000
   2809      90.0280      0.00000
   2810      90.0593      0.00000
   2811      90.0718      0.00000
   2812      90.0857      0.00000
   2813      90.1018      0.00000
   2814      90.1507      0.00000
   2815      90.1827      0.00000
   2816      90.1855      0.00000
   2817      90.2036      0.00000
   2818      90.2380      0.00000
   2819      90.2428      0.00000
   2820      90.2761      0.00000
   2821      90.2775      0.00000
   2822      90.2893      0.00000
   2823      90.3231      0.00000
   2824      90.3357      0.00000
   2825      90.3601      0.00000
   2826      90.3734      0.00000
   2827      90.4067      0.00000
   2828      90.4231      0.00000
   2829      90.4442      0.00000
   2830      90.4672      0.00000
   2831      90.4974      0.00000
   2832      90.5070      0.00000
   2833      90.5362      0.00000
   2834      90.5531      0.00000
   2835      90.5642      0.00000
   2836      90.6240      0.00000
   2837      90.6470      0.00000
   2838      90.6567      0.00000
   2839      90.6577      0.00000
   2840      90.6852      0.00000
   2841      90.7107      0.00000
   2842      90.7441      0.00000
   2843      90.7586      0.00000
   2844      90.7940      0.00000
   2845      90.8004      0.00000
   2846      90.8370      0.00000
   2847      90.8399      0.00000
   2848      90.8724      0.00000
   2849      90.8885      0.00000
   2850      90.9251      0.00000
   2851      90.9460      0.00000
   2852      90.9719      0.00000
   2853      90.9902      0.00000
   2854      91.0043      0.00000
   2855      91.0413      0.00000
   2856      91.0478      0.00000
   2857      91.0828      0.00000
   2858      91.1061      0.00000
   2859      91.1458      0.00000
   2860      91.1592      0.00000
   2861      91.1743      0.00000
   2862      91.1969      0.00000
   2863      91.1988      0.00000
   2864      91.2264      0.00000
   2865      91.2784      0.00000
   2866      91.2856      0.00000
   2867      91.3251      0.00000
   2868      91.3338      0.00000
   2869      91.3444      0.00000
   2870      91.3587      0.00000
   2871      91.4139      0.00000
   2872      91.4221      0.00000
   2873      91.4529      0.00000
   2874      91.4637      0.00000
   2875      91.4908      0.00000
   2876      91.4972      0.00000
   2877      91.5254      0.00000
   2878      91.5439      0.00000
   2879      91.5581      0.00000
   2880      91.5708      0.00000
   2881      91.5879      0.00000
   2882      91.6025      0.00000
   2883      91.6304      0.00000
   2884      91.6329      0.00000
   2885      91.6638      0.00000
   2886      91.6787      0.00000
   2887      91.7144      0.00000
   2888      91.7357      0.00000
   2889      91.7661      0.00000
   2890      91.7806      0.00000
   2891      91.8082      0.00000
   2892      91.8197      0.00000
   2893      91.8309      0.00000
   2894      91.8444      0.00000
   2895      91.8758      0.00000
   2896      91.9127      0.00000
   2897      91.9188      0.00000
   2898      91.9560      0.00000
   2899      91.9688      0.00000
   2900      91.9931      0.00000
   2901      92.0240      0.00000
   2902      92.0376      0.00000
   2903      92.0713      0.00000
   2904      92.0902      0.00000
   2905      92.0996      0.00000
   2906      92.1104      0.00000
   2907      92.1293      0.00000
   2908      92.1415      0.00000
   2909      92.1582      0.00000
   2910      92.1711      0.00000
   2911      92.2054      0.00000
   2912      92.2287      0.00000
   2913      92.2379      0.00000
   2914      92.2511      0.00000
   2915      92.2862      0.00000
   2916      92.2995      0.00000
   2917      92.3316      0.00000
   2918      92.3470      0.00000
   2919      92.3782      0.00000
   2920      92.4039      0.00000
   2921      92.4279      0.00000
   2922      92.4545      0.00000
   2923      92.4752      0.00000
   2924      92.4966      0.00000
   2925      92.5069      0.00000
   2926      92.5254      0.00000
   2927      92.5442      0.00000
   2928      92.5688      0.00000
   2929      92.5924      0.00000
   2930      92.6021      0.00000
   2931      92.6374      0.00000
   2932      92.6616      0.00000
   2933      92.6777      0.00000
   2934      92.6915      0.00000
   2935      92.6991      0.00000
   2936      92.7353      0.00000
   2937      92.7455      0.00000
   2938      92.7579      0.00000
   2939      92.7839      0.00000
   2940      92.8118      0.00000
   2941      92.8377      0.00000
   2942      92.8522      0.00000
   2943      92.8668      0.00000
   2944      92.9016      0.00000
   2945      92.9314      0.00000
   2946      92.9386      0.00000
   2947      92.9674      0.00000
   2948      92.9961      0.00000
   2949      93.0131      0.00000
   2950      93.0331      0.00000
   2951      93.0554      0.00000
   2952      93.0676      0.00000
   2953      93.0939      0.00000
   2954      93.0971      0.00000
   2955      93.1376      0.00000
   2956      93.1620      0.00000
   2957      93.1685      0.00000
   2958      93.2049      0.00000
   2959      93.2257      0.00000
   2960      93.2422      0.00000
   2961      93.2704      0.00000
   2962      93.2847      0.00000
   2963      93.3033      0.00000
   2964      93.3282      0.00000
   2965      93.3606      0.00000
   2966      93.3656      0.00000
   2967      93.3885      0.00000
   2968      93.4258      0.00000
   2969      93.4330      0.00000
   2970      93.4520      0.00000
   2971      93.4628      0.00000
   2972      93.4841      0.00000
   2973      93.5155      0.00000
   2974      93.5227      0.00000
   2975      93.5372      0.00000
   2976      93.5617      0.00000
   2977      93.5699      0.00000
   2978      93.5880      0.00000
   2979      93.6281      0.00000
   2980      93.6448      0.00000
   2981      93.6641      0.00000
   2982      93.6893      0.00000
   2983      93.7108      0.00000
   2984      93.7435      0.00000
   2985      93.7642      0.00000
   2986      93.7709      0.00000
   2987      93.8135      0.00000
   2988      93.8218      0.00000
   2989      93.8410      0.00000
   2990      93.8629      0.00000
   2991      93.8805      0.00000
   2992      93.9064      0.00000
   2993      93.9263      0.00000
   2994      93.9599      0.00000
   2995      93.9906      0.00000
   2996      94.0110      0.00000
   2997      94.0269      0.00000
   2998      94.0719      0.00000
   2999      94.0892      0.00000
   3000      94.1092      0.00000
   3001      94.1166      0.00000
   3002      94.1289      0.00000
   3003      94.1580      0.00000
   3004      94.1758      0.00000
   3005      94.2087      0.00000
   3006      94.2170      0.00000
   3007      94.2420      0.00000
   3008      94.2551      0.00000
   3009      94.2777      0.00000
   3010      94.3023      0.00000
   3011      94.3393      0.00000
   3012      94.3454      0.00000
   3013      94.3703      0.00000
   3014      94.3755      0.00000
   3015      94.4062      0.00000
   3016      94.4233      0.00000
   3017      94.4377      0.00000
   3018      94.4827      0.00000
   3019      94.4930      0.00000
   3020      94.5178      0.00000
   3021      94.5509      0.00000
   3022      94.5674      0.00000
   3023      94.5988      0.00000
   3024      94.6005      0.00000
   3025      94.6169      0.00000
   3026      94.6376      0.00000
   3027      94.6642      0.00000
   3028      94.6799      0.00000
   3029      94.7042      0.00000
   3030      94.7424      0.00000
   3031      94.7491      0.00000
   3032      94.7519      0.00000
   3033      94.7732      0.00000
   3034      94.7862      0.00000
   3035      94.8008      0.00000
   3036      94.8119      0.00000
   3037      94.8511      0.00000
   3038      94.8672      0.00000
   3039      94.8923      0.00000
   3040      94.9218      0.00000
   3041      94.9290      0.00000
   3042      94.9661      0.00000
   3043      94.9891      0.00000
   3044      94.9936      0.00000
   3045      95.0205      0.00000
   3046      95.0313      0.00000
   3047      95.0719      0.00000
   3048      95.0955      0.00000
   3049      95.1035      0.00000
   3050      95.1209      0.00000
   3051      95.1328      0.00000
   3052      95.1553      0.00000
   3053      95.1652      0.00000
   3054      95.1809      0.00000
   3055      95.2297      0.00000
   3056      95.2507      0.00000
   3057      95.2903      0.00000
   3058      95.3017      0.00000
   3059      95.3216      0.00000
   3060      95.3504      0.00000
   3061      95.3735      0.00000
   3062      95.3951      0.00000
   3063      95.4343      0.00000
   3064      95.4501      0.00000
   3065      95.4510      0.00000
   3066      95.4687      0.00000
   3067      95.4744      0.00000
   3068      95.4984      0.00000
   3069      95.5116      0.00000
   3070      95.5397      0.00000
   3071      95.5476      0.00000
   3072      95.5723      0.00000
   3073      95.6112      0.00000
   3074      95.6331      0.00000
   3075      95.6579      0.00000
   3076      95.6691      0.00000
   3077      95.7173      0.00000
   3078      95.7307      0.00000
   3079      95.7435      0.00000
   3080      95.7691      0.00000
   3081      95.7794      0.00000
   3082      95.8112      0.00000
   3083      95.8163      0.00000
   3084      95.8321      0.00000
   3085      95.8773      0.00000
   3086      95.8883      0.00000
   3087      95.9001      0.00000
   3088      95.9579      0.00000
   3089      95.9806      0.00000
   3090      95.9959      0.00000
   3091      96.0365      0.00000
   3092      96.0471      0.00000
   3093      96.0580      0.00000
   3094      96.0873      0.00000
   3095      96.0952      0.00000
   3096      96.1359      0.00000
   3097      96.1485      0.00000
   3098      96.1837      0.00000
   3099      96.2104      0.00000
   3100      96.2331      0.00000
   3101      96.2357      0.00000
   3102      96.2563      0.00000
   3103      96.2813      0.00000
   3104      96.2843      0.00000
   3105      96.3158      0.00000
   3106      96.3287      0.00000
   3107      96.3458      0.00000
   3108      96.3762      0.00000
   3109      96.4122      0.00000
   3110      96.4216      0.00000
   3111      96.4317      0.00000
   3112      96.4453      0.00000
   3113      96.5062      0.00000
   3114      96.5286      0.00000
   3115      96.5416      0.00000
   3116      96.5764      0.00000
   3117      96.5795      0.00000
   3118      96.5927      0.00000
   3119      96.6191      0.00000
   3120      96.6387      0.00000
   3121      96.6895      0.00000
   3122      96.7004      0.00000
   3123      96.7042      0.00000
   3124      96.7332      0.00000
   3125      96.7598      0.00000
   3126      96.7815      0.00000
   3127      96.7977      0.00000
   3128      96.8239      0.00000
   3129      96.8261      0.00000
   3130      96.8348      0.00000
   3131      96.8793      0.00000
   3132      96.9069      0.00000
   3133      96.9261      0.00000
   3134      96.9448      0.00000
   3135      96.9859      0.00000
   3136      97.0025      0.00000
   3137      97.0265      0.00000
   3138      97.0419      0.00000
   3139      97.0480      0.00000
   3140      97.0592      0.00000
   3141      97.0931      0.00000
   3142      97.0984      0.00000
   3143      97.1157      0.00000
   3144      97.1249      0.00000
   3145      97.1412      0.00000
   3146      97.1605      0.00000
   3147      97.1891      0.00000
   3148      97.2206      0.00000
   3149      97.2376      0.00000
   3150      97.2708      0.00000
   3151      97.2784      0.00000
   3152      97.3042      0.00000
   3153      97.3254      0.00000
   3154      97.3501      0.00000
   3155      97.3809      0.00000
   3156      97.4108      0.00000
   3157      97.4269      0.00000
   3158      97.4439      0.00000
   3159      97.4680      0.00000
   3160      97.4786      0.00000
   3161      97.4958      0.00000
   3162      97.5113      0.00000
   3163      97.5334      0.00000
   3164      97.5473      0.00000
   3165      97.5704      0.00000
   3166      97.5766      0.00000
   3167      97.6094      0.00000
   3168      97.6284      0.00000
   3169      97.6603      0.00000
   3170      97.6806      0.00000
   3171      97.7024      0.00000
   3172      97.7381      0.00000
   3173      97.7497      0.00000
   3174      97.7688      0.00000
   3175      97.7936      0.00000
   3176      97.8018      0.00000
   3177      97.8221      0.00000
   3178      97.8377      0.00000
   3179      97.8648      0.00000
   3180      97.8986      0.00000
   3181      97.9167      0.00000
   3182      97.9295      0.00000
   3183      97.9477      0.00000
   3184      97.9657      0.00000
   3185      97.9960      0.00000
   3186      98.0121      0.00000
   3187      98.0272      0.00000
   3188      98.0377      0.00000
   3189      98.0479      0.00000
   3190      98.0752      0.00000
   3191      98.1037      0.00000
   3192      98.1105      0.00000
   3193      98.1496      0.00000
   3194      98.1651      0.00000
   3195      98.1942      0.00000
   3196      98.2093      0.00000
   3197      98.2146      0.00000
   3198      98.2361      0.00000
   3199      98.2543      0.00000
   3200      98.2764      0.00000
   3201      98.3008      0.00000
   3202      98.3116      0.00000
   3203      98.3447      0.00000
   3204      98.3714      0.00000
   3205      98.3868      0.00000
   3206      98.3980      0.00000
   3207      98.4256      0.00000
   3208      98.4414      0.00000
   3209      98.4752      0.00000
   3210      98.4868      0.00000
   3211      98.5049      0.00000
   3212      98.5420      0.00000
   3213      98.5543      0.00000
   3214      98.5661      0.00000
   3215      98.6031      0.00000
   3216      98.6287      0.00000
   3217      98.6330      0.00000
   3218      98.6500      0.00000
   3219      98.6971      0.00000
   3220      98.6989      0.00000
   3221      98.7253      0.00000
   3222      98.7553      0.00000
   3223      98.7785      0.00000
   3224      98.8013      0.00000
   3225      98.8359      0.00000
   3226      98.8582      0.00000
   3227      98.8806      0.00000
   3228      98.9035      0.00000
   3229      98.9176      0.00000
   3230      98.9539      0.00000
   3231      98.9825      0.00000
   3232      98.9909      0.00000
   3233      99.0198      0.00000
   3234      99.0282      0.00000
   3235      99.0348      0.00000
   3236      99.0586      0.00000
   3237      99.0713      0.00000
   3238      99.0956      0.00000
   3239      99.1142      0.00000
   3240      99.1428      0.00000
   3241      99.1726      0.00000
   3242      99.1935      0.00000
   3243      99.2218      0.00000
   3244      99.2557      0.00000
   3245      99.2627      0.00000
   3246      99.2749      0.00000
   3247      99.2825      0.00000
   3248      99.2996      0.00000
   3249      99.3276      0.00000
   3250      99.3547      0.00000
   3251      99.3939      0.00000
   3252      99.4211      0.00000
   3253      99.4471      0.00000
   3254      99.4709      0.00000
   3255      99.4976      0.00000
   3256      99.5158      0.00000
   3257      99.5389      0.00000
   3258      99.5646      0.00000
   3259      99.5910      0.00000
   3260      99.6124      0.00000
   3261      99.6335      0.00000
   3262      99.6480      0.00000
   3263      99.6566      0.00000
   3264      99.6678      0.00000
   3265      99.6863      0.00000
   3266      99.7032      0.00000
   3267      99.7253      0.00000
   3268      99.7305      0.00000
   3269      99.7552      0.00000
   3270      99.7820      0.00000
   3271      99.7947      0.00000
   3272      99.7968      0.00000
   3273      99.8026      0.00000
   3274      99.8552      0.00000
   3275      99.8686      0.00000
   3276      99.9109      0.00000
   3277      99.9291      0.00000
   3278      99.9517      0.00000
   3279      99.9527      0.00000
   3280      99.9712      0.00000
   3281      99.9733      0.00000
   3282     100.0161      0.00000
   3283     100.0412      0.00000
   3284     100.0645      0.00000
   3285     100.0823      0.00000
   3286     100.1073      0.00000
   3287     100.1245      0.00000
   3288     100.1363      0.00000
   3289     100.1435      0.00000
   3290     100.1756      0.00000
   3291     100.2081      0.00000
   3292     100.2247      0.00000
   3293     100.2392      0.00000
   3294     100.2898      0.00000
   3295     100.3025      0.00000
   3296     100.3074      0.00000
   3297     100.3524      0.00000
   3298     100.3868      0.00000
   3299     100.3901      0.00000
   3300     100.3969      0.00000
   3301     100.4081      0.00000
   3302     100.4233      0.00000
   3303     100.4609      0.00000
   3304     100.4810      0.00000
   3305     100.4906      0.00000
   3306     100.5048      0.00000
   3307     100.5195      0.00000
   3308     100.5423      0.00000
   3309     100.5603      0.00000
   3310     100.5927      0.00000
   3311     100.6030      0.00000
   3312     100.6148      0.00000
   3313     100.6270      0.00000
   3314     100.6617      0.00000
   3315     100.6715      0.00000
   3316     100.6951      0.00000
   3317     100.7114      0.00000
   3318     100.7213      0.00000
   3319     100.7362      0.00000
   3320     100.7609      0.00000
   3321     100.7722      0.00000
   3322     100.7890      0.00000
   3323     100.8105      0.00000
   3324     100.8318      0.00000
   3325     100.8490      0.00000
   3326     100.8741      0.00000
   3327     100.8909      0.00000
   3328     100.9267      0.00000
   3329     100.9414      0.00000
   3330     100.9693      0.00000
   3331     100.9979      0.00000
   3332     101.0200      0.00000
   3333     101.0449      0.00000
   3334     101.0570      0.00000
   3335     101.0661      0.00000
   3336     101.1009      0.00000
   3337     101.1123      0.00000
   3338     101.1244      0.00000
   3339     101.1439      0.00000
   3340     101.1489      0.00000
   3341     101.1952      0.00000
   3342     101.2122      0.00000
   3343     101.2234      0.00000
   3344     101.2372      0.00000
   3345     101.2553      0.00000
   3346     101.2604      0.00000
   3347     101.3124      0.00000
   3348     101.3158      0.00000
   3349     101.3635      0.00000
   3350     101.3767      0.00000
   3351     101.3839      0.00000
   3352     101.4174      0.00000
   3353     101.4381      0.00000
   3354     101.4474      0.00000
   3355     101.4712      0.00000
   3356     101.4829      0.00000
   3357     101.5052      0.00000
   3358     101.5268      0.00000
   3359     101.5845      0.00000
   3360     101.6061      0.00000
   3361     101.6279      0.00000
   3362     101.6350      0.00000
   3363     101.6513      0.00000
   3364     101.6686      0.00000
   3365     101.7056      0.00000
   3366     101.7295      0.00000
   3367     101.7517      0.00000
   3368     101.7762      0.00000
   3369     101.8039      0.00000
   3370     101.8379      0.00000
   3371     101.8510      0.00000
   3372     101.8848      0.00000
   3373     101.8941      0.00000
   3374     101.9184      0.00000
   3375     101.9367      0.00000
   3376     101.9570      0.00000
   3377     101.9657      0.00000
   3378     101.9913      0.00000
   3379     101.9943      0.00000
   3380     102.0220      0.00000
   3381     102.0345      0.00000
   3382     102.0567      0.00000
   3383     102.0712      0.00000
   3384     102.0988      0.00000
   3385     102.1088      0.00000
   3386     102.1356      0.00000
   3387     102.1555      0.00000
   3388     102.1597      0.00000
   3389     102.1989      0.00000
   3390     102.2309      0.00000
   3391     102.2654      0.00000
   3392     102.2804      0.00000
   3393     102.2864      0.00000
   3394     102.3133      0.00000
   3395     102.3323      0.00000
   3396     102.3704      0.00000
   3397     102.4137      0.00000
   3398     102.4234      0.00000
   3399     102.4278      0.00000
   3400     102.4652      0.00000
   3401     102.4947      0.00000
   3402     102.5362      0.00000
   3403     102.5614      0.00000
   3404     102.5874      0.00000
   3405     102.6216      0.00000
   3406     102.6328      0.00000
   3407     102.6893      0.00000
   3408     102.7276      0.00000
   3409     102.7433      0.00000
   3410     102.7601      0.00000
   3411     102.7785      0.00000
   3412     102.7849      0.00000
   3413     102.7954      0.00000
   3414     102.8511      0.00000
   3415     102.8623      0.00000
   3416     102.8790      0.00000
   3417     102.9097      0.00000
   3418     102.9368      0.00000
   3419     102.9560      0.00000
   3420     102.9600      0.00000
   3421     102.9929      0.00000
   3422     103.0333      0.00000
   3423     103.0501      0.00000
   3424     103.0777      0.00000
   3425     103.0798      0.00000
   3426     103.1250      0.00000
   3427     103.1535      0.00000
   3428     103.1606      0.00000
   3429     103.1739      0.00000
   3430     103.2182      0.00000
   3431     103.2282      0.00000
   3432     103.2549      0.00000
   3433     103.2917      0.00000
   3434     103.3195      0.00000
   3435     103.3492      0.00000
   3436     103.3628      0.00000
   3437     103.4053      0.00000
   3438     103.4248      0.00000
   3439     103.4369      0.00000
   3440     103.4817      0.00000
   3441     103.4865      0.00000
   3442     103.5293      0.00000
   3443     103.5383      0.00000
   3444     103.5574      0.00000
   3445     103.6003      0.00000
   3446     103.6197      0.00000
   3447     103.6359      0.00000
   3448     103.6670      0.00000
   3449     103.6802      0.00000
   3450     103.7014      0.00000
   3451     103.7736      0.00000
   3452     103.7804      0.00000
   3453     103.7943      0.00000
   3454     103.8326      0.00000
   3455     103.8703      0.00000
   3456     103.8818      0.00000
   3457     103.8991      0.00000
   3458     103.9153      0.00000
   3459     103.9309      0.00000
   3460     103.9681      0.00000
   3461     103.9797      0.00000
   3462     104.0095      0.00000
   3463     104.0378      0.00000
   3464     104.0621      0.00000
   3465     104.0727      0.00000
   3466     104.0987      0.00000
   3467     104.1193      0.00000
   3468     104.1428      0.00000
   3469     104.1682      0.00000
   3470     104.1955      0.00000
   3471     104.2038      0.00000
   3472     104.2175      0.00000
   3473     104.2348      0.00000
   3474     104.2676      0.00000
   3475     104.2801      0.00000
   3476     104.3050      0.00000
   3477     104.3382      0.00000
   3478     104.3634      0.00000
   3479     104.4033      0.00000
   3480     104.4241      0.00000
   3481     104.4341      0.00000
   3482     104.4459      0.00000
   3483     104.4905      0.00000
   3484     104.5252      0.00000
   3485     104.5443      0.00000
   3486     104.5693      0.00000
   3487     104.5829      0.00000
   3488     104.6101      0.00000
   3489     104.6245      0.00000
   3490     104.6356      0.00000
   3491     104.6681      0.00000
   3492     104.6847      0.00000
   3493     104.7046      0.00000
   3494     104.7112      0.00000
   3495     104.7369      0.00000
   3496     104.7517      0.00000
   3497     104.7701      0.00000
   3498     104.7907      0.00000
   3499     104.8314      0.00000
   3500     104.8562      0.00000
   3501     104.8747      0.00000
   3502     104.8820      0.00000
   3503     104.9373      0.00000
   3504     104.9582      0.00000
   3505     104.9824      0.00000
   3506     104.9985      0.00000
   3507     105.0504      0.00000
   3508     105.0786      0.00000
   3509     105.0932      0.00000
   3510     105.1085      0.00000
   3511     105.1305      0.00000
   3512     105.1716      0.00000
   3513     105.1895      0.00000
   3514     105.2060      0.00000
   3515     105.2254      0.00000
   3516     105.2475      0.00000
   3517     105.2632      0.00000
   3518     105.3230      0.00000
   3519     105.3397      0.00000
   3520     105.3577      0.00000
   3521     105.3617      0.00000
   3522     105.3967      0.00000
   3523     105.4166      0.00000
   3524     105.4460      0.00000
   3525     105.4506      0.00000
   3526     105.4742      0.00000
   3527     105.4879      0.00000
   3528     105.5203      0.00000
   3529     105.5448      0.00000
   3530     105.5884      0.00000
   3531     105.6127      0.00000
   3532     105.6286      0.00000
   3533     105.6407      0.00000
   3534     105.6551      0.00000
   3535     105.6724      0.00000
   3536     105.7133      0.00000
   3537     105.7240      0.00000
   3538     105.7395      0.00000
   3539     105.7599      0.00000
   3540     105.8018      0.00000
   3541     105.8234      0.00000
   3542     105.8547      0.00000
   3543     105.8941      0.00000
   3544     105.8988      0.00000
   3545     105.9363      0.00000
   3546     105.9689      0.00000
   3547     105.9917      0.00000
   3548     106.0046      0.00000
   3549     106.0136      0.00000
   3550     106.0490      0.00000
   3551     106.0579      0.00000
   3552     106.0775      0.00000
   3553     106.0807      0.00000
   3554     106.0954      0.00000
   3555     106.1426      0.00000
   3556     106.1576      0.00000
   3557     106.1680      0.00000
   3558     106.1839      0.00000
   3559     106.2218      0.00000
   3560     106.2353      0.00000
   3561     106.2410      0.00000
   3562     106.2706      0.00000
   3563     106.2821      0.00000
   3564     106.3311      0.00000
   3565     106.3450      0.00000
   3566     106.3651      0.00000
   3567     106.3942      0.00000
   3568     106.4121      0.00000
   3569     106.4187      0.00000
   3570     106.4342      0.00000
   3571     106.4723      0.00000
   3572     106.5044      0.00000
   3573     106.5167      0.00000
   3574     106.5487      0.00000
   3575     106.5553      0.00000
   3576     106.5725      0.00000
   3577     106.5795      0.00000
   3578     106.6184      0.00000
   3579     106.6223      0.00000
   3580     106.6656      0.00000
   3581     106.6792      0.00000
   3582     106.7208      0.00000
   3583     106.7353      0.00000
   3584     106.7375      0.00000
   3585     106.7647      0.00000
   3586     106.7934      0.00000
   3587     106.8010      0.00000
   3588     106.8299      0.00000
   3589     106.8376      0.00000
   3590     106.8600      0.00000
   3591     106.8810      0.00000
   3592     106.8901      0.00000
   3593     106.9107      0.00000
   3594     106.9391      0.00000
   3595     106.9571      0.00000
   3596     106.9701      0.00000
   3597     106.9813      0.00000
   3598     106.9920      0.00000
   3599     107.0078      0.00000
   3600     107.0353      0.00000
   3601     107.0717      0.00000
   3602     107.0930      0.00000
   3603     107.0985      0.00000
   3604     107.1095      0.00000
   3605     107.1265      0.00000
   3606     107.1377      0.00000
   3607     107.1497      0.00000
   3608     107.1675      0.00000
   3609     107.2021      0.00000
   3610     107.2290      0.00000
   3611     107.2379      0.00000
   3612     107.2737      0.00000
   3613     107.2964      0.00000
   3614     107.3055      0.00000
   3615     107.3323      0.00000
   3616     107.3454      0.00000
   3617     107.3633      0.00000
   3618     107.3725      0.00000
   3619     107.3995      0.00000
   3620     107.4333      0.00000
   3621     107.4529      0.00000
   3622     107.4648      0.00000
   3623     107.4783      0.00000
   3624     107.4987      0.00000
   3625     107.5185      0.00000
   3626     107.5587      0.00000
   3627     107.5829      0.00000
   3628     107.5836      0.00000
   3629     107.6147      0.00000
   3630     107.6346      0.00000
   3631     107.6455      0.00000
   3632     107.6602      0.00000
   3633     107.6832      0.00000
   3634     107.7022      0.00000
   3635     107.7334      0.00000
   3636     107.7592      0.00000
   3637     107.7745      0.00000
   3638     107.8012      0.00000
   3639     107.8228      0.00000
   3640     107.8379      0.00000
   3641     107.8428      0.00000
   3642     107.8554      0.00000
   3643     107.8712      0.00000
   3644     107.8795      0.00000
   3645     107.9031      0.00000
   3646     107.9302      0.00000
   3647     107.9577      0.00000
   3648     107.9710      0.00000
   3649     107.9819      0.00000
   3650     108.0184      0.00000
   3651     108.0263      0.00000
   3652     108.0486      0.00000
   3653     108.0618      0.00000
   3654     108.0877      0.00000
   3655     108.1117      0.00000
   3656     108.1252      0.00000
   3657     108.1430      0.00000
   3658     108.1592      0.00000
   3659     108.1761      0.00000
   3660     108.1976      0.00000
   3661     108.2118      0.00000
   3662     108.2198      0.00000
   3663     108.2459      0.00000
   3664     108.2729      0.00000
   3665     108.2927      0.00000
   3666     108.3136      0.00000
   3667     108.3338      0.00000
   3668     108.3434      0.00000
   3669     108.3714      0.00000
   3670     108.3961      0.00000
   3671     108.4140      0.00000
   3672     108.4186      0.00000
   3673     108.4334      0.00000
   3674     108.4573      0.00000
   3675     108.4678      0.00000
   3676     108.4954      0.00000
   3677     108.5022      0.00000
   3678     108.5130      0.00000
   3679     108.5302      0.00000
   3680     108.5701      0.00000
   3681     108.6055      0.00000
   3682     108.6205      0.00000
   3683     108.6311      0.00000
   3684     108.6381      0.00000
   3685     108.6540      0.00000
   3686     108.6705      0.00000
   3687     108.6955      0.00000
   3688     108.7183      0.00000
   3689     108.7200      0.00000
   3690     108.7398      0.00000
   3691     108.7515      0.00000
   3692     108.7837      0.00000
   3693     108.8018      0.00000
   3694     108.8239      0.00000
   3695     108.8454      0.00000
   3696     108.8470      0.00000
   3697     108.8747      0.00000
   3698     108.9010      0.00000
   3699     108.9129      0.00000
   3700     108.9190      0.00000
   3701     108.9272      0.00000
   3702     108.9639      0.00000
   3703     108.9733      0.00000
   3704     108.9953      0.00000
   3705     109.0378      0.00000
   3706     109.0482      0.00000
   3707     109.0813      0.00000
   3708     109.1012      0.00000
   3709     109.1122      0.00000
   3710     109.1170      0.00000
   3711     109.1367      0.00000
   3712     109.1597      0.00000
   3713     109.1789      0.00000
   3714     109.2009      0.00000
   3715     109.2181      0.00000
   3716     109.2319      0.00000
   3717     109.2446      0.00000
   3718     109.2829      0.00000
   3719     109.2946      0.00000
   3720     109.3091      0.00000
   3721     109.3291      0.00000
   3722     109.3513      0.00000
   3723     109.3554      0.00000
   3724     109.3740      0.00000
   3725     109.3860      0.00000
   3726     109.4087      0.00000
   3727     109.4176      0.00000
   3728     109.4360      0.00000
   3729     109.4442      0.00000
   3730     109.4552      0.00000
   3731     109.5073      0.00000
   3732     109.5154      0.00000
   3733     109.5517      0.00000
   3734     109.5713      0.00000
   3735     109.5967      0.00000
   3736     109.6175      0.00000
   3737     109.6202      0.00000
   3738     109.6399      0.00000
   3739     109.6661      0.00000
   3740     109.6837      0.00000
   3741     109.7190      0.00000
   3742     109.7307      0.00000
   3743     109.7486      0.00000
   3744     109.7575      0.00000
   3745     109.7933      0.00000
   3746     109.8082      0.00000
   3747     109.8330      0.00000
   3748     109.8596      0.00000
   3749     109.8821      0.00000
   3750     109.8916      0.00000
   3751     109.9183      0.00000
   3752     109.9484      0.00000
   3753     109.9609      0.00000
   3754     109.9780      0.00000
   3755     110.0088      0.00000
   3756     110.0506      0.00000
   3757     110.0592      0.00000
   3758     110.0733      0.00000
   3759     110.0989      0.00000
   3760     110.1248      0.00000
   3761     110.1486      0.00000
   3762     110.1609      0.00000
   3763     110.1817      0.00000
   3764     110.2109      0.00000
   3765     110.2200      0.00000
   3766     110.2350      0.00000
   3767     110.2473      0.00000
   3768     110.2818      0.00000
   3769     110.2881      0.00000
   3770     110.3159      0.00000
   3771     110.3442      0.00000
   3772     110.3710      0.00000
   3773     110.3934      0.00000
   3774     110.4105      0.00000
   3775     110.4229      0.00000
   3776     110.4481      0.00000
   3777     110.4613      0.00000
   3778     110.4759      0.00000
   3779     110.4859      0.00000
   3780     110.5254      0.00000
   3781     110.5495      0.00000
   3782     110.5676      0.00000
   3783     110.5866      0.00000
   3784     110.5970      0.00000
   3785     110.6090      0.00000
   3786     110.6296      0.00000
   3787     110.6344      0.00000
   3788     110.6613      0.00000
   3789     110.6755      0.00000
   3790     110.7098      0.00000
   3791     110.7161      0.00000
   3792     110.7631      0.00000
   3793     110.7746      0.00000
   3794     110.7814      0.00000
   3795     110.7910      0.00000
   3796     110.8088      0.00000
   3797     110.8240      0.00000
   3798     110.8401      0.00000
   3799     110.8741      0.00000
   3800     110.8823      0.00000
   3801     110.8916      0.00000
   3802     110.9115      0.00000
   3803     110.9309      0.00000
   3804     110.9539      0.00000
   3805     110.9918      0.00000
   3806     111.0134      0.00000
   3807     111.0402      0.00000
   3808     111.0438      0.00000
   3809     111.0582      0.00000
   3810     111.0787      0.00000
   3811     111.0995      0.00000
   3812     111.1352      0.00000
   3813     111.1560      0.00000
   3814     111.1729      0.00000
   3815     111.1880      0.00000
   3816     111.2097      0.00000
   3817     111.2510      0.00000
   3818     111.2558      0.00000
   3819     111.2814      0.00000
   3820     111.3100      0.00000
   3821     111.3431      0.00000
   3822     111.3639      0.00000
   3823     111.3926      0.00000
   3824     111.4103      0.00000
   3825     111.4240      0.00000
   3826     111.4298      0.00000
   3827     111.4411      0.00000
   3828     111.4731      0.00000
   3829     111.4864      0.00000
   3830     111.4947      0.00000
   3831     111.5217      0.00000
   3832     111.5370      0.00000
   3833     111.5610      0.00000
   3834     111.5942      0.00000
   3835     111.6214      0.00000
   3836     111.6311      0.00000
   3837     111.6596      0.00000
   3838     111.6986      0.00000
   3839     111.7249      0.00000
   3840     111.7455      0.00000
   3841     111.7553      0.00000
   3842     111.7724      0.00000
   3843     111.7765      0.00000
   3844     111.8114      0.00000
   3845     111.8419      0.00000
   3846     111.8625      0.00000
   3847     111.8728      0.00000
   3848     111.8961      0.00000
   3849     111.9057      0.00000
   3850     111.9323      0.00000
   3851     111.9602      0.00000
   3852     111.9783      0.00000
   3853     112.0224      0.00000
   3854     112.0464      0.00000
   3855     112.0467      0.00000
   3856     112.0829      0.00000
   3857     112.0916      0.00000
   3858     112.1096      0.00000
   3859     112.1446      0.00000
   3860     112.1676      0.00000
   3861     112.1827      0.00000
   3862     112.2089      0.00000
   3863     112.2193      0.00000
   3864     112.2380      0.00000
   3865     112.2586      0.00000
   3866     112.2766      0.00000
   3867     112.3091      0.00000
   3868     112.3403      0.00000
   3869     112.3539      0.00000
   3870     112.3742      0.00000
   3871     112.3978      0.00000
   3872     112.4088      0.00000
   3873     112.4292      0.00000
   3874     112.4528      0.00000
   3875     112.4808      0.00000
   3876     112.4950      0.00000
   3877     112.5044      0.00000
   3878     112.5275      0.00000
   3879     112.5521      0.00000
   3880     112.5703      0.00000
   3881     112.5853      0.00000
   3882     112.5962      0.00000
   3883     112.6124      0.00000
   3884     112.6377      0.00000
   3885     112.6654      0.00000
   3886     112.6844      0.00000
   3887     112.7013      0.00000
   3888     112.7117      0.00000
   3889     112.7253      0.00000
   3890     112.7464      0.00000
   3891     112.7771      0.00000
   3892     112.7954      0.00000
   3893     112.8160      0.00000
   3894     112.8392      0.00000
   3895     112.8555      0.00000
   3896     112.8731      0.00000
   3897     112.8835      0.00000
   3898     112.9116      0.00000
   3899     112.9410      0.00000
   3900     112.9589      0.00000
   3901     112.9786      0.00000
   3902     112.9840      0.00000
   3903     113.0182      0.00000
   3904     113.0363      0.00000
   3905     113.0459      0.00000
   3906     113.0619      0.00000
   3907     113.0736      0.00000
   3908     113.1030      0.00000
   3909     113.1306      0.00000
   3910     113.1585      0.00000
   3911     113.1631      0.00000
   3912     113.1829      0.00000
   3913     113.2122      0.00000
   3914     113.2541      0.00000
   3915     113.2645      0.00000
   3916     113.2940      0.00000
   3917     113.3038      0.00000
   3918     113.3154      0.00000
   3919     113.3572      0.00000
   3920     113.3676      0.00000
   3921     113.3789      0.00000
   3922     113.4010      0.00000
   3923     113.4154      0.00000
   3924     113.4345      0.00000
   3925     113.4366      0.00000
   3926     113.4944      0.00000
   3927     113.5159      0.00000
   3928     113.5278      0.00000
   3929     113.5497      0.00000
   3930     113.5555      0.00000
   3931     113.5756      0.00000
   3932     113.5867      0.00000
   3933     113.6175      0.00000
   3934     113.6530      0.00000
   3935     113.6830      0.00000
   3936     113.7165      0.00000
   3937     113.7403      0.00000
   3938     113.7667      0.00000
   3939     113.7828      0.00000
   3940     113.7966      0.00000
   3941     113.8105      0.00000
   3942     113.8361      0.00000
   3943     113.8622      0.00000
   3944     113.8655      0.00000
   3945     113.8977      0.00000
   3946     113.9179      0.00000
   3947     113.9486      0.00000
   3948     113.9513      0.00000
   3949     113.9768      0.00000
   3950     113.9873      0.00000
   3951     114.0158      0.00000
   3952     114.0346      0.00000
   3953     114.0795      0.00000
   3954     114.0865      0.00000
   3955     114.1116      0.00000
   3956     114.1250      0.00000
   3957     114.1399      0.00000
   3958     114.1691      0.00000
   3959     114.1924      0.00000
   3960     114.2191      0.00000
   3961     114.2341      0.00000
   3962     114.2485      0.00000
   3963     114.2825      0.00000
   3964     114.2917      0.00000
   3965     114.3094      0.00000
   3966     114.3371      0.00000
   3967     114.3488      0.00000
   3968     114.3615      0.00000
   3969     114.3751      0.00000
   3970     114.3950      0.00000
   3971     114.4281      0.00000
   3972     114.4576      0.00000
   3973     114.4863      0.00000
   3974     114.5000      0.00000
   3975     114.5172      0.00000
   3976     114.5497      0.00000
   3977     114.5818      0.00000
   3978     114.5998      0.00000
   3979     114.6138      0.00000
   3980     114.6242      0.00000
   3981     114.6445      0.00000
   3982     114.6465      0.00000
   3983     114.6811      0.00000
   3984     114.7304      0.00000
   3985     114.7575      0.00000
   3986     114.7626      0.00000
   3987     114.7990      0.00000
   3988     114.8101      0.00000
   3989     114.8395      0.00000
   3990     114.8567      0.00000
   3991     114.8698      0.00000
   3992     114.8879      0.00000
   3993     114.9115      0.00000
   3994     114.9150      0.00000
   3995     114.9478      0.00000
   3996     114.9611      0.00000
   3997     114.9734      0.00000
   3998     115.0016      0.00000
   3999     115.0167      0.00000
   4000     115.0317      0.00000
   4001     115.0779      0.00000
   4002     115.0904      0.00000
   4003     115.1018      0.00000
   4004     115.1186      0.00000
   4005     115.1329      0.00000
   4006     115.1660      0.00000
   4007     115.1733      0.00000
   4008     115.2172      0.00000
   4009     115.2201      0.00000
   4010     115.2397      0.00000
   4011     115.2669      0.00000
   4012     115.2886      0.00000
   4013     115.3009      0.00000
   4014     115.3263      0.00000
   4015     115.3316      0.00000
   4016     115.3556      0.00000
   4017     115.3780      0.00000
   4018     115.3926      0.00000
   4019     115.4314      0.00000
   4020     115.4333      0.00000
   4021     115.4476      0.00000
   4022     115.4511      0.00000
   4023     115.4703      0.00000
   4024     115.5282      0.00000
   4025     115.5476      0.00000
   4026     115.5576      0.00000
   4027     115.5715      0.00000
   4028     115.6114      0.00000
   4029     115.6203      0.00000
   4030     115.6451      0.00000
   4031     115.6532      0.00000
   4032     115.6833      0.00000
   4033     115.6851      0.00000
   4034     115.7157      0.00000
   4035     115.7412      0.00000
   4036     115.7683      0.00000
   4037     115.7870      0.00000
   4038     115.7974      0.00000
   4039     115.8044      0.00000
   4040     115.8237      0.00000
   4041     115.8463      0.00000
   4042     115.8895      0.00000
   4043     115.9014      0.00000
   4044     115.9249      0.00000
   4045     115.9314      0.00000
   4046     115.9473      0.00000
   4047     115.9616      0.00000
   4048     115.9887      0.00000
   4049     116.0176      0.00000
   4050     116.0420      0.00000
   4051     116.0618      0.00000
   4052     116.0748      0.00000
   4053     116.0931      0.00000
   4054     116.1172      0.00000
   4055     116.1220      0.00000
   4056     116.1378      0.00000
   4057     116.1558      0.00000
   4058     116.1719      0.00000
   4059     116.1879      0.00000
   4060     116.2150      0.00000
   4061     116.2289      0.00000
   4062     116.2349      0.00000
   4063     116.2642      0.00000
   4064     116.2847      0.00000
   4065     116.3041      0.00000
   4066     116.3381      0.00000
   4067     116.3433      0.00000
   4068     116.3523      0.00000
   4069     116.3683      0.00000
   4070     116.3988      0.00000
   4071     116.4136      0.00000
   4072     116.4294      0.00000
   4073     116.4415      0.00000
   4074     116.4516      0.00000
   4075     116.4716      0.00000
   4076     116.4757      0.00000
   4077     116.4937      0.00000
   4078     116.5293      0.00000
   4079     116.5333      0.00000
   4080     116.5648      0.00000
   4081     116.5752      0.00000
   4082     116.6032      0.00000
   4083     116.6168      0.00000
   4084     116.6327      0.00000
   4085     116.6611      0.00000
   4086     116.6718      0.00000
   4087     116.6788      0.00000
   4088     116.7105      0.00000
   4089     116.7250      0.00000
   4090     116.7358      0.00000
   4091     116.7507      0.00000
   4092     116.7719      0.00000
   4093     116.7848      0.00000
   4094     116.8091      0.00000
   4095     116.8455      0.00000
   4096     116.8661      0.00000
   4097     116.8798      0.00000
   4098     116.9057      0.00000
   4099     116.9146      0.00000
   4100     116.9326      0.00000
   4101     116.9589      0.00000
   4102     116.9863      0.00000
   4103     116.9929      0.00000
   4104     117.0097      0.00000
   4105     117.0395      0.00000
   4106     117.0617      0.00000
   4107     117.0722      0.00000
   4108     117.0831      0.00000
   4109     117.0974      0.00000
   4110     117.1189      0.00000
   4111     117.1441      0.00000
   4112     117.1646      0.00000
   4113     117.1716      0.00000
   4114     117.1861      0.00000
   4115     117.2010      0.00000
   4116     117.2182      0.00000
   4117     117.2507      0.00000
   4118     117.2645      0.00000
   4119     117.2790      0.00000
   4120     117.2908      0.00000
   4121     117.3048      0.00000
   4122     117.3149      0.00000
   4123     117.3214      0.00000
   4124     117.3382      0.00000
   4125     117.3622      0.00000
   4126     117.3709      0.00000
   4127     117.3950      0.00000
   4128     117.4372      0.00000
   4129     117.4444      0.00000
   4130     117.4510      0.00000
   4131     117.4839      0.00000
   4132     117.4977      0.00000
   4133     117.5325      0.00000
   4134     117.5527      0.00000
   4135     117.5774      0.00000
   4136     117.5950      0.00000
   4137     117.6037      0.00000
   4138     117.6204      0.00000
   4139     117.6376      0.00000
   4140     117.6522      0.00000
   4141     117.6815      0.00000
   4142     117.6903      0.00000
   4143     117.6994      0.00000
   4144     117.7119      0.00000
   4145     117.7505      0.00000
   4146     117.7697      0.00000
   4147     117.7845      0.00000
   4148     117.8138      0.00000
   4149     117.8296      0.00000
   4150     117.8378      0.00000
   4151     117.8462      0.00000
   4152     117.8829      0.00000
   4153     117.8945      0.00000
   4154     117.9184      0.00000
   4155     117.9275      0.00000
   4156     117.9443      0.00000
   4157     117.9733      0.00000
   4158     117.9999      0.00000
   4159     118.0176      0.00000
   4160     118.0408      0.00000
   4161     118.0503      0.00000
   4162     118.0632      0.00000
   4163     118.0840      0.00000
   4164     118.1169      0.00000
   4165     118.1263      0.00000
   4166     118.1394      0.00000
   4167     118.1735      0.00000
   4168     118.1803      0.00000
   4169     118.1972      0.00000
   4170     118.2110      0.00000
   4171     118.2481      0.00000
   4172     118.2569      0.00000
   4173     118.2835      0.00000
   4174     118.3190      0.00000
   4175     118.3235      0.00000
   4176     118.3312      0.00000
   4177     118.3524      0.00000
   4178     118.3757      0.00000
   4179     118.3852      0.00000
   4180     118.4121      0.00000
   4181     118.4279      0.00000
   4182     118.4461      0.00000
   4183     118.4654      0.00000
   4184     118.4740      0.00000
   4185     118.5051      0.00000
   4186     118.5228      0.00000
   4187     118.5434      0.00000
   4188     118.5666      0.00000
   4189     118.5750      0.00000
   4190     118.6072      0.00000
   4191     118.6199      0.00000
   4192     118.6359      0.00000
   4193     118.6405      0.00000
   4194     118.6637      0.00000
   4195     118.7012      0.00000
   4196     118.7160      0.00000
   4197     118.7329      0.00000
   4198     118.7667      0.00000
   4199     118.7809      0.00000
   4200     118.8109      0.00000
   4201     118.8138      0.00000
   4202     118.8322      0.00000
   4203     118.8679      0.00000
   4204     118.8755      0.00000
   4205     118.9032      0.00000
   4206     118.9297      0.00000
   4207     118.9615      0.00000
   4208     118.9820      0.00000
   4209     119.0117      0.00000
   4210     119.0298      0.00000
   4211     119.0368      0.00000
   4212     119.0632      0.00000
   4213     119.0808      0.00000
   4214     119.1198      0.00000
   4215     119.1294      0.00000
   4216     119.1438      0.00000
   4217     119.1685      0.00000
   4218     119.1893      0.00000
   4219     119.2126      0.00000
   4220     119.2275      0.00000
   4221     119.2428      0.00000
   4222     119.2632      0.00000
   4223     119.2811      0.00000
   4224     119.3149      0.00000
   4225     119.3249      0.00000
   4226     119.3301      0.00000
   4227     119.3481      0.00000
   4228     119.3582      0.00000
   4229     119.3838      0.00000
   4230     119.3867      0.00000
   4231     119.4166      0.00000
   4232     119.4415      0.00000
   4233     119.4592      0.00000
   4234     119.4618      0.00000
   4235     119.4846      0.00000
   4236     119.5070      0.00000
   4237     119.5517      0.00000
   4238     119.5677      0.00000
   4239     119.5817      0.00000
   4240     119.6057      0.00000
   4241     119.6277      0.00000
   4242     119.6412      0.00000
   4243     119.6445      0.00000
   4244     119.6730      0.00000
   4245     119.6834      0.00000
   4246     119.7183      0.00000
   4247     119.7282      0.00000
   4248     119.7507      0.00000
   4249     119.7590      0.00000
   4250     119.7949      0.00000
   4251     119.8088      0.00000
   4252     119.8238      0.00000
   4253     119.8403      0.00000
   4254     119.8501      0.00000
   4255     119.8859      0.00000
   4256     119.8988      0.00000
   4257     119.9139      0.00000
   4258     119.9432      0.00000
   4259     119.9707      0.00000
   4260     119.9837      0.00000
   4261     120.0065      0.00000
   4262     120.0084      0.00000
   4263     120.0400      0.00000
   4264     120.0506      0.00000
   4265     120.0716      0.00000
   4266     120.1137      0.00000
   4267     120.1263      0.00000
   4268     120.1339      0.00000
   4269     120.1419      0.00000
   4270     120.1707      0.00000
   4271     120.1776      0.00000
   4272     120.1778      0.00000
   4273     120.2098      0.00000
   4274     120.2114      0.00000
   4275     120.2415      0.00000
   4276     120.2642      0.00000
   4277     120.3141      0.00000
   4278     120.3370      0.00000
   4279     120.3394      0.00000
   4280     120.3574      0.00000
   4281     120.3734      0.00000
   4282     120.3954      0.00000
   4283     120.4113      0.00000
   4284     120.4231      0.00000
   4285     120.4337      0.00000
   4286     120.4508      0.00000
   4287     120.4651      0.00000
   4288     120.4831      0.00000
   4289     120.4956      0.00000
   4290     120.5109      0.00000
   4291     120.5475      0.00000
   4292     120.5547      0.00000
   4293     120.5684      0.00000
   4294     120.5974      0.00000
   4295     120.6117      0.00000
   4296     120.6351      0.00000
   4297     120.6596      0.00000
   4298     120.6795      0.00000
   4299     120.6975      0.00000
   4300     120.7022      0.00000
   4301     120.7228      0.00000
   4302     120.7447      0.00000
   4303     120.7678      0.00000
   4304     120.7844      0.00000
   4305     120.8049      0.00000
   4306     120.8199      0.00000
   4307     120.8344      0.00000
   4308     120.8479      0.00000
   4309     120.8645      0.00000
   4310     120.8927      0.00000
   4311     120.9082      0.00000
   4312     120.9177      0.00000
   4313     120.9626      0.00000
   4314     120.9779      0.00000
   4315     120.9967      0.00000
   4316     121.0120      0.00000
   4317     121.0183      0.00000
   4318     121.0453      0.00000
   4319     121.0530      0.00000
   4320     121.0750      0.00000
   4321     121.0991      0.00000
   4322     121.1064      0.00000
   4323     121.1263      0.00000
   4324     121.1518      0.00000
   4325     121.1617      0.00000
   4326     121.1778      0.00000
   4327     121.1830      0.00000
   4328     121.2036      0.00000
   4329     121.2294      0.00000
   4330     121.2392      0.00000
   4331     121.2520      0.00000
   4332     121.2625      0.00000
   4333     121.2929      0.00000
   4334     121.3047      0.00000
   4335     121.3284      0.00000
   4336     121.3400      0.00000
   4337     121.3578      0.00000
   4338     121.3786      0.00000
   4339     121.3992      0.00000
   4340     121.4207      0.00000
   4341     121.4335      0.00000
   4342     121.4475      0.00000
   4343     121.4698      0.00000
   4344     121.4984      0.00000
   4345     121.5152      0.00000
   4346     121.5305      0.00000
   4347     121.5372      0.00000
   4348     121.5641      0.00000
   4349     121.5929      0.00000
   4350     121.6069      0.00000
   4351     121.6350      0.00000
   4352     121.6410      0.00000
   4353     121.6655      0.00000
   4354     121.7003      0.00000
   4355     121.7081      0.00000
   4356     121.7197      0.00000
   4357     121.7504      0.00000
   4358     121.7667      0.00000
   4359     121.7858      0.00000
   4360     121.8210      0.00000
   4361     121.8283      0.00000
   4362     121.8494      0.00000
   4363     121.8863      0.00000
   4364     121.9003      0.00000
   4365     121.9164      0.00000
   4366     121.9427      0.00000
   4367     121.9459      0.00000
   4368     121.9724      0.00000
   4369     121.9903      0.00000
   4370     121.9920      0.00000
   4371     122.0079      0.00000
   4372     122.0199      0.00000
   4373     122.0584      0.00000
   4374     122.0705      0.00000
   4375     122.0739      0.00000
   4376     122.0934      0.00000
   4377     122.1178      0.00000
   4378     122.1455      0.00000
   4379     122.1640      0.00000
   4380     122.1734      0.00000
   4381     122.1817      0.00000
   4382     122.2075      0.00000
   4383     122.2333      0.00000
   4384     122.2486      0.00000
   4385     122.2606      0.00000
   4386     122.2788      0.00000
   4387     122.3137      0.00000
   4388     122.3291      0.00000
   4389     122.3549      0.00000
   4390     122.3595      0.00000
   4391     122.3873      0.00000
   4392     122.3925      0.00000
   4393     122.4177      0.00000
   4394     122.4267      0.00000
   4395     122.4454      0.00000
   4396     122.4578      0.00000
   4397     122.4893      0.00000
   4398     122.5155      0.00000
   4399     122.5323      0.00000
   4400     122.5673      0.00000
   4401     122.5749      0.00000
   4402     122.6074      0.00000
   4403     122.6170      0.00000
   4404     122.6377      0.00000
   4405     122.6440      0.00000
   4406     122.6582      0.00000
   4407     122.6742      0.00000
   4408     122.7080      0.00000
   4409     122.7157      0.00000
   4410     122.7450      0.00000
   4411     122.7729      0.00000
   4412     122.7845      0.00000
   4413     122.7970      0.00000
   4414     122.8039      0.00000
   4415     122.8231      0.00000
   4416     122.8450      0.00000
   4417     122.8587      0.00000
   4418     122.8686      0.00000
   4419     122.8973      0.00000
   4420     122.9062      0.00000
   4421     122.9195      0.00000
   4422     122.9388      0.00000
   4423     122.9506      0.00000
   4424     122.9712      0.00000
   4425     123.0060      0.00000
   4426     123.0241      0.00000
   4427     123.0384      0.00000
   4428     123.0725      0.00000
   4429     123.0851      0.00000
   4430     123.1126      0.00000
   4431     123.1355      0.00000
   4432     123.1495      0.00000
   4433     123.1787      0.00000
   4434     123.1977      0.00000
   4435     123.2210      0.00000
   4436     123.2335      0.00000
   4437     123.2465      0.00000
   4438     123.2572      0.00000
   4439     123.2771      0.00000
   4440     123.2850      0.00000
   4441     123.3188      0.00000
   4442     123.3293      0.00000
   4443     123.3680      0.00000
   4444     123.3725      0.00000
   4445     123.3832      0.00000
   4446     123.4049      0.00000
   4447     123.4326      0.00000
   4448     123.4444      0.00000
   4449     123.4634      0.00000
   4450     123.4750      0.00000
   4451     123.4928      0.00000
   4452     123.5023      0.00000
   4453     123.5265      0.00000
   4454     123.5410      0.00000
   4455     123.5688      0.00000
   4456     123.5746      0.00000
   4457     123.5952      0.00000
   4458     123.6095      0.00000
   4459     123.6320      0.00000
   4460     123.6443      0.00000
   4461     123.6718      0.00000
   4462     123.6802      0.00000
   4463     123.7039      0.00000
   4464     123.7151      0.00000
   4465     123.7277      0.00000
   4466     123.7469      0.00000
   4467     123.7606      0.00000
   4468     123.7875      0.00000
   4469     123.7979      0.00000
   4470     123.8161      0.00000
   4471     123.8240      0.00000
   4472     123.8524      0.00000
   4473     123.8719      0.00000
   4474     123.8990      0.00000
   4475     123.9281      0.00000
   4476     123.9456      0.00000
   4477     123.9764      0.00000
   4478     123.9913      0.00000
   4479     124.0133      0.00000
   4480     124.0154      0.00000
   4481     124.0657      0.00000
   4482     124.0670      0.00000
   4483     124.0783      0.00000
   4484     124.0886      0.00000
   4485     124.0948      0.00000
   4486     124.1142      0.00000
   4487     124.1411      0.00000
   4488     124.1441      0.00000
   4489     124.1577      0.00000
   4490     124.1984      0.00000
   4491     124.2140      0.00000
   4492     124.2245      0.00000
   4493     124.2365      0.00000
   4494     124.2495      0.00000
   4495     124.2604      0.00000
   4496     124.2956      0.00000
   4497     124.3028      0.00000
   4498     124.3198      0.00000
   4499     124.3302      0.00000
   4500     124.3552      0.00000
   4501     124.3739      0.00000
   4502     124.3802      0.00000
   4503     124.4113      0.00000
   4504     124.4181      0.00000
   4505     124.4394      0.00000
   4506     124.4540      0.00000
   4507     124.4701      0.00000
   4508     124.4924      0.00000
   4509     124.5043      0.00000
   4510     124.5178      0.00000
   4511     124.5546      0.00000
   4512     124.5719      0.00000
   4513     124.5860      0.00000
   4514     124.5918      0.00000
   4515     124.6177      0.00000
   4516     124.6423      0.00000
   4517     124.6491      0.00000
   4518     124.6594      0.00000
   4519     124.6831      0.00000
   4520     124.6981      0.00000
   4521     124.7160      0.00000
   4522     124.7502      0.00000
   4523     124.7682      0.00000
   4524     124.7811      0.00000
   4525     124.7911      0.00000
   4526     124.8033      0.00000
   4527     124.8101      0.00000
   4528     124.8238      0.00000
   4529     124.8402      0.00000
   4530     124.8703      0.00000
   4531     124.8886      0.00000
   4532     124.9110      0.00000
   4533     124.9463      0.00000
   4534     124.9564      0.00000
   4535     124.9677      0.00000
   4536     124.9754      0.00000
   4537     124.9820      0.00000
   4538     124.9963      0.00000
   4539     125.0327      0.00000
   4540     125.0449      0.00000
   4541     125.0642      0.00000
   4542     125.0926      0.00000
   4543     125.1282      0.00000
   4544     125.1344      0.00000
   4545     125.1500      0.00000
   4546     125.1547      0.00000
   4547     125.1832      0.00000
   4548     125.1972      0.00000
   4549     125.2082      0.00000
   4550     125.2412      0.00000
   4551     125.2483      0.00000
   4552     125.2565      0.00000
   4553     125.2580      0.00000
   4554     125.2698      0.00000
   4555     125.3122      0.00000
   4556     125.3275      0.00000
   4557     125.3538      0.00000
   4558     125.3624      0.00000
   4559     125.3790      0.00000
   4560     125.4192      0.00000
   4561     125.4280      0.00000
   4562     125.4591      0.00000
   4563     125.4692      0.00000
   4564     125.4936      0.00000
   4565     125.5064      0.00000
   4566     125.5266      0.00000
   4567     125.5547      0.00000
   4568     125.5628      0.00000
   4569     125.5906      0.00000
   4570     125.6153      0.00000
   4571     125.6273      0.00000
   4572     125.6339      0.00000
   4573     125.6604      0.00000
   4574     125.6897      0.00000
   4575     125.7007      0.00000
   4576     125.7256      0.00000
   4577     125.7289      0.00000
   4578     125.7356      0.00000
   4579     125.7589      0.00000
   4580     125.7799      0.00000
   4581     125.8030      0.00000
   4582     125.8235      0.00000
   4583     125.8443      0.00000
   4584     125.8517      0.00000
   4585     125.8600      0.00000
   4586     125.8651      0.00000
   4587     125.8833      0.00000
   4588     125.9060      0.00000
   4589     125.9235      0.00000
   4590     125.9619      0.00000
   4591     125.9771      0.00000
   4592     125.9969      0.00000
   4593     126.0230      0.00000
   4594     126.0294      0.00000
   4595     126.0410      0.00000
   4596     126.0477      0.00000
   4597     126.0708      0.00000
   4598     126.0855      0.00000
   4599     126.1144      0.00000
   4600     126.1449      0.00000
   4601     126.1509      0.00000
   4602     126.1634      0.00000
   4603     126.1791      0.00000
   4604     126.1868      0.00000
   4605     126.1985      0.00000
   4606     126.2339      0.00000
   4607     126.2390      0.00000
   4608     126.2807      0.00000
   4609     126.2838      0.00000
   4610     126.2996      0.00000
   4611     126.3084      0.00000
   4612     126.3331      0.00000
   4613     126.3417      0.00000
   4614     126.3507      0.00000
   4615     126.3809      0.00000
   4616     126.4071      0.00000
   4617     126.4233      0.00000
   4618     126.4374      0.00000
   4619     126.4410      0.00000
   4620     126.4581      0.00000
   4621     126.4950      0.00000
   4622     126.5085      0.00000
   4623     126.5279      0.00000
   4624     126.5390      0.00000
   4625     126.5575      0.00000
   4626     126.5783      0.00000
   4627     126.5979      0.00000
   4628     126.6254      0.00000
   4629     126.6396      0.00000
   4630     126.6575      0.00000
   4631     126.6620      0.00000
   4632     126.6889      0.00000
   4633     126.7207      0.00000
   4634     126.7353      0.00000
   4635     126.7436      0.00000
   4636     126.7693      0.00000
   4637     126.7715      0.00000
   4638     126.7858      0.00000
   4639     126.8073      0.00000
   4640     126.8216      0.00000
   4641     126.8399      0.00000
   4642     126.8656      0.00000
   4643     126.8936      0.00000
   4644     126.9126      0.00000
   4645     126.9498      0.00000
   4646     126.9610      0.00000
   4647     126.9719      0.00000
   4648     126.9884      0.00000
   4649     127.0106      0.00000
   4650     127.0259      0.00000
   4651     127.0391      0.00000
   4652     127.0552      0.00000
   4653     127.0636      0.00000
   4654     127.0905      0.00000
   4655     127.1182      0.00000
   4656     127.1237      0.00000
   4657     127.1381      0.00000
   4658     127.1535      0.00000
   4659     127.1774      0.00000
   4660     127.1946      0.00000
   4661     127.2074      0.00000
   4662     127.2117      0.00000
   4663     127.2361      0.00000
   4664     127.2559      0.00000
   4665     127.2876      0.00000
   4666     127.3232      0.00000
   4667     127.3518      0.00000
   4668     127.3582      0.00000
   4669     127.3628      0.00000
   4670     127.3809      0.00000
   4671     127.3945      0.00000
   4672     127.4173      0.00000
   4673     127.4418      0.00000
   4674     127.4499      0.00000
   4675     127.4594      0.00000
   4676     127.4797      0.00000
   4677     127.5044      0.00000
   4678     127.5200      0.00000
   4679     127.5462      0.00000
   4680     127.5682      0.00000
   4681     127.5780      0.00000
   4682     127.6009      0.00000
   4683     127.6116      0.00000
   4684     127.6324      0.00000
   4685     127.6463      0.00000
   4686     127.6752      0.00000
   4687     127.6924      0.00000
   4688     127.7012      0.00000
   4689     127.7266      0.00000
   4690     127.7381      0.00000
   4691     127.7548      0.00000
   4692     127.7673      0.00000
   4693     127.7916      0.00000
   4694     127.8110      0.00000
   4695     127.8352      0.00000
   4696     127.8490      0.00000
   4697     127.8660      0.00000
   4698     127.8711      0.00000
   4699     127.8812      0.00000
   4700     127.9194      0.00000
   4701     127.9389      0.00000
   4702     127.9502      0.00000
   4703     127.9707      0.00000
   4704     127.9975      0.00000
   4705     128.0114      0.00000
   4706     128.0259      0.00000
   4707     128.0382      0.00000
   4708     128.0793      0.00000
   4709     128.0826      0.00000
   4710     128.1058      0.00000
   4711     128.1109      0.00000
   4712     128.1199      0.00000
   4713     128.1568      0.00000
   4714     128.1613      0.00000
   4715     128.1699      0.00000
   4716     128.2080      0.00000
   4717     128.2349      0.00000
   4718     128.2418      0.00000
   4719     128.2496      0.00000
   4720     128.2727      0.00000
   4721     128.2962      0.00000
   4722     128.3141      0.00000
   4723     128.3245      0.00000
   4724     128.3361      0.00000
   4725     128.3419      0.00000
   4726     128.3711      0.00000
   4727     128.4005      0.00000
   4728     128.4235      0.00000
   4729     128.4504      0.00000
   4730     128.4641      0.00000
   4731     128.4797      0.00000
   4732     128.4923      0.00000
   4733     128.5288      0.00000
   4734     128.5429      0.00000
   4735     128.5449      0.00000
   4736     128.5585      0.00000
   4737     128.5713      0.00000
   4738     128.5839      0.00000
   4739     128.6238      0.00000
   4740     128.6286      0.00000
   4741     128.6629      0.00000
   4742     128.6753      0.00000
   4743     128.6921      0.00000
   4744     128.7219      0.00000
   4745     128.7334      0.00000
   4746     128.7426      0.00000
   4747     128.7562      0.00000
   4748     128.7654      0.00000
   4749     128.7801      0.00000
   4750     128.7855      0.00000
   4751     128.8010      0.00000
   4752     128.8260      0.00000
   4753     128.8424      0.00000
   4754     128.8655      0.00000
   4755     128.8701      0.00000
   4756     128.8805      0.00000
   4757     128.8989      0.00000
   4758     128.9086      0.00000
   4759     128.9288      0.00000
   4760     128.9465      0.00000
   4761     128.9610      0.00000
   4762     128.9823      0.00000
   4763     129.0049      0.00000
   4764     129.0182      0.00000
   4765     129.0375      0.00000
   4766     129.0427      0.00000
   4767     129.0654      0.00000
   4768     129.0744      0.00000
   4769     129.1041      0.00000
   4770     129.1327      0.00000
   4771     129.1388      0.00000
   4772     129.1536      0.00000
   4773     129.1604      0.00000
   4774     129.2016      0.00000
   4775     129.2132      0.00000
   4776     129.2258      0.00000
   4777     129.2352      0.00000
   4778     129.2585      0.00000
   4779     129.2609      0.00000
   4780     129.2717      0.00000
   4781     129.2979      0.00000
   4782     129.2990      0.00000
   4783     129.3340      0.00000
   4784     129.3554      0.00000
   4785     129.3613      0.00000
   4786     129.3724      0.00000
   4787     129.3947      0.00000
   4788     129.4162      0.00000
   4789     129.4357      0.00000
   4790     129.4573      0.00000
   4791     129.4757      0.00000
   4792     129.4826      0.00000
   4793     129.4966      0.00000
   4794     129.5192      0.00000
   4795     129.5230      0.00000
   4796     129.5371      0.00000
   4797     129.5696      0.00000
   4798     129.5743      0.00000
   4799     129.5872      0.00000
   4800     129.6077      0.00000
   4801     129.6225      0.00000
   4802     129.6282      0.00000
   4803     129.6591      0.00000
   4804     129.6625      0.00000
   4805     129.6897      0.00000
   4806     129.7061      0.00000
   4807     129.7417      0.00000
   4808     129.7475      0.00000
   4809     129.7596      0.00000
   4810     129.7737      0.00000
   4811     129.7874      0.00000
   4812     129.8132      0.00000
   4813     129.8343      0.00000
   4814     129.8502      0.00000
   4815     129.8561      0.00000
   4816     129.8717      0.00000
   4817     129.8983      0.00000
   4818     129.9148      0.00000
   4819     129.9298      0.00000
   4820     129.9385      0.00000
   4821     129.9463      0.00000
   4822     129.9820      0.00000
   4823     129.9983      0.00000
   4824     130.0152      0.00000
   4825     130.0205      0.00000
   4826     130.0737      0.00000
   4827     130.0759      0.00000
   4828     130.0925      0.00000
   4829     130.1194      0.00000
   4830     130.1255      0.00000
   4831     130.1388      0.00000
   4832     130.1581      0.00000
   4833     130.1688      0.00000
   4834     130.1924      0.00000
   4835     130.2215      0.00000
   4836     130.2301      0.00000
   4837     130.2547      0.00000
   4838     130.2901      0.00000
   4839     130.2959      0.00000
   4840     130.3260      0.00000
   4841     130.3305      0.00000
   4842     130.3397      0.00000
   4843     130.3568      0.00000
   4844     130.3692      0.00000
   4845     130.3942      0.00000
   4846     130.3962      0.00000
   4847     130.4211      0.00000
   4848     130.4386      0.00000
   4849     130.4562      0.00000
   4850     130.4613      0.00000
   4851     130.4682      0.00000
   4852     130.4908      0.00000
   4853     130.5041      0.00000
   4854     130.5144      0.00000
   4855     130.5278      0.00000
   4856     130.5613      0.00000
   4857     130.5888      0.00000
   4858     130.6128      0.00000
   4859     130.6189      0.00000
   4860     130.6526      0.00000
   4861     130.6651      0.00000
   4862     130.6802      0.00000
   4863     130.6996      0.00000
   4864     130.7141      0.00000
   4865     130.7435      0.00000
   4866     130.7718      0.00000
   4867     130.7886      0.00000
   4868     130.7967      0.00000
   4869     130.8245      0.00000
   4870     130.8283      0.00000
   4871     130.8436      0.00000
   4872     130.8685      0.00000
   4873     130.8738      0.00000
   4874     130.8914      0.00000
   4875     130.9085      0.00000
   4876     130.9151      0.00000
   4877     130.9354      0.00000
   4878     130.9658      0.00000
   4879     130.9826      0.00000
   4880     131.0191      0.00000
   4881     131.0250      0.00000
   4882     131.0490      0.00000
   4883     131.0664      0.00000
   4884     131.0919      0.00000
   4885     131.1024      0.00000
   4886     131.1270      0.00000
   4887     131.1484      0.00000
   4888     131.1586      0.00000
   4889     131.1739      0.00000
   4890     131.1949      0.00000
   4891     131.2081      0.00000
   4892     131.2300      0.00000
   4893     131.2545      0.00000
   4894     131.2828      0.00000
   4895     131.2958      0.00000
   4896     131.3187      0.00000
   4897     131.3342      0.00000
   4898     131.3470      0.00000
   4899     131.3733      0.00000
   4900     131.3869      0.00000
   4901     131.4065      0.00000
   4902     131.4378      0.00000
   4903     131.4615      0.00000
   4904     131.4833      0.00000
   4905     131.4958      0.00000
   4906     131.4988      0.00000
   4907     131.5331      0.00000
   4908     131.5536      0.00000
   4909     131.5602      0.00000
   4910     131.5801      0.00000
   4911     131.6172      0.00000
   4912     131.6195      0.00000
   4913     131.6617      0.00000
   4914     131.6732      0.00000
   4915     131.6979      0.00000
   4916     131.7114      0.00000
   4917     131.7329      0.00000
   4918     131.7770      0.00000
   4919     131.7874      0.00000
   4920     131.8026      0.00000
   4921     131.8116      0.00000
   4922     131.8451      0.00000
   4923     131.8538      0.00000
   4924     131.8895      0.00000
   4925     131.9161      0.00000
   4926     131.9311      0.00000
   4927     131.9570      0.00000
   4928     131.9603      0.00000
   4929     132.0041      0.00000
   4930     132.0167      0.00000
   4931     132.0336      0.00000
   4932     132.0696      0.00000
   4933     132.0772      0.00000
   4934     132.1133      0.00000
   4935     132.1498      0.00000
   4936     132.1551      0.00000
   4937     132.1831      0.00000
   4938     132.1967      0.00000
   4939     132.2303      0.00000
   4940     132.2429      0.00000
   4941     132.2818      0.00000
   4942     132.3012      0.00000
   4943     132.3286      0.00000
   4944     132.3531      0.00000
   4945     132.3691      0.00000
   4946     132.3760      0.00000
   4947     132.4036      0.00000
   4948     132.4328      0.00000
   4949     132.4398      0.00000
   4950     132.4653      0.00000
   4951     132.4884      0.00000
   4952     132.4945      0.00000
   4953     132.5238      0.00000
   4954     132.5506      0.00000
   4955     132.5896      0.00000
   4956     132.5965      0.00000
   4957     132.6375      0.00000
   4958     132.6594      0.00000
   4959     132.6733      0.00000
   4960     132.7125      0.00000
   4961     132.7397      0.00000
   4962     132.7475      0.00000
   4963     132.7602      0.00000
   4964     132.8065      0.00000
   4965     132.8185      0.00000
   4966     132.8432      0.00000
   4967     132.8692      0.00000
   4968     132.9019      0.00000
   4969     132.9154      0.00000
   4970     132.9267      0.00000
   4971     132.9531      0.00000
   4972     132.9764      0.00000
   4973     132.9942      0.00000
   4974     133.0331      0.00000
   4975     133.0543      0.00000
   4976     133.0851      0.00000
   4977     133.1149      0.00000
   4978     133.1439      0.00000
   4979     133.1641      0.00000
   4980     133.1769      0.00000
   4981     133.1899      0.00000
   4982     133.2135      0.00000
   4983     133.2378      0.00000
   4984     133.2498      0.00000
   4985     133.2884      0.00000
   4986     133.3026      0.00000
   4987     133.3313      0.00000
   4988     133.3336      0.00000
   4989     133.3633      0.00000
   4990     133.3745      0.00000
   4991     133.4008      0.00000
   4992     133.4046      0.00000
   4993     133.4537      0.00000
   4994     133.4632      0.00000
   4995     133.4781      0.00000
   4996     133.4855      0.00000
   4997     133.5164      0.00000
   4998     133.5317      0.00000
   4999     133.5642      0.00000
   5000     133.5973      0.00000
   5001     133.6260      0.00000
   5002     133.6459      0.00000
   5003     133.6540      0.00000
   5004     133.6782      0.00000
   5005     133.7037      0.00000
   5006     133.7143      0.00000
   5007     133.7478      0.00000
   5008     133.7611      0.00000
   5009     133.7868      0.00000
   5010     133.8186      0.00000
   5011     133.8332      0.00000
   5012     133.8385      0.00000
   5013     133.8613      0.00000
   5014     133.8726      0.00000
   5015     133.9233      0.00000
   5016     133.9325      0.00000
   5017     133.9601      0.00000
   5018     133.9937      0.00000
   5019     134.0018      0.00000
   5020     134.0206      0.00000
   5021     134.0233      0.00000
   5022     134.0619      0.00000
   5023     134.0800      0.00000
   5024     134.0996      0.00000
   5025     134.1121      0.00000
   5026     134.1371      0.00000
   5027     134.1484      0.00000
   5028     134.1663      0.00000
   5029     134.1795      0.00000
   5030     134.2021      0.00000
   5031     134.2082      0.00000
   5032     134.2353      0.00000
   5033     134.2824      0.00000
   5034     134.2974      0.00000
   5035     134.3098      0.00000
   5036     134.3229      0.00000
   5037     134.3321      0.00000
   5038     134.3559      0.00000
   5039     134.3904      0.00000
   5040     134.3982      0.00000
   5041     134.4282      0.00000
   5042     134.4410      0.00000
   5043     134.4742      0.00000
   5044     134.4861      0.00000
   5045     134.5160      0.00000
   5046     134.5261      0.00000
   5047     134.5364      0.00000
   5048     134.5609      0.00000
   5049     134.5877      0.00000
   5050     134.5941      0.00000
   5051     134.6171      0.00000
   5052     134.6400      0.00000
   5053     134.6527      0.00000
   5054     134.7016      0.00000
   5055     134.7118      0.00000
   5056     134.7266      0.00000
   5057     134.7455      0.00000
   5058     134.7625      0.00000
   5059     134.7714      0.00000
   5060     134.7854      0.00000
   5061     134.8114      0.00000
   5062     134.8251      0.00000
   5063     134.8393      0.00000
   5064     134.8680      0.00000
   5065     134.8799      0.00000
   5066     134.9071      0.00000
   5067     134.9247      0.00000
   5068     134.9346      0.00000
   5069     134.9434      0.00000
   5070     134.9752      0.00000
   5071     134.9778      0.00000
   5072     135.0001      0.00000
   5073     135.0228      0.00000
   5074     135.0326      0.00000
   5075     135.0419      0.00000
   5076     135.0481      0.00000
   5077     135.0828      0.00000
   5078     135.0916      0.00000
   5079     135.1032      0.00000
   5080     135.1347      0.00000
   5081     135.1661      0.00000
   5082     135.1825      0.00000
   5083     135.2052      0.00000
   5084     135.2242      0.00000
   5085     135.2350      0.00000
   5086     135.2398      0.00000
   5087     135.2469      0.00000
   5088     135.2677      0.00000
   5089     135.2843      0.00000
   5090     135.2972      0.00000
   5091     135.3235      0.00000
   5092     135.3575      0.00000
   5093     135.3670      0.00000
   5094     135.3780      0.00000
   5095     135.3829      0.00000
   5096     135.4028      0.00000
   5097     135.4254      0.00000
   5098     135.4425      0.00000
   5099     135.4497      0.00000
   5100     135.4664      0.00000
   5101     135.4864      0.00000
   5102     135.5232      0.00000
   5103     135.5327      0.00000
   5104     135.5414      0.00000
   5105     135.5493      0.00000
   5106     135.5764      0.00000
   5107     135.5900      0.00000
   5108     135.6130      0.00000
   5109     135.6192      0.00000
   5110     135.6440      0.00000
   5111     135.6722      0.00000
   5112     135.6893      0.00000
   5113     135.7012      0.00000
   5114     135.7291      0.00000
   5115     135.7381      0.00000
   5116     135.7622      0.00000
   5117     135.7836      0.00000
   5118     135.7951      0.00000
   5119     135.8080      0.00000
   5120     135.8229      0.00000
   5121     135.8408      0.00000
   5122     135.8493      0.00000
   5123     135.8631      0.00000
   5124     135.8860      0.00000
   5125     135.9153      0.00000
   5126     135.9219      0.00000
   5127     135.9342      0.00000
   5128     135.9594      0.00000
   5129     135.9831      0.00000
   5130     135.9973      0.00000
   5131     136.0089      0.00000
   5132     136.0475      0.00000
   5133     136.0563      0.00000
   5134     136.0680      0.00000
   5135     136.1060      0.00000
   5136     136.1108      0.00000
   5137     136.1330      0.00000
   5138     136.1451      0.00000
   5139     136.1679      0.00000
   5140     136.1772      0.00000
   5141     136.1970      0.00000
   5142     136.2043      0.00000
   5143     136.2093      0.00000
   5144     136.2507      0.00000
   5145     136.2586      0.00000
   5146     136.2844      0.00000
   5147     136.3128      0.00000
   5148     136.3303      0.00000
   5149     136.3417      0.00000
   5150     136.3472      0.00000
   5151     136.3551      0.00000
   5152     136.3956      0.00000
   5153     136.4064      0.00000
   5154     136.4119      0.00000
   5155     136.4372      0.00000
   5156     136.4471      0.00000
   5157     136.4683      0.00000
   5158     136.4778      0.00000
   5159     136.4794      0.00000
   5160     136.5138      0.00000
   5161     136.5160      0.00000
   5162     136.5331      0.00000
   5163     136.5643      0.00000
   5164     136.5689      0.00000
   5165     136.5878      0.00000
   5166     136.5972      0.00000
   5167     136.6519      0.00000
   5168     136.6616      0.00000
   5169     136.6729      0.00000
   5170     136.6982      0.00000
   5171     136.7139      0.00000
   5172     136.7254      0.00000
   5173     136.7581      0.00000
   5174     136.7679      0.00000
   5175     136.7844      0.00000
   5176     136.7902      0.00000
   5177     136.8413      0.00000
   5178     136.8511      0.00000
   5179     136.8751      0.00000
   5180     136.8917      0.00000
   5181     136.8957      0.00000
   5182     136.9033      0.00000
   5183     136.9217      0.00000
   5184     136.9441      0.00000
   5185     136.9495      0.00000
   5186     136.9618      0.00000
   5187     136.9893      0.00000
   5188     137.0005      0.00000
   5189     137.0414      0.00000
   5190     137.0531      0.00000
   5191     137.0587      0.00000
   5192     137.0817      0.00000
   5193     137.0988      0.00000
   5194     137.1138      0.00000
   5195     137.1147      0.00000
   5196     137.1499      0.00000
   5197     137.1697      0.00000
   5198     137.1819      0.00000
   5199     137.2027      0.00000
   5200     137.2195      0.00000
   5201     137.2348      0.00000
   5202     137.2472      0.00000
   5203     137.2666      0.00000
   5204     137.2843      0.00000
   5205     137.3000      0.00000
   5206     137.3063      0.00000
   5207     137.3371      0.00000
   5208     137.3443      0.00000
   5209     137.3770      0.00000
   5210     137.3872      0.00000
   5211     137.4022      0.00000
   5212     137.4195      0.00000
   5213     137.4354      0.00000
   5214     137.4440      0.00000
   5215     137.4633      0.00000
   5216     137.4861      0.00000
   5217     137.5094      0.00000
   5218     137.5205      0.00000
   5219     137.5270      0.00000
   5220     137.5492      0.00000
   5221     137.5578      0.00000
   5222     137.5794      0.00000
   5223     137.5942      0.00000
   5224     137.6244      0.00000
   5225     137.6408      0.00000
   5226     137.6521      0.00000
   5227     137.6619      0.00000
   5228     137.6797      0.00000
   5229     137.7114      0.00000
   5230     137.7297      0.00000
   5231     137.7405      0.00000
   5232     137.7603      0.00000
   5233     137.7841      0.00000
   5234     137.8089      0.00000
   5235     137.8258      0.00000
   5236     137.8414      0.00000
   5237     137.8459      0.00000
   5238     137.8815      0.00000
   5239     137.8954      0.00000
   5240     137.9114      0.00000
   5241     137.9351      0.00000
   5242     137.9481      0.00000
   5243     137.9519      0.00000
   5244     137.9750      0.00000
   5245     137.9910      0.00000
   5246     138.0172      0.00000
   5247     138.0309      0.00000
   5248     138.0395      0.00000
   5249     138.0512      0.00000
   5250     138.0703      0.00000
   5251     138.0864      0.00000
   5252     138.1187      0.00000
   5253     138.1296      0.00000
   5254     138.1474      0.00000
   5255     138.1531      0.00000
   5256     138.1600      0.00000
   5257     138.1840      0.00000
   5258     138.1885      0.00000
   5259     138.2242      0.00000
   5260     138.2512      0.00000
   5261     138.2589      0.00000
   5262     138.2767      0.00000
   5263     138.3038      0.00000
   5264     138.3381      0.00000
   5265     138.3526      0.00000
   5266     138.3707      0.00000
   5267     138.3904      0.00000
   5268     138.3970      0.00000
   5269     138.4198      0.00000
   5270     138.4388      0.00000
   5271     138.4568      0.00000
   5272     138.4681      0.00000
   5273     138.4889      0.00000
   5274     138.4951      0.00000
   5275     138.5115      0.00000
   5276     138.5160      0.00000
   5277     138.5220      0.00000
   5278     138.5477      0.00000
   5279     138.5706      0.00000
   5280     138.5896      0.00000
   5281     138.6013      0.00000
   5282     138.6260      0.00000
   5283     138.6481      0.00000
   5284     138.6500      0.00000
   5285     138.6723      0.00000
   5286     138.6976      0.00000
   5287     138.7193      0.00000
   5288     138.7303      0.00000
   5289     138.7442      0.00000
   5290     138.7505      0.00000
   5291     138.7627      0.00000
   5292     138.7729      0.00000
   5293     138.7865      0.00000
   5294     138.8107      0.00000
   5295     138.8347      0.00000
   5296     138.8373      0.00000
   5297     138.8571      0.00000
   5298     138.8762      0.00000
   5299     138.8821      0.00000
   5300     138.9002      0.00000
   5301     138.9131      0.00000
   5302     138.9360      0.00000
   5303     138.9416      0.00000
   5304     138.9742      0.00000
   5305     138.9901      0.00000
   5306     139.0112      0.00000
   5307     139.0168      0.00000
   5308     139.0300      0.00000
   5309     139.0662      0.00000
   5310     139.0937      0.00000
   5311     139.1077      0.00000
   5312     139.1265      0.00000
   5313     139.1470      0.00000
   5314     139.1620      0.00000
   5315     139.1651      0.00000
   5316     139.1876      0.00000
   5317     139.1973      0.00000
   5318     139.2143      0.00000
   5319     139.2381      0.00000
   5320     139.2671      0.00000
   5321     139.2903      0.00000
   5322     139.3002      0.00000
   5323     139.3052      0.00000
   5324     139.3241      0.00000
   5325     139.3450      0.00000
   5326     139.3623      0.00000
   5327     139.3735      0.00000
   5328     139.3988      0.00000
   5329     139.4037      0.00000
   5330     139.4265      0.00000
   5331     139.4392      0.00000
   5332     139.4621      0.00000
   5333     139.4678      0.00000
   5334     139.4971      0.00000
   5335     139.5090      0.00000
   5336     139.5233      0.00000
   5337     139.5345      0.00000
   5338     139.5602      0.00000
   5339     139.5864      0.00000
   5340     139.5889      0.00000
   5341     139.6035      0.00000
   5342     139.6097      0.00000
   5343     139.6387      0.00000
   5344     139.6528      0.00000
   5345     139.6665      0.00000
   5346     139.6708      0.00000
   5347     139.7055      0.00000
   5348     139.7323      0.00000
   5349     139.7463      0.00000
   5350     139.7676      0.00000
   5351     139.7789      0.00000
   5352     139.8067      0.00000
   5353     139.8156      0.00000
   5354     139.8290      0.00000
   5355     139.8491      0.00000
   5356     139.8526      0.00000
   5357     139.8633      0.00000
   5358     139.8990      0.00000
   5359     139.9049      0.00000
   5360     139.9416      0.00000
   5361     139.9555      0.00000
   5362     139.9696      0.00000
   5363     139.9771      0.00000
   5364     139.9866      0.00000
   5365     140.0043      0.00000
   5366     140.0201      0.00000
   5367     140.0282      0.00000
   5368     140.0669      0.00000
   5369     140.0797      0.00000
   5370     140.1011      0.00000
   5371     140.1104      0.00000
   5372     140.1142      0.00000
   5373     140.1490      0.00000
   5374     140.1830      0.00000
   5375     140.2020      0.00000
   5376     140.2131      0.00000
   5377     140.2219      0.00000
   5378     140.2248      0.00000
   5379     140.2331      0.00000
   5380     140.2603      0.00000
   5381     140.2689      0.00000
   5382     140.3036      0.00000
   5383     140.3120      0.00000
   5384     140.3423      0.00000
   5385     140.3468      0.00000
   5386     140.3591      0.00000
   5387     140.3916      0.00000
   5388     140.4120      0.00000
   5389     140.4203      0.00000
   5390     140.4359      0.00000
   5391     140.4604      0.00000
   5392     140.4720      0.00000
   5393     140.4948      0.00000
   5394     140.5035      0.00000
   5395     140.5243      0.00000
   5396     140.5403      0.00000
   5397     140.5458      0.00000
   5398     140.5731      0.00000
   5399     140.5760      0.00000
   5400     140.5877      0.00000
   5401     140.6100      0.00000
   5402     140.6178      0.00000
   5403     140.6310      0.00000
   5404     140.6476      0.00000
   5405     140.6891      0.00000
   5406     140.7062      0.00000
   5407     140.7159      0.00000
   5408     140.7443      0.00000
   5409     140.7607      0.00000
   5410     140.7722      0.00000
   5411     140.7892      0.00000
   5412     140.8110      0.00000
   5413     140.8154      0.00000
   5414     140.8193      0.00000
   5415     140.8448      0.00000
   5416     140.8592      0.00000
   5417     140.8788      0.00000
   5418     140.8819      0.00000
   5419     140.9137      0.00000
   5420     140.9388      0.00000
   5421     140.9458      0.00000
   5422     140.9464      0.00000
   5423     140.9734      0.00000
   5424     140.9880      0.00000
   5425     141.0033      0.00000
   5426     141.0330      0.00000
   5427     141.0497      0.00000
   5428     141.0770      0.00000
   5429     141.0894      0.00000
   5430     141.1002      0.00000
   5431     141.1188      0.00000
   5432     141.1357      0.00000
   5433     141.1428      0.00000
   5434     141.1584      0.00000
   5435     141.1716      0.00000
   5436     141.2129      0.00000
   5437     141.2323      0.00000
   5438     141.2741      0.00000
   5439     141.2891      0.00000
   5440     141.2962      0.00000
   5441     141.3041      0.00000
   5442     141.3174      0.00000
   5443     141.3345      0.00000
   5444     141.3532      0.00000
   5445     141.3638      0.00000
   5446     141.3759      0.00000
   5447     141.3912      0.00000
   5448     141.4249      0.00000
   5449     141.4358      0.00000
   5450     141.4680      0.00000
   5451     141.4849      0.00000
   5452     141.5181      0.00000
   5453     141.5219      0.00000
   5454     141.5351      0.00000
   5455     141.5579      0.00000
   5456     141.5780      0.00000
   5457     141.5883      0.00000
   5458     141.6254      0.00000
   5459     141.6394      0.00000
   5460     141.6576      0.00000
   5461     141.6659      0.00000
   5462     141.6939      0.00000
   5463     141.7193      0.00000
   5464     141.7334      0.00000
   5465     141.7428      0.00000
   5466     141.7713      0.00000
   5467     141.7791      0.00000
   5468     141.8202      0.00000
   5469     141.8410      0.00000
   5470     141.8502      0.00000
   5471     141.8660      0.00000
   5472     141.8880      0.00000
   5473     141.9252      0.00000
   5474     141.9370      0.00000
   5475     141.9569      0.00000
   5476     141.9666      0.00000
   5477     141.9855      0.00000
   5478     141.9936      0.00000
   5479     142.0127      0.00000
   5480     142.0359      0.00000
   5481     142.0620      0.00000
   5482     142.0751      0.00000
   5483     142.0881      0.00000
   5484     142.1079      0.00000
   5485     142.1255      0.00000
   5486     142.1478      0.00000
   5487     142.1515      0.00000
   5488     142.1637      0.00000
   5489     142.1930      0.00000
   5490     142.2094      0.00000
   5491     142.2283      0.00000
   5492     142.2645      0.00000
   5493     142.2678      0.00000
   5494     142.2875      0.00000
   5495     142.2986      0.00000
   5496     142.3267      0.00000
   5497     142.3602      0.00000
   5498     142.3634      0.00000
   5499     142.3930      0.00000
   5500     142.4089      0.00000
   5501     142.4272      0.00000
   5502     142.4483      0.00000
   5503     142.4749      0.00000
   5504     142.4892      0.00000
   5505     142.5043      0.00000
   5506     142.5291      0.00000
   5507     142.5393      0.00000
   5508     142.5605      0.00000
   5509     142.5833      0.00000
   5510     142.6190      0.00000
   5511     142.6454      0.00000
   5512     142.6617      0.00000
   5513     142.6800      0.00000
   5514     142.7069      0.00000
   5515     142.7199      0.00000
   5516     142.7362      0.00000
   5517     142.7619      0.00000
   5518     142.7708      0.00000
   5519     142.7985      0.00000
   5520     142.8107      0.00000
   5521     142.8174      0.00000
   5522     142.8299      0.00000
   5523     142.8459      0.00000
   5524     142.8710      0.00000
   5525     142.8785      0.00000
   5526     142.9015      0.00000
   5527     142.9277      0.00000
   5528     142.9476      0.00000
   5529     142.9639      0.00000
   5530     143.0244      0.00000
   5531     143.0322      0.00000
   5532     143.0547      0.00000
   5533     143.0806      0.00000
   5534     143.0846      0.00000
   5535     143.1073      0.00000
   5536     143.1154      0.00000
   5537     143.1442      0.00000
   5538     143.1641      0.00000
   5539     143.1974      0.00000
   5540     143.2042      0.00000
   5541     143.2329      0.00000
   5542     143.2343      0.00000
   5543     143.2608      0.00000
   5544     143.2708      0.00000
   5545     143.3059      0.00000
   5546     143.3119      0.00000
   5547     143.3466      0.00000
   5548     143.3630      0.00000
   5549     143.3788      0.00000
   5550     143.3964      0.00000
   5551     143.4114      0.00000
   5552     143.4284      0.00000
   5553     143.4367      0.00000
   5554     143.4804      0.00000
   5555     143.4949      0.00000
   5556     143.5059      0.00000
   5557     143.5157      0.00000
   5558     143.5174      0.00000
   5559     143.5380      0.00000
   5560     143.5617      0.00000
   5561     143.5711      0.00000
   5562     143.5960      0.00000
   5563     143.6094      0.00000
   5564     143.6156      0.00000
   5565     143.6481      0.00000
   5566     143.6644      0.00000
   5567     143.6694      0.00000
   5568     143.6910      0.00000
   5569     143.7012      0.00000
   5570     143.7472      0.00000
   5571     143.7489      0.00000
   5572     143.7967      0.00000
   5573     143.8258      0.00000
   5574     143.8347      0.00000
   5575     143.8478      0.00000
   5576     143.8693      0.00000
   5577     143.8831      0.00000
   5578     143.9226      0.00000
   5579     143.9270      0.00000
   5580     143.9467      0.00000
   5581     143.9756      0.00000
   5582     143.9847      0.00000
   5583     143.9979      0.00000
   5584     144.0254      0.00000
   5585     144.0321      0.00000
   5586     144.0453      0.00000
   5587     144.0777      0.00000
   5588     144.0805      0.00000
   5589     144.0931      0.00000
   5590     144.1044      0.00000
   5591     144.1145      0.00000
   5592     144.1467      0.00000
   5593     144.1738      0.00000
   5594     144.1853      0.00000
   5595     144.2067      0.00000
   5596     144.2329      0.00000
   5597     144.2534      0.00000
   5598     144.2779      0.00000
   5599     144.2958      0.00000
   5600     144.3096      0.00000
   5601     144.3271      0.00000
   5602     144.3539      0.00000
   5603     144.3771      0.00000
   5604     144.3988      0.00000
   5605     144.4083      0.00000
   5606     144.4268      0.00000
   5607     144.4374      0.00000
   5608     144.4614      0.00000
   5609     144.4649      0.00000
   5610     144.5024      0.00000
   5611     144.5171      0.00000
   5612     144.5308      0.00000
   5613     144.5540      0.00000
   5614     144.5634      0.00000
   5615     144.6037      0.00000
   5616     144.6110      0.00000
   5617     144.6184      0.00000
   5618     144.6403      0.00000
   5619     144.6723      0.00000
   5620     144.7057      0.00000
   5621     144.7181      0.00000
   5622     144.7335      0.00000
   5623     144.7720      0.00000
   5624     144.7832      0.00000
   5625     144.8023      0.00000
   5626     144.8109      0.00000
   5627     144.8320      0.00000
   5628     144.8592      0.00000
   5629     144.8720      0.00000
   5630     144.8822      0.00000
   5631     144.8860      0.00000
   5632     144.9165      0.00000
   5633     144.9471      0.00000
   5634     144.9592      0.00000
   5635     144.9764      0.00000
   5636     145.0077      0.00000
   5637     145.0252      0.00000
   5638     145.0361      0.00000
   5639     145.0545      0.00000
   5640     145.0723      0.00000
   5641     145.0867      0.00000
   5642     145.1130      0.00000
   5643     145.1484      0.00000
   5644     145.1618      0.00000
   5645     145.1778      0.00000
   5646     145.1821      0.00000
   5647     145.2154      0.00000
   5648     145.2186      0.00000
   5649     145.2391      0.00000
   5650     145.2718      0.00000
   5651     145.2910      0.00000
   5652     145.3087      0.00000
   5653     145.3216      0.00000
   5654     145.3510      0.00000
   5655     145.3522      0.00000
   5656     145.3716      0.00000
   5657     145.3994      0.00000
   5658     145.4232      0.00000
   5659     145.4339      0.00000
   5660     145.4500      0.00000
   5661     145.4785      0.00000
   5662     145.4866      0.00000
   5663     145.5175      0.00000
   5664     145.5343      0.00000
   5665     145.5462      0.00000
   5666     145.5662      0.00000
   5667     145.6092      0.00000
   5668     145.6427      0.00000
   5669     145.6555      0.00000
   5670     145.6734      0.00000
   5671     145.6894      0.00000
   5672     145.7014      0.00000
   5673     145.7262      0.00000
   5674     145.7493      0.00000
   5675     145.7623      0.00000
   5676     145.7714      0.00000
   5677     145.7953      0.00000
   5678     145.8017      0.00000
   5679     145.8339      0.00000
   5680     145.8710      0.00000
   5681     145.8870      0.00000
   5682     145.8897      0.00000
   5683     145.9194      0.00000
   5684     145.9250      0.00000
   5685     145.9459      0.00000
   5686     145.9750      0.00000
   5687     146.0051      0.00000
   5688     146.0307      0.00000
   5689     146.0453      0.00000
   5690     146.0683      0.00000
   5691     146.0784      0.00000
   5692     146.0931      0.00000
   5693     146.1124      0.00000
   5694     146.1257      0.00000
   5695     146.1588      0.00000
   5696     146.1764      0.00000
   5697     146.1839      0.00000
   5698     146.2296      0.00000
   5699     146.2406      0.00000
   5700     146.2680      0.00000
   5701     146.2899      0.00000
   5702     146.3209      0.00000
   5703     146.3254      0.00000
   5704     146.3282      0.00000
   5705     146.3432      0.00000
   5706     146.3759      0.00000
   5707     146.4007      0.00000
   5708     146.4141      0.00000
   5709     146.4349      0.00000
   5710     146.4554      0.00000
   5711     146.4846      0.00000
   5712     146.4963      0.00000
   5713     146.5150      0.00000
   5714     146.5265      0.00000
   5715     146.5305      0.00000
   5716     146.5638      0.00000
   5717     146.5890      0.00000
   5718     146.6091      0.00000
   5719     146.6353      0.00000
   5720     146.6439      0.00000
   5721     146.6730      0.00000
   5722     146.6949      0.00000
   5723     146.7068      0.00000
   5724     146.7324      0.00000
   5725     146.7509      0.00000
   5726     146.7542      0.00000
   5727     146.7721      0.00000
   5728     146.7825      0.00000
   5729     146.8250      0.00000
   5730     146.8277      0.00000
   5731     146.8478      0.00000
   5732     146.8626      0.00000
   5733     146.8776      0.00000
   5734     146.8877      0.00000
   5735     146.9190      0.00000
   5736     146.9405      0.00000
   5737     146.9511      0.00000
   5738     146.9800      0.00000
   5739     146.9963      0.00000
   5740     147.0067      0.00000
   5741     147.0402      0.00000
   5742     147.0468      0.00000
   5743     147.0593      0.00000
   5744     147.0973      0.00000
   5745     147.1101      0.00000
   5746     147.1292      0.00000
   5747     147.1353      0.00000
   5748     147.1577      0.00000
   5749     147.1920      0.00000
   5750     147.2019      0.00000
   5751     147.2295      0.00000
   5752     147.2570      0.00000
   5753     147.2607      0.00000
   5754     147.2713      0.00000
   5755     147.3022      0.00000
   5756     147.3228      0.00000
   5757     147.3383      0.00000
   5758     147.3493      0.00000
   5759     147.3657      0.00000
   5760     147.3987      0.00000
   5761     147.4212      0.00000
   5762     147.4425      0.00000
   5763     147.4521      0.00000
   5764     147.4661      0.00000
   5765     147.4756      0.00000
   5766     147.4919      0.00000
   5767     147.5000      0.00000
   5768     147.5202      0.00000
   5769     147.5377      0.00000
   5770     147.5506      0.00000
   5771     147.5743      0.00000
   5772     147.5922      0.00000
   5773     147.6062      0.00000
   5774     147.6131      0.00000
   5775     147.6263      0.00000
   5776     147.6764      0.00000
   5777     147.6805      0.00000
   5778     147.6885      0.00000
   5779     147.7001      0.00000
   5780     147.7228      0.00000
   5781     147.7384      0.00000
   5782     147.7623      0.00000
   5783     147.7724      0.00000
   5784     147.7995      0.00000
   5785     147.8135      0.00000
   5786     147.8312      0.00000
   5787     147.8367      0.00000
   5788     147.8530      0.00000
   5789     147.8715      0.00000
   5790     147.8923      0.00000
   5791     147.9207      0.00000
   5792     147.9399      0.00000
   5793     147.9590      0.00000
   5794     147.9699      0.00000
   5795     147.9751      0.00000
   5796     147.9915      0.00000
   5797     148.0283      0.00000
   5798     148.0419      0.00000
   5799     148.0476      0.00000
   5800     148.0543      0.00000
   5801     148.0593      0.00000
   5802     148.0761      0.00000
   5803     148.0899      0.00000
   5804     148.1248      0.00000
   5805     148.1378      0.00000
   5806     148.1416      0.00000
   5807     148.1604      0.00000
   5808     148.1724      0.00000
   5809     148.1840      0.00000
   5810     148.1993      0.00000
   5811     148.2061      0.00000
   5812     148.2402      0.00000
   5813     148.2592      0.00000
   5814     148.2660      0.00000
   5815     148.2854      0.00000
   5816     148.3130      0.00000
   5817     148.3255      0.00000
   5818     148.3310      0.00000
   5819     148.3528      0.00000
   5820     148.3622      0.00000
   5821     148.3727      0.00000
   5822     148.3833      0.00000
   5823     148.4051      0.00000
   5824     148.4459      0.00000
   5825     148.4631      0.00000
   5826     148.4775      0.00000
   5827     148.4951      0.00000
   5828     148.4996      0.00000
   5829     148.5185      0.00000
   5830     148.5281      0.00000
   5831     148.5625      0.00000
   5832     148.5724      0.00000
   5833     148.5827      0.00000
   5834     148.5979      0.00000
   5835     148.6169      0.00000
   5836     148.6452      0.00000
   5837     148.6514      0.00000
   5838     148.6655      0.00000
   5839     148.6909      0.00000
   5840     148.7045      0.00000
   5841     148.7113      0.00000
   5842     148.7276      0.00000
   5843     148.7484      0.00000
   5844     148.7598      0.00000
   5845     148.7820      0.00000
   5846     148.7940      0.00000
   5847     148.8091      0.00000
   5848     148.8236      0.00000
   5849     148.8425      0.00000
   5850     148.8562      0.00000
   5851     148.8734      0.00000
   5852     148.8925      0.00000
   5853     148.9043      0.00000
   5854     148.9303      0.00000
   5855     148.9419      0.00000
   5856     148.9482      0.00000
   5857     148.9633      0.00000
   5858     148.9837      0.00000
   5859     148.9995      0.00000
   5860     149.0184      0.00000
   5861     149.0394      0.00000
   5862     149.0465      0.00000
   5863     149.0692      0.00000
   5864     149.0893      0.00000
   5865     149.0931      0.00000
   5866     149.1410      0.00000
   5867     149.1522      0.00000
   5868     149.1864      0.00000
   5869     149.1907      0.00000
   5870     149.2097      0.00000
   5871     149.2203      0.00000
   5872     149.2352      0.00000
   5873     149.2573      0.00000
   5874     149.2670      0.00000
   5875     149.2804      0.00000
   5876     149.2875      0.00000
   5877     149.3036      0.00000
   5878     149.3164      0.00000
   5879     149.3481      0.00000
   5880     149.3602      0.00000
   5881     149.3744      0.00000
   5882     149.3860      0.00000
   5883     149.4324      0.00000
   5884     149.4384      0.00000
   5885     149.4661      0.00000
   5886     149.4712      0.00000
   5887     149.4882      0.00000
   5888     149.5021      0.00000
   5889     149.5189      0.00000
   5890     149.5261      0.00000
   5891     149.5622      0.00000
   5892     149.5876      0.00000
   5893     149.5976      0.00000
   5894     149.6141      0.00000
   5895     149.6392      0.00000
   5896     149.6450      0.00000
   5897     149.6725      0.00000
   5898     149.6768      0.00000
   5899     149.6977      0.00000
   5900     149.7113      0.00000
   5901     149.7245      0.00000
   5902     149.7433      0.00000
   5903     149.7511      0.00000
   5904     149.7542      0.00000
   5905     149.7777      0.00000
   5906     149.7928      0.00000
   5907     149.8127      0.00000
   5908     149.8403      0.00000
   5909     149.8570      0.00000
   5910     149.8659      0.00000
   5911     149.8847      0.00000
   5912     149.9016      0.00000
   5913     149.9375      0.00000
   5914     149.9513      0.00000
   5915     149.9732      0.00000
   5916     149.9995      0.00000
   5917     150.0110      0.00000
   5918     150.0340      0.00000
   5919     150.0397      0.00000
   5920     150.0594      0.00000
   5921     150.0675      0.00000
   5922     150.0831      0.00000
   5923     150.0964      0.00000
   5924     150.1028      0.00000
   5925     150.1251      0.00000
   5926     150.1481      0.00000
   5927     150.1632      0.00000
   5928     150.1814      0.00000
   5929     150.1943      0.00000
   5930     150.2198      0.00000
   5931     150.2275      0.00000
   5932     150.2405      0.00000
   5933     150.2539      0.00000
   5934     150.2708      0.00000
   5935     150.3118      0.00000
   5936     150.3286      0.00000
   5937     150.3372      0.00000
   5938     150.3460      0.00000
   5939     150.3696      0.00000
   5940     150.3768      0.00000
   5941     150.3869      0.00000
   5942     150.4194      0.00000
   5943     150.4305      0.00000
   5944     150.4454      0.00000
   5945     150.4637      0.00000
   5946     150.4898      0.00000
   5947     150.5052      0.00000
   5948     150.5170      0.00000
   5949     150.5399      0.00000
   5950     150.5514      0.00000
   5951     150.5749      0.00000
   5952     150.6014      0.00000
   5953     150.6314      0.00000
   5954     150.6402      0.00000
   5955     150.6695      0.00000
   5956     150.6714      0.00000
   5957     150.6770      0.00000
   5958     150.7048      0.00000
   5959     150.7202      0.00000
   5960     150.7342      0.00000
   5961     150.7512      0.00000
   5962     150.7724      0.00000
   5963     150.8052      0.00000
   5964     150.8117      0.00000
   5965     150.8251      0.00000
   5966     150.8432      0.00000
   5967     150.8647      0.00000
   5968     150.8954      0.00000
   5969     150.9058      0.00000
   5970     150.9267      0.00000
   5971     150.9463      0.00000
   5972     150.9655      0.00000
   5973     150.9730      0.00000
   5974     151.0016      0.00000
   5975     151.0201      0.00000
   5976     151.0318      0.00000
   5977     151.0439      0.00000
   5978     151.0574      0.00000
   5979     151.0812      0.00000
   5980     151.1010      0.00000
   5981     151.1170      0.00000
   5982     151.1453      0.00000
   5983     151.1551      0.00000
   5984     151.1772      0.00000
   5985     151.1888      0.00000
   5986     151.1939      0.00000
   5987     151.2191      0.00000
   5988     151.2348      0.00000
   5989     151.2452      0.00000
   5990     151.2716      0.00000
   5991     151.2848      0.00000
   5992     151.3220      0.00000
   5993     151.3257      0.00000
   5994     151.3409      0.00000
   5995     151.3553      0.00000
   5996     151.3804      0.00000
   5997     151.4056      0.00000
   5998     151.4064      0.00000
   5999     151.4367      0.00000
   6000     151.4497      0.00000
   6001     151.4583      0.00000
   6002     151.4854      0.00000
   6003     151.5006      0.00000
   6004     151.5102      0.00000
   6005     151.5304      0.00000
   6006     151.5563      0.00000
   6007     151.5610      0.00000
   6008     151.5911      0.00000
   6009     151.6033      0.00000
   6010     151.6164      0.00000
   6011     151.6489      0.00000
   6012     151.6528      0.00000
   6013     151.6699      0.00000
   6014     151.6916      0.00000
   6015     151.6941      0.00000
   6016     151.7286      0.00000
   6017     151.7412      0.00000
   6018     151.7572      0.00000
   6019     151.7914      0.00000
   6020     151.8018      0.00000
   6021     151.8292      0.00000
   6022     151.8475      0.00000
   6023     151.8516      0.00000
   6024     151.8756      0.00000
   6025     151.8880      0.00000
   6026     151.9020      0.00000
   6027     151.9472      0.00000
   6028     151.9629      0.00000
   6029     151.9832      0.00000
   6030     152.0193      0.00000
   6031     152.0333      0.00000
   6032     152.0473      0.00000
   6033     152.0642      0.00000
   6034     152.1083      0.00000
   6035     152.1204      0.00000
   6036     152.1277      0.00000
   6037     152.1446      0.00000
   6038     152.1527      0.00000
   6039     152.1876      0.00000
   6040     152.1909      0.00000
   6041     152.2157      0.00000
   6042     152.2325      0.00000
   6043     152.2461      0.00000
   6044     152.2580      0.00000
   6045     152.2803      0.00000
   6046     152.3100      0.00000
   6047     152.3208      0.00000
   6048     152.3352      0.00000
   6049     152.3539      0.00000
   6050     152.3595      0.00000
   6051     152.3897      0.00000
   6052     152.4171      0.00000
   6053     152.4495      0.00000
   6054     152.4691      0.00000
   6055     152.4726      0.00000
   6056     152.5062      0.00000
   6057     152.5124      0.00000
   6058     152.5300      0.00000
   6059     152.5482      0.00000
   6060     152.5759      0.00000
   6061     152.5840      0.00000
   6062     152.6079      0.00000
   6063     152.6174      0.00000
   6064     152.6299      0.00000
   6065     152.6652      0.00000
   6066     152.6808      0.00000
   6067     152.6977      0.00000
   6068     152.7344      0.00000
   6069     152.7640      0.00000
   6070     152.7775      0.00000
   6071     152.7855      0.00000
   6072     152.7962      0.00000
   6073     152.8134      0.00000
   6074     152.8487      0.00000
   6075     152.8572      0.00000
   6076     152.8823      0.00000
   6077     152.9103      0.00000
   6078     152.9264      0.00000
   6079     152.9534      0.00000
   6080     152.9691      0.00000
   6081     153.0228      0.00000
   6082     153.0315      0.00000
   6083     153.0406      0.00000
   6084     153.0596      0.00000
   6085     153.0636      0.00000
   6086     153.0856      0.00000
   6087     153.1349      0.00000
   6088     153.1420      0.00000
   6089     153.1710      0.00000
   6090     153.1929      0.00000
   6091     153.2047      0.00000
   6092     153.2281      0.00000
   6093     153.2433      0.00000
   6094     153.2598      0.00000
   6095     153.2697      0.00000
   6096     153.3209      0.00000
   6097     153.3286      0.00000
   6098     153.3475      0.00000
   6099     153.3580      0.00000
   6100     153.3721      0.00000
   6101     153.3884      0.00000
   6102     153.4177      0.00000
   6103     153.4283      0.00000
   6104     153.4537      0.00000
   6105     153.4824      0.00000
   6106     153.4843      0.00000
   6107     153.5043      0.00000
   6108     153.5289      0.00000
   6109     153.5503      0.00000
   6110     153.5715      0.00000
   6111     153.5845      0.00000
   6112     153.5962      0.00000
   6113     153.6029      0.00000
   6114     153.6300      0.00000
   6115     153.6556      0.00000
   6116     153.6672      0.00000
   6117     153.6754      0.00000
   6118     153.6862      0.00000
   6119     153.6983      0.00000
   6120     153.7310      0.00000
   6121     153.7578      0.00000
   6122     153.7666      0.00000
   6123     153.7827      0.00000
   6124     153.8230      0.00000
   6125     153.8404      0.00000
   6126     153.8664      0.00000
   6127     153.8814      0.00000
   6128     153.8973      0.00000
   6129     153.9169      0.00000
   6130     153.9427      0.00000
   6131     153.9726      0.00000
   6132     153.9886      0.00000
   6133     153.9951      0.00000
   6134     154.0179      0.00000
   6135     154.0282      0.00000
   6136     154.0549      0.00000
   6137     154.0716      0.00000
   6138     154.0788      0.00000
   6139     154.1126      0.00000
   6140     154.1473      0.00000
   6141     154.1704      0.00000
   6142     154.1875      0.00000
   6143     154.1942      0.00000
   6144     154.2052      0.00000
   6145     154.2380      0.00000
   6146     154.2436      0.00000
   6147     154.2639      0.00000
   6148     154.2737      0.00000
   6149     154.3010      0.00000
   6150     154.3258      0.00000
   6151     154.3356      0.00000
   6152     154.3447      0.00000
   6153     154.3592      0.00000
   6154     154.3800      0.00000
   6155     154.4030      0.00000
   6156     154.4144      0.00000
   6157     154.4245      0.00000
   6158     154.4416      0.00000
   6159     154.4528      0.00000
   6160     154.4706      0.00000
   6161     154.4898      0.00000
   6162     154.5083      0.00000
   6163     154.5203      0.00000
   6164     154.5286      0.00000
   6165     154.5670      0.00000
   6166     154.5748      0.00000
   6167     154.5865      0.00000
   6168     154.6005      0.00000
   6169     154.6178      0.00000
   6170     154.6373      0.00000
   6171     154.6432      0.00000
   6172     154.6521      0.00000
   6173     154.6696      0.00000
   6174     154.6896      0.00000
   6175     154.7217      0.00000
   6176     154.7266      0.00000
   6177     154.7457      0.00000
   6178     154.7497      0.00000
   6179     154.7715      0.00000
   6180     154.7792      0.00000
   6181     154.7806      0.00000
   6182     154.8033      0.00000
   6183     154.8221      0.00000
   6184     154.8524      0.00000
   6185     154.8731      0.00000
   6186     154.9061      0.00000
   6187     154.9096      0.00000
   6188     154.9359      0.00000
   6189     154.9410      0.00000
   6190     154.9484      0.00000
   6191     154.9587      0.00000
   6192     154.9720      0.00000
   6193     154.9854      0.00000
   6194     155.0101      0.00000
   6195     155.0330      0.00000
   6196     155.0419      0.00000
   6197     155.0511      0.00000
   6198     155.0743      0.00000
   6199     155.0806      0.00000
   6200     155.0925      0.00000
   6201     155.1089      0.00000
   6202     155.1167      0.00000
   6203     155.1343      0.00000
   6204     155.1604      0.00000
   6205     155.1684      0.00000
   6206     155.1897      0.00000
   6207     155.2058      0.00000
   6208     155.2218      0.00000
   6209     155.2423      0.00000
   6210     155.2593      0.00000
   6211     155.2924      0.00000
   6212     155.3098      0.00000
   6213     155.3138      0.00000
   6214     155.3235      0.00000
   6215     155.3347      0.00000
   6216     155.3485      0.00000
   6217     155.3640      0.00000
   6218     155.3727      0.00000
   6219     155.3762      0.00000
   6220     155.3858      0.00000
   6221     155.3992      0.00000
   6222     155.4115      0.00000
   6223     155.4258      0.00000
   6224     155.4502      0.00000
   6225     155.4693      0.00000
   6226     155.4881      0.00000
   6227     155.4916      0.00000
   6228     155.5103      0.00000
   6229     155.5270      0.00000
   6230     155.5460      0.00000
   6231     155.5513      0.00000
   6232     155.5727      0.00000
   6233     155.5860      0.00000
   6234     155.6030      0.00000
   6235     155.6178      0.00000
   6236     155.6344      0.00000
   6237     155.6467      0.00000
   6238     155.6572      0.00000
   6239     155.6710      0.00000
   6240     155.6818      0.00000
   6241     155.7064      0.00000
   6242     155.7164      0.00000
   6243     155.7321      0.00000
   6244     155.7367      0.00000
   6245     155.7592      0.00000
   6246     155.7793      0.00000
   6247     155.7842      0.00000
   6248     155.8023      0.00000
   6249     155.8282      0.00000
   6250     155.8350      0.00000
   6251     155.8509      0.00000
   6252     155.8672      0.00000
   6253     155.8783      0.00000
   6254     155.8831      0.00000
   6255     155.9059      0.00000
   6256     155.9346      0.00000
   6257     155.9590      0.00000
   6258     155.9705      0.00000
   6259     155.9722      0.00000
   6260     155.9900      0.00000
   6261     156.0010      0.00000
   6262     156.0143      0.00000
   6263     156.0180      0.00000
   6264     156.0557      0.00000
   6265     156.0666      0.00000
   6266     156.0729      0.00000
   6267     156.0787      0.00000
   6268     156.0999      0.00000
   6269     156.1118      0.00000
   6270     156.1239      0.00000
   6271     156.1300      0.00000
   6272     156.1593      0.00000
   6273     156.1762      0.00000
   6274     156.2043      0.00000
   6275     156.2113      0.00000
   6276     156.2270      0.00000
   6277     156.2360      0.00000
   6278     156.2768      0.00000
   6279     156.2806      0.00000
   6280     156.2911      0.00000
   6281     156.3042      0.00000
   6282     156.3222      0.00000
   6283     156.3283      0.00000
   6284     156.3364      0.00000
   6285     156.3519      0.00000
   6286     156.3722      0.00000
   6287     156.3777      0.00000
   6288     156.3952      0.00000
   6289     156.4025      0.00000
   6290     156.4050      0.00000
   6291     156.4321      0.00000
   6292     156.4500      0.00000
   6293     156.4569      0.00000
   6294     156.4653      0.00000
   6295     156.4833      0.00000
   6296     156.5129      0.00000
   6297     156.5165      0.00000
   6298     156.5194      0.00000
   6299     156.5490      0.00000
   6300     156.5631      0.00000
   6301     156.5721      0.00000
   6302     156.5907      0.00000
   6303     156.6033      0.00000
   6304     156.6105      0.00000
   6305     156.6317      0.00000
   6306     156.6409      0.00000
   6307     156.6501      0.00000
   6308     156.6648      0.00000
   6309     156.6701      0.00000
   6310     156.6936      0.00000
   6311     156.7073      0.00000
   6312     156.7109      0.00000
   6313     156.7262      0.00000
   6314     156.7380      0.00000
   6315     156.7480      0.00000
   6316     156.7678      0.00000
   6317     156.7884      0.00000
   6318     156.7961      0.00000
   6319     156.8123      0.00000
   6320     156.8305      0.00000
   6321     156.8390      0.00000
   6322     156.8485      0.00000
   6323     156.8673      0.00000
   6324     156.8777      0.00000
   6325     156.8861      0.00000
   6326     156.9134      0.00000
   6327     156.9193      0.00000
   6328     156.9340      0.00000
   6329     156.9379      0.00000
   6330     156.9593      0.00000
   6331     157.0021      0.00000
   6332     157.0160      0.00000
   6333     157.0243      0.00000
   6334     157.0375      0.00000
   6335     157.0427      0.00000
   6336     157.0591      0.00000
   6337     157.0710      0.00000
   6338     157.0832      0.00000
   6339     157.1132      0.00000
   6340     157.1258      0.00000
   6341     157.1355      0.00000
   6342     157.1407      0.00000
   6343     157.1526      0.00000
   6344     157.1778      0.00000
   6345     157.1806      0.00000
   6346     157.2094      0.00000
   6347     157.2235      0.00000
   6348     157.2433      0.00000
   6349     157.2502      0.00000
   6350     157.2516      0.00000
   6351     157.2797      0.00000
   6352     157.3112      0.00000
   6353     157.3153      0.00000
   6354     157.3198      0.00000
   6355     157.3273      0.00000
   6356     157.3379      0.00000
   6357     157.3562      0.00000
   6358     157.3941      0.00000
   6359     157.3986      0.00000
   6360     157.4109      0.00000
   6361     157.4247      0.00000
   6362     157.4418      0.00000
   6363     157.4523      0.00000
   6364     157.4614      0.00000
   6365     157.4843      0.00000
   6366     157.4964      0.00000
   6367     157.5118      0.00000
   6368     157.5206      0.00000
   6369     157.5462      0.00000
   6370     157.5588      0.00000
   6371     157.5733      0.00000
   6372     157.5867      0.00000
   6373     157.6072      0.00000
   6374     157.6328      0.00000
   6375     157.6386      0.00000
   6376     157.6571      0.00000
   6377     157.6877      0.00000
   6378     157.6957      0.00000
   6379     157.7118      0.00000
   6380     157.7197      0.00000
   6381     157.7333      0.00000
   6382     157.7514      0.00000
   6383     157.7798      0.00000
   6384     157.7890      0.00000
   6385     157.7978      0.00000
   6386     157.8311      0.00000
   6387     157.8335      0.00000
   6388     157.8477      0.00000
   6389     157.8762      0.00000
   6390     157.8895      0.00000
   6391     157.9096      0.00000
   6392     157.9208      0.00000
   6393     157.9251      0.00000
   6394     157.9355      0.00000
   6395     157.9667      0.00000
   6396     157.9963      0.00000
   6397     157.9987      0.00000
   6398     158.0183      0.00000
   6399     158.0302      0.00000
   6400     158.0441      0.00000
   6401     158.0565      0.00000
   6402     158.0712      0.00000
   6403     158.0833      0.00000
   6404     158.1011      0.00000
   6405     158.1101      0.00000
   6406     158.1135      0.00000
   6407     158.1425      0.00000
   6408     158.1471      0.00000
   6409     158.1750      0.00000
   6410     158.1863      0.00000
   6411     158.2034      0.00000
   6412     158.2205      0.00000
   6413     158.2335      0.00000
   6414     158.2427      0.00000
   6415     158.2542      0.00000
   6416     158.2689      0.00000
   6417     158.2912      0.00000
   6418     158.3194      0.00000
   6419     158.3369      0.00000
   6420     158.3484      0.00000
   6421     158.3656      0.00000
   6422     158.3869      0.00000
   6423     158.3995      0.00000
   6424     158.4058      0.00000
   6425     158.4324      0.00000
   6426     158.4403      0.00000
   6427     158.4552      0.00000
   6428     158.4577      0.00000
   6429     158.4786      0.00000
   6430     158.4976      0.00000
   6431     158.5101      0.00000
   6432     158.5236      0.00000
   6433     158.5341      0.00000
   6434     158.5605      0.00000
   6435     158.5633      0.00000
   6436     158.5821      0.00000
   6437     158.6027      0.00000
   6438     158.6094      0.00000
   6439     158.6283      0.00000
   6440     158.6509      0.00000
   6441     158.6710      0.00000
   6442     158.6773      0.00000
   6443     158.7130      0.00000
   6444     158.7149      0.00000
   6445     158.7299      0.00000
   6446     158.7488      0.00000
   6447     158.7584      0.00000
   6448     158.7700      0.00000
   6449     158.8002      0.00000
   6450     158.8260      0.00000
   6451     158.8315      0.00000
   6452     158.8530      0.00000
   6453     158.8872      0.00000
   6454     158.8913      0.00000
   6455     158.9022      0.00000
   6456     158.9173      0.00000
   6457     158.9413      0.00000
   6458     158.9536      0.00000
   6459     158.9737      0.00000
   6460     158.9919      0.00000
   6461     159.0112      0.00000
   6462     159.0205      0.00000
   6463     159.0264      0.00000
   6464     159.0415      0.00000
   6465     159.0729      0.00000
   6466     159.0930      0.00000
   6467     159.1228      0.00000
   6468     159.1314      0.00000
   6469     159.1442      0.00000
   6470     159.1649      0.00000
   6471     159.1840      0.00000
   6472     159.1898      0.00000
   6473     159.1940      0.00000
   6474     159.2153      0.00000
   6475     159.2257      0.00000
   6476     159.2430      0.00000
   6477     159.2674      0.00000
   6478     159.2823      0.00000
   6479     159.3131      0.00000
   6480     159.3293      0.00000
   6481     159.3331      0.00000
   6482     159.3382      0.00000
   6483     159.3494      0.00000
   6484     159.3671      0.00000
   6485     159.4206      0.00000
   6486     159.4307      0.00000
   6487     159.4440      0.00000
   6488     159.4559      0.00000
   6489     159.4767      0.00000
   6490     159.4848      0.00000
   6491     159.4920      0.00000
   6492     159.5208      0.00000
   6493     159.5405      0.00000
   6494     159.5529      0.00000
   6495     159.5607      0.00000
   6496     159.5678      0.00000
   6497     159.5970      0.00000
   6498     159.6107      0.00000
   6499     159.6355      0.00000
   6500     159.6379      0.00000
   6501     159.6683      0.00000
   6502     159.6766      0.00000
   6503     159.7022      0.00000
   6504     159.7419      0.00000
   6505     159.7532      0.00000
   6506     159.7675      0.00000
   6507     159.8030      0.00000
   6508     159.8134      0.00000
   6509     159.8420      0.00000
   6510     159.8529      0.00000
   6511     159.8702      0.00000
   6512     159.8924      0.00000
   6513     159.9200      0.00000
   6514     159.9347      0.00000
   6515     159.9608      0.00000
   6516     159.9933      0.00000
   6517     160.0113      0.00000
   6518     160.0169      0.00000
   6519     160.0407      0.00000
   6520     160.0564      0.00000
   6521     160.0840      0.00000
   6522     160.1060      0.00000
   6523     160.1172      0.00000
   6524     160.1404      0.00000
   6525     160.1486      0.00000
   6526     160.1717      0.00000
   6527     160.1891      0.00000
   6528     160.2020      0.00000
   6529     160.2286      0.00000
   6530     160.2416      0.00000
   6531     160.2575      0.00000
   6532     160.3011      0.00000
   6533     160.3048      0.00000
   6534     160.3271      0.00000
   6535     160.3340      0.00000
   6536     160.3761      0.00000
   6537     160.3854      0.00000
   6538     160.4137      0.00000
   6539     160.4184      0.00000
   6540     160.4339      0.00000
   6541     160.4696      0.00000
   6542     160.4746      0.00000
   6543     160.4914      0.00000
   6544     160.5048      0.00000
   6545     160.5154      0.00000
   6546     160.5381      0.00000
   6547     160.5679      0.00000
   6548     160.5873      0.00000
   6549     160.6071      0.00000
   6550     160.6255      0.00000
   6551     160.6402      0.00000
   6552     160.6526      0.00000
   6553     160.6617      0.00000
   6554     160.6805      0.00000
   6555     160.7026      0.00000
   6556     160.7199      0.00000
   6557     160.7424      0.00000
   6558     160.7557      0.00000
   6559     160.7747      0.00000
   6560     160.8022      0.00000
   6561     160.8114      0.00000
   6562     160.8294      0.00000
   6563     160.8508      0.00000
   6564     160.8701      0.00000
   6565     160.8878      0.00000
   6566     160.8973      0.00000
   6567     160.9206      0.00000
   6568     160.9464      0.00000
   6569     160.9642      0.00000
   6570     160.9739      0.00000
   6571     161.0281      0.00000
   6572     161.0474      0.00000
   6573     161.0693      0.00000
   6574     161.0728      0.00000
   6575     161.0840      0.00000
   6576     161.1385      0.00000
   6577     161.1472      0.00000
   6578     161.1759      0.00000
   6579     161.1880      0.00000
   6580     161.1957      0.00000
   6581     161.2081      0.00000
   6582     161.2252      0.00000
   6583     161.2337      0.00000
   6584     161.2560      0.00000
   6585     161.2699      0.00000
   6586     161.2883      0.00000
   6587     161.3047      0.00000
   6588     161.3233      0.00000
   6589     161.3359      0.00000
   6590     161.3499      0.00000
   6591     161.3611      0.00000
   6592     161.3843      0.00000
   6593     161.3964      0.00000
   6594     161.4082      0.00000
   6595     161.4397      0.00000
   6596     161.4578      0.00000
   6597     161.4641      0.00000
   6598     161.4979      0.00000
   6599     161.5105      0.00000
   6600     161.5257      0.00000
   6601     161.5362      0.00000
   6602     161.5523      0.00000
   6603     161.5659      0.00000
   6604     161.5854      0.00000
   6605     161.6106      0.00000
   6606     161.6175      0.00000
   6607     161.6306      0.00000
   6608     161.6467      0.00000
   6609     161.6657      0.00000
   6610     161.6961      0.00000
   6611     161.7171      0.00000
   6612     161.7252      0.00000
   6613     161.7411      0.00000
   6614     161.7492      0.00000
   6615     161.7720      0.00000
   6616     161.7896      0.00000
   6617     161.7920      0.00000
   6618     161.8110      0.00000
   6619     161.8234      0.00000
   6620     161.8605      0.00000
   6621     161.8792      0.00000
   6622     161.8966      0.00000
   6623     161.9092      0.00000
   6624     161.9227      0.00000
   6625     161.9376      0.00000
   6626     161.9434      0.00000
   6627     161.9696      0.00000
   6628     162.0007      0.00000
   6629     162.0071      0.00000
   6630     162.0344      0.00000
   6631     162.0484      0.00000
   6632     162.0678      0.00000
   6633     162.0897      0.00000
   6634     162.1013      0.00000
   6635     162.1269      0.00000
   6636     162.1403      0.00000
   6637     162.1596      0.00000
   6638     162.1709      0.00000
   6639     162.1797      0.00000
   6640     162.1967      0.00000
   6641     162.2146      0.00000
   6642     162.2222      0.00000
   6643     162.2400      0.00000
   6644     162.2668      0.00000
   6645     162.2971      0.00000
   6646     162.3161      0.00000
   6647     162.3232      0.00000
   6648     162.3572      0.00000
   6649     162.3716      0.00000
   6650     162.3844      0.00000
   6651     162.4043      0.00000
   6652     162.4070      0.00000
   6653     162.4336      0.00000
   6654     162.4454      0.00000
   6655     162.4599      0.00000
   6656     162.4775      0.00000
   6657     162.4866      0.00000
   6658     162.4989      0.00000
   6659     162.5289      0.00000
   6660     162.5349      0.00000
   6661     162.5533      0.00000
   6662     162.5650      0.00000
   6663     162.5872      0.00000
   6664     162.6129      0.00000
   6665     162.6227      0.00000
   6666     162.6623      0.00000
   6667     162.6784      0.00000
   6668     162.7028      0.00000
   6669     162.7138      0.00000
   6670     162.7250      0.00000
   6671     162.7346      0.00000
   6672     162.7434      0.00000
   6673     162.7556      0.00000
   6674     162.7773      0.00000
   6675     162.7802      0.00000
   6676     162.8133      0.00000
   6677     162.8198      0.00000
   6678     162.8338      0.00000
   6679     162.8473      0.00000
   6680     162.8590      0.00000
   6681     162.8665      0.00000
   6682     162.8885      0.00000
   6683     162.9238      0.00000
   6684     162.9344      0.00000
   6685     162.9407      0.00000
   6686     162.9527      0.00000
   6687     162.9659      0.00000
   6688     162.9842      0.00000
   6689     162.9888      0.00000
   6690     162.9970      0.00000
   6691     163.0204      0.00000
   6692     163.0402      0.00000
   6693     163.0665      0.00000
   6694     163.0786      0.00000
   6695     163.0957      0.00000
   6696     163.1206      0.00000
   6697     163.1393      0.00000
   6698     163.1490      0.00000
   6699     163.1554      0.00000
   6700     163.1777      0.00000
   6701     163.2016      0.00000
   6702     163.2032      0.00000
   6703     163.2328      0.00000
   6704     163.2410      0.00000
   6705     163.2537      0.00000
   6706     163.2683      0.00000
   6707     163.2872      0.00000
   6708     163.3020      0.00000
   6709     163.3124      0.00000
   6710     163.3330      0.00000
   6711     163.3367      0.00000
   6712     163.3653      0.00000
   6713     163.3754      0.00000
   6714     163.3794      0.00000
   6715     163.3989      0.00000
   6716     163.4055      0.00000
   6717     163.4229      0.00000
   6718     163.4506      0.00000
   6719     163.4768      0.00000
   6720     163.4837      0.00000
   6721     163.5047      0.00000
   6722     163.5054      0.00000
   6723     163.5254      0.00000
   6724     163.5377      0.00000
   6725     163.5502      0.00000
   6726     163.5625      0.00000
   6727     163.5701      0.00000
   6728     163.5788      0.00000
   6729     163.5901      0.00000
   6730     163.6106      0.00000
   6731     163.6139      0.00000
   6732     163.6451      0.00000
   6733     163.6742      0.00000
   6734     163.6969      0.00000
   6735     163.7065      0.00000
   6736     163.7198      0.00000
   6737     163.7225      0.00000
   6738     163.7352      0.00000
   6739     163.7469      0.00000
   6740     163.7650      0.00000
   6741     163.7808      0.00000
   6742     163.8012      0.00000
   6743     163.8123      0.00000
   6744     163.8391      0.00000
   6745     163.8574      0.00000
   6746     163.8652      0.00000
   6747     163.8733      0.00000
   6748     163.8795      0.00000
   6749     163.8965      0.00000
   6750     163.9092      0.00000
   6751     163.9316      0.00000
   6752     163.9490      0.00000
   6753     163.9714      0.00000
   6754     163.9875      0.00000
   6755     164.0053      0.00000
   6756     164.0191      0.00000
   6757     164.0296      0.00000
   6758     164.0455      0.00000
   6759     164.0751      0.00000
   6760     164.0808      0.00000
   6761     164.1033      0.00000
   6762     164.1118      0.00000
   6763     164.1275      0.00000
   6764     164.1312      0.00000
   6765     164.1443      0.00000
   6766     164.1703      0.00000
   6767     164.1781      0.00000
   6768     164.1872      0.00000
   6769     164.1968      0.00000
   6770     164.2191      0.00000
   6771     164.2382      0.00000
   6772     164.2483      0.00000
   6773     164.2645      0.00000
   6774     164.2818      0.00000
   6775     164.2947      0.00000
   6776     164.3050      0.00000
   6777     164.3276      0.00000
   6778     164.3455      0.00000
   6779     164.3475      0.00000
   6780     164.3630      0.00000
   6781     164.3860      0.00000
   6782     164.3957      0.00000
   6783     164.4045      0.00000
   6784     164.4197      0.00000
   6785     164.4470      0.00000
   6786     164.4590      0.00000
   6787     164.4817      0.00000
   6788     164.4951      0.00000
   6789     164.5142      0.00000
   6790     164.5314      0.00000
   6791     164.5457      0.00000
   6792     164.5707      0.00000
   6793     164.5740      0.00000
   6794     164.5930      0.00000
   6795     164.6034      0.00000
   6796     164.6125      0.00000
   6797     164.6525      0.00000
   6798     164.6615      0.00000
   6799     164.6675      0.00000
   6800     164.6753      0.00000
   6801     164.6940      0.00000
   6802     164.7100      0.00000
   6803     164.7106      0.00000
   6804     164.7229      0.00000
   6805     164.7459      0.00000
   6806     164.7539      0.00000
   6807     164.7692      0.00000
   6808     164.7975      0.00000
   6809     164.8148      0.00000
   6810     164.8317      0.00000
   6811     164.8482      0.00000
   6812     164.8661      0.00000
   6813     164.8792      0.00000
   6814     164.8881      0.00000
   6815     164.9101      0.00000
   6816     164.9186      0.00000
   6817     164.9238      0.00000
   6818     164.9337      0.00000
   6819     164.9536      0.00000
   6820     164.9685      0.00000
   6821     164.9846      0.00000
   6822     164.9950      0.00000
   6823     165.0013      0.00000
   6824     165.0163      0.00000
   6825     165.0237      0.00000
   6826     165.0343      0.00000
   6827     165.0445      0.00000
   6828     165.0672      0.00000
   6829     165.0874      0.00000
   6830     165.1124      0.00000
   6831     165.1329      0.00000
   6832     165.1453      0.00000
   6833     165.1526      0.00000
   6834     165.1685      0.00000
   6835     165.2001      0.00000
   6836     165.2064      0.00000
   6837     165.2235      0.00000
   6838     165.2455      0.00000
   6839     165.2560      0.00000
   6840     165.2782      0.00000
   6841     165.2943      0.00000
   6842     165.3111      0.00000
   6843     165.3173      0.00000
   6844     165.3445      0.00000
   6845     165.3508      0.00000
   6846     165.3619      0.00000
   6847     165.3770      0.00000
   6848     165.3896      0.00000
   6849     165.3930      0.00000
   6850     165.4371      0.00000
   6851     165.4482      0.00000
   6852     165.4549      0.00000
   6853     165.4740      0.00000
   6854     165.4956      0.00000
   6855     165.5240      0.00000
   6856     165.5412      0.00000
   6857     165.5735      0.00000
   6858     165.5821      0.00000
   6859     165.6005      0.00000
   6860     165.6131      0.00000
   6861     165.6186      0.00000
   6862     165.6252      0.00000
   6863     165.6319      0.00000
   6864     165.6450      0.00000
   6865     165.6624      0.00000
   6866     165.6742      0.00000
   6867     165.6954      0.00000
   6868     165.7025      0.00000
   6869     165.7463      0.00000
   6870     165.7566      0.00000
   6871     165.7576      0.00000
   6872     165.7789      0.00000
   6873     165.7906      0.00000
   6874     165.7952      0.00000
   6875     165.8077      0.00000
   6876     165.8375      0.00000
   6877     165.8515      0.00000
   6878     165.8667      0.00000
   6879     165.8879      0.00000
   6880     165.8972      0.00000
   6881     165.9145      0.00000
   6882     165.9280      0.00000
   6883     165.9362      0.00000
   6884     165.9539      0.00000
   6885     165.9660      0.00000
   6886     165.9889      0.00000
   6887     165.9998      0.00000
   6888     166.0138      0.00000
   6889     166.0270      0.00000
   6890     166.0386      0.00000
   6891     166.0475      0.00000
   6892     166.0558      0.00000
   6893     166.0771      0.00000
   6894     166.0834      0.00000
   6895     166.1140      0.00000
   6896     166.1228      0.00000
   6897     166.1359      0.00000
   6898     166.1479      0.00000
   6899     166.1639      0.00000
   6900     166.1822      0.00000
   6901     166.1914      0.00000
   6902     166.2129      0.00000
   6903     166.2178      0.00000
   6904     166.2294      0.00000
   6905     166.2685      0.00000
   6906     166.2738      0.00000
   6907     166.2897      0.00000
   6908     166.3067      0.00000
   6909     166.3176      0.00000
   6910     166.3452      0.00000
   6911     166.3494      0.00000
   6912     166.3707      0.00000
   6913     166.3929      0.00000
   6914     166.4075      0.00000
   6915     166.4217      0.00000
   6916     166.4290      0.00000
   6917     166.4501      0.00000
   6918     166.4704      0.00000
   6919     166.4809      0.00000
   6920     166.5047      0.00000
   6921     166.5145      0.00000
   6922     166.5409      0.00000
   6923     166.5505      0.00000
   6924     166.5606      0.00000
   6925     166.5953      0.00000
   6926     166.6138      0.00000
   6927     166.6308      0.00000
   6928     166.6426      0.00000
   6929     166.6688      0.00000
   6930     166.6746      0.00000
   6931     166.6921      0.00000
   6932     166.6956      0.00000
   6933     166.7002      0.00000
   6934     166.7153      0.00000
   6935     166.7308      0.00000
   6936     166.7452      0.00000
   6937     166.7639      0.00000
   6938     166.7793      0.00000
   6939     166.8038      0.00000
   6940     166.8109      0.00000
   6941     166.8155      0.00000
   6942     166.8395      0.00000
   6943     166.8633      0.00000
   6944     166.8687      0.00000
   6945     166.8778      0.00000
   6946     166.9056      0.00000
   6947     166.9188      0.00000
   6948     166.9278      0.00000
   6949     166.9283      0.00000
   6950     166.9505      0.00000
   6951     166.9604      0.00000
   6952     166.9703      0.00000
   6953     166.9823      0.00000
   6954     167.0089      0.00000
   6955     167.0165      0.00000
   6956     167.0421      0.00000
   6957     167.0517      0.00000
   6958     167.0758      0.00000
   6959     167.0862      0.00000
   6960     167.1143      0.00000
   6961     167.1337      0.00000
   6962     167.1471      0.00000
   6963     167.1671      0.00000
   6964     167.1784      0.00000
   6965     167.1876      0.00000
   6966     167.2083      0.00000
   6967     167.2257      0.00000
   6968     167.2474      0.00000
   6969     167.2529      0.00000
   6970     167.2648      0.00000
   6971     167.2834      0.00000
   6972     167.3017      0.00000
   6973     167.3151      0.00000
   6974     167.3226      0.00000
   6975     167.3335      0.00000
   6976     167.3405      0.00000
   6977     167.3588      0.00000
   6978     167.3658      0.00000
   6979     167.3930      0.00000
   6980     167.4291      0.00000
   6981     167.4322      0.00000
   6982     167.4448      0.00000
   6983     167.4541      0.00000
   6984     167.4791      0.00000
   6985     167.4873      0.00000
   6986     167.5084      0.00000
   6987     167.5282      0.00000
   6988     167.5414      0.00000
   6989     167.5559      0.00000
   6990     167.5750      0.00000
   6991     167.6064      0.00000
   6992     167.6237      0.00000
   6993     167.6357      0.00000
   6994     167.6449      0.00000
   6995     167.6515      0.00000
   6996     167.6648      0.00000
   6997     167.6908      0.00000
   6998     167.7048      0.00000
   6999     167.7221      0.00000
   7000     167.7253      0.00000
   7001     167.7320      0.00000
   7002     167.7483      0.00000
   7003     167.7652      0.00000
   7004     167.7820      0.00000
   7005     167.7890      0.00000
   7006     167.8118      0.00000
   7007     167.8262      0.00000
   7008     167.8348      0.00000
   7009     167.8640      0.00000
   7010     167.8719      0.00000
   7011     167.8967      0.00000
   7012     167.9153      0.00000
   7013     167.9208      0.00000
   7014     167.9307      0.00000
   7015     167.9515      0.00000
   7016     167.9573      0.00000
   7017     167.9645      0.00000
   7018     167.9840      0.00000
   7019     168.0110      0.00000
   7020     168.0291      0.00000
   7021     168.0394      0.00000
   7022     168.0502      0.00000
   7023     168.0593      0.00000
   7024     168.0871      0.00000
   7025     168.1271      0.00000
   7026     168.1402      0.00000
   7027     168.1480      0.00000
   7028     168.1579      0.00000
   7029     168.1721      0.00000
   7030     168.1860      0.00000
   7031     168.1952      0.00000
   7032     168.2130      0.00000
   7033     168.2337      0.00000
   7034     168.2400      0.00000
   7035     168.2458      0.00000
   7036     168.2606      0.00000
   7037     168.3007      0.00000
   7038     168.3092      0.00000
   7039     168.3189      0.00000
   7040     168.3386      0.00000
   7041     168.3550      0.00000
   7042     168.3661      0.00000
   7043     168.3817      0.00000
   7044     168.3999      0.00000
   7045     168.4109      0.00000
   7046     168.4370      0.00000
   7047     168.4417      0.00000
   7048     168.4530      0.00000
   7049     168.4672      0.00000
   7050     168.4785      0.00000
   7051     168.4865      0.00000
   7052     168.5128      0.00000
   7053     168.5210      0.00000
   7054     168.5414      0.00000
   7055     168.5772      0.00000
   7056     168.5893      0.00000
   7057     168.5961      0.00000
   7058     168.5975      0.00000
   7059     168.6480      0.00000
   7060     168.6609      0.00000
   7061     168.6764      0.00000
   7062     168.6899      0.00000
   7063     168.7199      0.00000
   7064     168.7252      0.00000
   7065     168.7391      0.00000
   7066     168.7441      0.00000
   7067     168.7701      0.00000
   7068     168.7801      0.00000
   7069     168.7973      0.00000
   7070     168.8105      0.00000
   7071     168.8243      0.00000
   7072     168.8423      0.00000
   7073     168.8619      0.00000
   7074     168.8639      0.00000
   7075     168.8764      0.00000
   7076     168.8934      0.00000
   7077     168.9036      0.00000
   7078     168.9233      0.00000
   7079     168.9440      0.00000
   7080     168.9683      0.00000
   7081     168.9812      0.00000
   7082     168.9998      0.00000
   7083     169.0119      0.00000
   7084     169.0145      0.00000
   7085     169.0212      0.00000
   7086     169.0357      0.00000
   7087     169.0476      0.00000
   7088     169.0691      0.00000
   7089     169.0911      0.00000
   7090     169.0990      0.00000
   7091     169.1343      0.00000
   7092     169.1559      0.00000
   7093     169.1619      0.00000
   7094     169.1731      0.00000
   7095     169.1991      0.00000
   7096     169.2084      0.00000
   7097     169.2263      0.00000
   7098     169.2392      0.00000
   7099     169.2469      0.00000
   7100     169.2535      0.00000
   7101     169.2750      0.00000
   7102     169.3011      0.00000
   7103     169.3154      0.00000
   7104     169.3317      0.00000
   7105     169.3500      0.00000
   7106     169.3657      0.00000
   7107     169.4021      0.00000
   7108     169.4096      0.00000
   7109     169.4288      0.00000
   7110     169.4346      0.00000
   7111     169.4412      0.00000
   7112     169.4444      0.00000
   7113     169.4759      0.00000
   7114     169.5058      0.00000
   7115     169.5360      0.00000
   7116     169.5386      0.00000
   7117     169.5612      0.00000
   7118     169.5898      0.00000
   7119     169.6029      0.00000
   7120     169.6134      0.00000
   7121     169.6219      0.00000
   7122     169.6580      0.00000
   7123     169.6731      0.00000
   7124     169.6794      0.00000
   7125     169.6948      0.00000
   7126     169.7202      0.00000
   7127     169.7432      0.00000
   7128     169.7709      0.00000
   7129     169.7851      0.00000
   7130     169.8027      0.00000
   7131     169.8244      0.00000
   7132     169.8325      0.00000
   7133     169.8493      0.00000
   7134     169.8642      0.00000
   7135     169.8688      0.00000
   7136     169.8853      0.00000
   7137     169.9037      0.00000
   7138     169.9165      0.00000
   7139     169.9307      0.00000
   7140     169.9638      0.00000
   7141     169.9721      0.00000
   7142     169.9886      0.00000
   7143     170.0126      0.00000
   7144     170.0361      0.00000
   7145     170.0602      0.00000
   7146     170.0796      0.00000
   7147     170.1014      0.00000
   7148     170.1180      0.00000
   7149     170.1240      0.00000
   7150     170.1412      0.00000
   7151     170.1565      0.00000
   7152     170.1688      0.00000
   7153     170.2044      0.00000
   7154     170.2230      0.00000
   7155     170.2413      0.00000
   7156     170.2485      0.00000
   7157     170.2666      0.00000
   7158     170.2767      0.00000
   7159     170.2925      0.00000
   7160     170.3034      0.00000
   7161     170.3441      0.00000
   7162     170.3601      0.00000
   7163     170.3696      0.00000
   7164     170.4034      0.00000
   7165     170.4270      0.00000
   7166     170.4327      0.00000
   7167     170.4549      0.00000
   7168     170.4618      0.00000
   7169     170.4782      0.00000
   7170     170.4943      0.00000
   7171     170.4976      0.00000
   7172     170.5195      0.00000
   7173     170.5403      0.00000
   7174     170.5431      0.00000
   7175     170.5678      0.00000
   7176     170.5999      0.00000
   7177     170.6160      0.00000
   7178     170.6268      0.00000
   7179     170.6403      0.00000
   7180     170.6590      0.00000
   7181     170.6872      0.00000
   7182     170.6965      0.00000
   7183     170.7165      0.00000
   7184     170.7229      0.00000
   7185     170.7466      0.00000
   7186     170.7624      0.00000
   7187     170.7846      0.00000
   7188     170.7973      0.00000
   7189     170.8065      0.00000
   7190     170.8314      0.00000
   7191     170.8551      0.00000
   7192     170.8634      0.00000
   7193     170.8804      0.00000
   7194     170.8945      0.00000
   7195     170.8972      0.00000
   7196     170.9455      0.00000
   7197     170.9492      0.00000
   7198     170.9720      0.00000
   7199     170.9979      0.00000
   7200     171.0212      0.00000
   7201     171.0326      0.00000
   7202     171.0430      0.00000
   7203     171.0745      0.00000
   7204     171.0792      0.00000
   7205     171.1058      0.00000
   7206     171.1248      0.00000
   7207     171.1417      0.00000
   7208     171.1643      0.00000
   7209     171.1790      0.00000
   7210     171.2019      0.00000
   7211     171.2078      0.00000
   7212     171.2269      0.00000
   7213     171.2337      0.00000
   7214     171.2648      0.00000
   7215     171.2794      0.00000
   7216     171.2885      0.00000
   7217     171.3128      0.00000
   7218     171.3163      0.00000
   7219     171.3478      0.00000
   7220     171.3585      0.00000
   7221     171.3755      0.00000
   7222     171.3902      0.00000
   7223     171.4186      0.00000
   7224     171.4270      0.00000
   7225     171.4495      0.00000
   7226     171.4635      0.00000
   7227     171.4910      0.00000
   7228     171.5072      0.00000
   7229     171.5183      0.00000
   7230     171.5424      0.00000
   7231     171.5487      0.00000
   7232     171.5732      0.00000
   7233     171.6044      0.00000
   7234     171.6158      0.00000
   7235     171.6319      0.00000
   7236     171.6434      0.00000
   7237     171.6497      0.00000
   7238     171.6684      0.00000
   7239     171.6995      0.00000
   7240     171.7105      0.00000
   7241     171.7227      0.00000
   7242     171.7457      0.00000
   7243     171.7707      0.00000
   7244     171.7764      0.00000
   7245     171.7792      0.00000
   7246     171.8026      0.00000
   7247     171.8141      0.00000
   7248     171.8384      0.00000
   7249     171.8427      0.00000
   7250     171.8588      0.00000
   7251     171.8677      0.00000
   7252     171.8818      0.00000
   7253     171.9074      0.00000
   7254     171.9200      0.00000
   7255     171.9238      0.00000
   7256     171.9437      0.00000
   7257     171.9807      0.00000
   7258     171.9874      0.00000
   7259     172.0004      0.00000
   7260     172.0342      0.00000
   7261     172.0605      0.00000
   7262     172.0698      0.00000
   7263     172.0794      0.00000
   7264     172.1063      0.00000
   7265     172.1173      0.00000
   7266     172.1414      0.00000
   7267     172.1644      0.00000
   7268     172.1760      0.00000
   7269     172.1947      0.00000
   7270     172.2137      0.00000
   7271     172.2222      0.00000
   7272     172.2389      0.00000
   7273     172.2643      0.00000
   7274     172.2811      0.00000
   7275     172.2886      0.00000
   7276     172.2950      0.00000
   7277     172.3134      0.00000
   7278     172.3167      0.00000
   7279     172.3414      0.00000
   7280     172.3613      0.00000
   7281     172.3793      0.00000
   7282     172.3984      0.00000
   7283     172.4085      0.00000
   7284     172.4303      0.00000
   7285     172.4511      0.00000
   7286     172.4802      0.00000
   7287     172.4868      0.00000
   7288     172.5005      0.00000
   7289     172.5088      0.00000
   7290     172.5261      0.00000
   7291     172.5531      0.00000
   7292     172.5605      0.00000
   7293     172.5936      0.00000
   7294     172.5963      0.00000
   7295     172.6200      0.00000
   7296     172.6227      0.00000
   7297     172.6450      0.00000
   7298     172.6692      0.00000
   7299     172.6766      0.00000
   7300     172.6849      0.00000
   7301     172.7034      0.00000
   7302     172.7298      0.00000
   7303     172.7436      0.00000
   7304     172.7508      0.00000
   7305     172.7746      0.00000
   7306     172.7906      0.00000
   7307     172.8110      0.00000
   7308     172.8176      0.00000
   7309     172.8277      0.00000
   7310     172.8456      0.00000
   7311     172.8659      0.00000
   7312     172.8730      0.00000
   7313     172.8817      0.00000
   7314     172.8952      0.00000
   7315     172.9318      0.00000
   7316     172.9465      0.00000
   7317     172.9689      0.00000
   7318     172.9800      0.00000
   7319     173.0009      0.00000
   7320     173.0105      0.00000
   7321     173.0386      0.00000
   7322     173.0530      0.00000
   7323     173.0687      0.00000
   7324     173.0875      0.00000
   7325     173.0938      0.00000
   7326     173.1232      0.00000
   7327     173.1323      0.00000
   7328     173.1438      0.00000
   7329     173.1542      0.00000
   7330     173.1726      0.00000
   7331     173.1786      0.00000
   7332     173.1878      0.00000
   7333     173.2004      0.00000
   7334     173.2165      0.00000
   7335     173.2429      0.00000
   7336     173.2593      0.00000
   7337     173.2631      0.00000
   7338     173.2773      0.00000
   7339     173.2909      0.00000
   7340     173.3171      0.00000
   7341     173.3257      0.00000
   7342     173.3465      0.00000
   7343     173.3638      0.00000
   7344     173.3746      0.00000
   7345     173.4010      0.00000
   7346     173.4063      0.00000
   7347     173.4313      0.00000
   7348     173.4344      0.00000
   7349     173.4472      0.00000
   7350     173.4596      0.00000
   7351     173.4715      0.00000
   7352     173.4781      0.00000
   7353     173.4872      0.00000
   7354     173.5065      0.00000
   7355     173.5421      0.00000
   7356     173.5573      0.00000
   7357     173.5599      0.00000
   7358     173.5748      0.00000
   7359     173.5889      0.00000
   7360     173.6126      0.00000
   7361     173.6273      0.00000
   7362     173.6526      0.00000
   7363     173.6571      0.00000
   7364     173.6672      0.00000
   7365     173.6833      0.00000
   7366     173.7087      0.00000
   7367     173.7185      0.00000
   7368     173.7479      0.00000
   7369     173.7648      0.00000
   7370     173.7671      0.00000
   7371     173.7824      0.00000
   7372     173.7928      0.00000
   7373     173.8005      0.00000
   7374     173.8160      0.00000
   7375     173.8296      0.00000
   7376     173.8419      0.00000
   7377     173.8711      0.00000
   7378     173.8951      0.00000
   7379     173.9015      0.00000
   7380     173.9063      0.00000
   7381     173.9324      0.00000
   7382     173.9528      0.00000
   7383     173.9657      0.00000
   7384     173.9938      0.00000
   7385     174.0042      0.00000
   7386     174.0156      0.00000
   7387     174.0261      0.00000
   7388     174.0344      0.00000
   7389     174.0486      0.00000
   7390     174.0647      0.00000
   7391     174.0776      0.00000
   7392     174.0815      0.00000
   7393     174.1006      0.00000
   7394     174.1099      0.00000
   7395     174.1306      0.00000
   7396     174.1343      0.00000
   7397     174.1385      0.00000
   7398     174.1590      0.00000
   7399     174.1751      0.00000
   7400     174.1969      0.00000
   7401     174.2018      0.00000
   7402     174.2165      0.00000
   7403     174.2256      0.00000
   7404     174.2406      0.00000
   7405     174.2604      0.00000
   7406     174.2643      0.00000
   7407     174.2812      0.00000
   7408     174.3017      0.00000
   7409     174.3243      0.00000
   7410     174.3422      0.00000
   7411     174.3672      0.00000
   7412     174.3735      0.00000
   7413     174.3823      0.00000
   7414     174.3945      0.00000
   7415     174.4211      0.00000
   7416     174.4326      0.00000
   7417     174.4371      0.00000
   7418     174.4432      0.00000
   7419     174.4708      0.00000
   7420     174.4905      0.00000
   7421     174.5026      0.00000
   7422     174.5096      0.00000
   7423     174.5317      0.00000
   7424     174.5364      0.00000
   7425     174.5507      0.00000
   7426     174.5706      0.00000
   7427     174.5873      0.00000
   7428     174.5958      0.00000
   7429     174.6055      0.00000
   7430     174.6191      0.00000
   7431     174.6406      0.00000
   7432     174.6477      0.00000
   7433     174.6637      0.00000
   7434     174.6828      0.00000
   7435     174.6920      0.00000
   7436     174.7085      0.00000
   7437     174.7356      0.00000
   7438     174.7403      0.00000
   7439     174.7552      0.00000
   7440     174.7731      0.00000
   7441     174.7927      0.00000
   7442     174.8210      0.00000
   7443     174.8321      0.00000
   7444     174.8378      0.00000
   7445     174.8470      0.00000
   7446     174.8792      0.00000
   7447     174.8817      0.00000
   7448     174.9042      0.00000
   7449     174.9136      0.00000
   7450     174.9297      0.00000
   7451     174.9369      0.00000
   7452     174.9729      0.00000
   7453     174.9741      0.00000
   7454     174.9911      0.00000
   7455     175.0099      0.00000
   7456     175.0267      0.00000
   7457     175.0319      0.00000
   7458     175.0458      0.00000
   7459     175.0560      0.00000
   7460     175.0824      0.00000
   7461     175.0854      0.00000
   7462     175.1156      0.00000
   7463     175.1199      0.00000
   7464     175.1325      0.00000
   7465     175.1509      0.00000
   7466     175.1616      0.00000
   7467     175.1822      0.00000
   7468     175.1961      0.00000
   7469     175.2147      0.00000
   7470     175.2264      0.00000
   7471     175.2331      0.00000
   7472     175.2373      0.00000
   7473     175.2574      0.00000
   7474     175.2700      0.00000
   7475     175.2903      0.00000
   7476     175.3024      0.00000
   7477     175.3295      0.00000
   7478     175.3386      0.00000
   7479     175.3468      0.00000
   7480     175.3858      0.00000
   7481     175.4061      0.00000
   7482     175.4093      0.00000
   7483     175.4247      0.00000
   7484     175.4374      0.00000
   7485     175.4460      0.00000
   7486     175.4557      0.00000
   7487     175.4911      0.00000
   7488     175.4978      0.00000
   7489     175.5175      0.00000
   7490     175.5239      0.00000
   7491     175.5410      0.00000
   7492     175.5425      0.00000
   7493     175.5630      0.00000
   7494     175.5844      0.00000
   7495     175.6066      0.00000
   7496     175.6100      0.00000
   7497     175.6357      0.00000
   7498     175.6461      0.00000
   7499     175.6577      0.00000
   7500     175.6749      0.00000
   7501     175.6967      0.00000
   7502     175.7203      0.00000
   7503     175.7234      0.00000
   7504     175.7380      0.00000
   7505     175.7507      0.00000
   7506     175.7606      0.00000
   7507     175.7786      0.00000
   7508     175.7862      0.00000
   7509     175.8024      0.00000
   7510     175.8118      0.00000
   7511     175.8421      0.00000
   7512     175.8560      0.00000
   7513     175.8678      0.00000
   7514     175.8837      0.00000
   7515     175.8936      0.00000
   7516     175.8977      0.00000
   7517     175.9203      0.00000
   7518     175.9293      0.00000
   7519     175.9476      0.00000
   7520     175.9690      0.00000
   7521     175.9791      0.00000
   7522     175.9816      0.00000
   7523     176.0063      0.00000
   7524     176.0168      0.00000
   7525     176.0273      0.00000
   7526     176.0488      0.00000
   7527     176.0522      0.00000
   7528     176.0752      0.00000
   7529     176.0837      0.00000
   7530     176.1039      0.00000
   7531     176.1276      0.00000
   7532     176.1370      0.00000
   7533     176.1671      0.00000
   7534     176.1728      0.00000
   7535     176.1771      0.00000
   7536     176.1856      0.00000
   7537     176.2254      0.00000
   7538     176.2500      0.00000
   7539     176.2586      0.00000
   7540     176.2832      0.00000
   7541     176.2851      0.00000
   7542     176.2912      0.00000
   7543     176.3116      0.00000
   7544     176.3353      0.00000
   7545     176.3609      0.00000
   7546     176.3706      0.00000
   7547     176.3739      0.00000
   7548     176.3834      0.00000
   7549     176.4093      0.00000
   7550     176.4143      0.00000
   7551     176.4279      0.00000
   7552     176.4423      0.00000
   7553     176.4709      0.00000
   7554     176.4880      0.00000
   7555     176.5035      0.00000
   7556     176.5084      0.00000
   7557     176.5301      0.00000
   7558     176.5637      0.00000
   7559     176.5803      0.00000
   7560     176.5953      0.00000
   7561     176.6013      0.00000
   7562     176.6145      0.00000
   7563     176.6175      0.00000
   7564     176.6438      0.00000
   7565     176.6590      0.00000
   7566     176.6769      0.00000
   7567     176.6868      0.00000
   7568     176.6935      0.00000
   7569     176.7131      0.00000
   7570     176.7281      0.00000
   7571     176.7451      0.00000
   7572     176.7459      0.00000
   7573     176.7803      0.00000
   7574     176.7883      0.00000
   7575     176.8116      0.00000
   7576     176.8189      0.00000
   7577     176.8572      0.00000
   7578     176.8684      0.00000
   7579     176.8723      0.00000
   7580     176.8912      0.00000
   7581     176.8947      0.00000
   7582     176.8988      0.00000
   7583     176.9308      0.00000
   7584     176.9439      0.00000
   7585     176.9574      0.00000
   7586     176.9878      0.00000
   7587     176.9967      0.00000
   7588     177.0100      0.00000
   7589     177.0238      0.00000
   7590     177.0343      0.00000
   7591     177.0462      0.00000
   7592     177.0797      0.00000
   7593     177.0902      0.00000
   7594     177.0977      0.00000
   7595     177.1035      0.00000
   7596     177.1195      0.00000
   7597     177.1469      0.00000
   7598     177.1551      0.00000
   7599     177.1653      0.00000
   7600     177.1802      0.00000
   7601     177.1866      0.00000
   7602     177.2212      0.00000
   7603     177.2290      0.00000
   7604     177.2394      0.00000
   7605     177.2700      0.00000
   7606     177.2915      0.00000
   7607     177.3053      0.00000
   7608     177.3101      0.00000
   7609     177.3202      0.00000
   7610     177.3282      0.00000
   7611     177.3481      0.00000
   7612     177.3803      0.00000
   7613     177.3996      0.00000
   7614     177.4173      0.00000
   7615     177.4319      0.00000
   7616     177.4492      0.00000
   7617     177.4520      0.00000
   7618     177.4703      0.00000
   7619     177.4741      0.00000
   7620     177.4896      0.00000
   7621     177.4942      0.00000
   7622     177.5145      0.00000
   7623     177.5277      0.00000
   7624     177.5538      0.00000
   7625     177.5644      0.00000
   7626     177.5848      0.00000
   7627     177.5922      0.00000
   7628     177.6180      0.00000
   7629     177.6373      0.00000
   7630     177.6532      0.00000
   7631     177.6695      0.00000
   7632     177.6883      0.00000
   7633     177.7094      0.00000
   7634     177.7212      0.00000
   7635     177.7356      0.00000
   7636     177.7678      0.00000
   7637     177.7745      0.00000
   7638     177.7868      0.00000
   7639     177.8108      0.00000
   7640     177.8338      0.00000
   7641     177.8540      0.00000
   7642     177.8664      0.00000
   7643     177.8698      0.00000
   7644     177.8982      0.00000
   7645     177.9131      0.00000
   7646     177.9298      0.00000
   7647     177.9499      0.00000
   7648     177.9671      0.00000
   7649     177.9791      0.00000
   7650     177.9925      0.00000
   7651     178.0103      0.00000
   7652     178.0246      0.00000
   7653     178.0366      0.00000
   7654     178.0687      0.00000
   7655     178.0727      0.00000
   7656     178.0895      0.00000
   7657     178.1020      0.00000
   7658     178.1126      0.00000
   7659     178.1320      0.00000
   7660     178.1460      0.00000
   7661     178.1568      0.00000
   7662     178.1850      0.00000
   7663     178.1954      0.00000
   7664     178.2228      0.00000
   7665     178.2351      0.00000
   7666     178.2560      0.00000
   7667     178.2668      0.00000
   7668     178.2875      0.00000
   7669     178.3073      0.00000
   7670     178.3091      0.00000
   7671     178.3166      0.00000
   7672     178.3239      0.00000
   7673     178.3504      0.00000
   7674     178.3581      0.00000
   7675     178.3825      0.00000
   7676     178.3902      0.00000
   7677     178.4044      0.00000
   7678     178.4192      0.00000
   7679     178.4239      0.00000
   7680     178.4389      0.00000
   7681     178.4497      0.00000
   7682     178.4845      0.00000
   7683     178.4935      0.00000
   7684     178.5205      0.00000
   7685     178.5315      0.00000
   7686     178.5527      0.00000
   7687     178.5740      0.00000
   7688     178.5830      0.00000
   7689     178.5932      0.00000
   7690     178.6038      0.00000
   7691     178.6207      0.00000
   7692     178.6301      0.00000
   7693     178.6539      0.00000
   7694     178.6695      0.00000
   7695     178.6754      0.00000
   7696     178.7055      0.00000
   7697     178.7102      0.00000
   7698     178.7415      0.00000
   7699     178.7532      0.00000
   7700     178.7635      0.00000
   7701     178.7873      0.00000
   7702     178.7952      0.00000
   7703     178.8011      0.00000
   7704     178.8139      0.00000
   7705     178.8387      0.00000
   7706     178.8580      0.00000
   7707     178.8703      0.00000
   7708     178.8965      0.00000
   7709     178.9011      0.00000
   7710     178.9146      0.00000
   7711     178.9324      0.00000
   7712     178.9367      0.00000
   7713     178.9579      0.00000
   7714     178.9698      0.00000
   7715     178.9972      0.00000
   7716     179.0068      0.00000
   7717     179.0390      0.00000
   7718     179.0638      0.00000
   7719     179.0732      0.00000
   7720     179.0897      0.00000
   7721     179.0981      0.00000
   7722     179.1196      0.00000
   7723     179.1281      0.00000
   7724     179.1315      0.00000
   7725     179.1415      0.00000
   7726     179.1700      0.00000
   7727     179.1869      0.00000
   7728     179.1972      0.00000
   7729     179.2106      0.00000
   7730     179.2278      0.00000
   7731     179.2339      0.00000
   7732     179.2739      0.00000
   7733     179.2924      0.00000
   7734     179.3034      0.00000
   7735     179.3334      0.00000
   7736     179.3451      0.00000
   7737     179.3651      0.00000
   7738     179.3655      0.00000
   7739     179.3780      0.00000
   7740     179.3981      0.00000
   7741     179.4308      0.00000
   7742     179.4503      0.00000
   7743     179.4645      0.00000
   7744     179.4780      0.00000
   7745     179.4882      0.00000
   7746     179.5179      0.00000
   7747     179.5366      0.00000
   7748     179.5626      0.00000
   7749     179.5760      0.00000
   7750     179.5823      0.00000
   7751     179.5882      0.00000
   7752     179.6036      0.00000
   7753     179.6203      0.00000
   7754     179.6407      0.00000
   7755     179.6536      0.00000
   7756     179.6616      0.00000
   7757     179.6877      0.00000
   7758     179.7195      0.00000
   7759     179.7237      0.00000
   7760     179.7354      0.00000
   7761     179.7596      0.00000
   7762     179.7628      0.00000
   7763     179.7750      0.00000
   7764     179.8117      0.00000
   7765     179.8429      0.00000
   7766     179.8523      0.00000
   7767     179.8540      0.00000
   7768     179.8696      0.00000
   7769     179.8844      0.00000
   7770     179.8911      0.00000
   7771     179.9124      0.00000
   7772     179.9212      0.00000
   7773     179.9771      0.00000
   7774     179.9824      0.00000
   7775     179.9962      0.00000
   7776     180.0249      0.00000
   7777     180.0265      0.00000
   7778     180.0541      0.00000
   7779     180.0736      0.00000
   7780     180.0805      0.00000
   7781     180.0929      0.00000
   7782     180.1230      0.00000
   7783     180.1300      0.00000
   7784     180.1427      0.00000
   7785     180.1702      0.00000
   7786     180.1887      0.00000
   7787     180.1987      0.00000
   7788     180.2101      0.00000
   7789     180.2250      0.00000
   7790     180.2528      0.00000
   7791     180.2713      0.00000
   7792     180.2813      0.00000
   7793     180.2949      0.00000
   7794     180.3114      0.00000
   7795     180.3322      0.00000
   7796     180.3647      0.00000
   7797     180.3834      0.00000
   7798     180.4001      0.00000
   7799     180.4245      0.00000
   7800     180.4317      0.00000
   7801     180.4494      0.00000
   7802     180.4679      0.00000
   7803     180.4820      0.00000
   7804     180.5119      0.00000
   7805     180.5213      0.00000
   7806     180.5474      0.00000
   7807     180.5593      0.00000
   7808     180.5783      0.00000
   7809     180.5869      0.00000
   7810     180.5989      0.00000
   7811     180.6148      0.00000
   7812     180.6371      0.00000
   7813     180.6465      0.00000
   7814     180.6710      0.00000
   7815     180.6978      0.00000
   7816     180.7193      0.00000
   7817     180.7341      0.00000
   7818     180.7444      0.00000
   7819     180.7767      0.00000
   7820     180.8014      0.00000
   7821     180.8219      0.00000
   7822     180.8384      0.00000
   7823     180.8421      0.00000
   7824     180.8552      0.00000
   7825     180.8622      0.00000
   7826     180.8750      0.00000
   7827     180.8887      0.00000
   7828     180.9222      0.00000
   7829     180.9304      0.00000
   7830     180.9619      0.00000
   7831     180.9834      0.00000
   7832     181.0044      0.00000
   7833     181.0201      0.00000
   7834     181.0466      0.00000
   7835     181.0617      0.00000
   7836     181.0773      0.00000
   7837     181.0903      0.00000
   7838     181.1028      0.00000
   7839     181.1120      0.00000
   7840     181.1484      0.00000
   7841     181.1662      0.00000
   7842     181.1763      0.00000
   7843     181.1970      0.00000
   7844     181.2226      0.00000
   7845     181.2463      0.00000
   7846     181.2525      0.00000
   7847     181.2720      0.00000
   7848     181.2814      0.00000
   7849     181.3042      0.00000
   7850     181.3296      0.00000
   7851     181.3383      0.00000
   7852     181.3437      0.00000
   7853     181.3852      0.00000
   7854     181.3924      0.00000
   7855     181.4161      0.00000
   7856     181.4302      0.00000
   7857     181.4383      0.00000
   7858     181.4489      0.00000
   7859     181.4915      0.00000
   7860     181.4985      0.00000
   7861     181.5172      0.00000
   7862     181.5279      0.00000
   7863     181.5590      0.00000
   7864     181.5631      0.00000
   7865     181.5673      0.00000
   7866     181.6024      0.00000
   7867     181.6227      0.00000
   7868     181.6434      0.00000
   7869     181.6521      0.00000
   7870     181.6738      0.00000
   7871     181.6850      0.00000
   7872     181.6927      0.00000
   7873     181.7273      0.00000
   7874     181.7512      0.00000
   7875     181.7541      0.00000
   7876     181.7692      0.00000
   7877     181.7874      0.00000
   7878     181.8159      0.00000
   7879     181.8312      0.00000
   7880     181.8526      0.00000
   7881     181.8721      0.00000
   7882     181.8785      0.00000
   7883     181.9010      0.00000
   7884     181.9025      0.00000
   7885     181.9172      0.00000
   7886     181.9362      0.00000
   7887     181.9556      0.00000
   7888     181.9660      0.00000
   7889     182.0074      0.00000
   7890     182.0206      0.00000
   7891     182.0381      0.00000
   7892     182.0452      0.00000
   7893     182.0534      0.00000
   7894     182.0827      0.00000
   7895     182.0916      0.00000
   7896     182.1132      0.00000
   7897     182.1215      0.00000
   7898     182.1401      0.00000
   7899     182.1624      0.00000
   7900     182.1733      0.00000
   7901     182.1854      0.00000
   7902     182.2044      0.00000
   7903     182.2293      0.00000
   7904     182.2362      0.00000
   7905     182.2608      0.00000
   7906     182.2731      0.00000
   7907     182.2978      0.00000
   7908     182.3034      0.00000
   7909     182.3237      0.00000
   7910     182.3403      0.00000
   7911     182.3453      0.00000
   7912     182.3724      0.00000
   7913     182.3937      0.00000
   7914     182.4123      0.00000
   7915     182.4317      0.00000
   7916     182.4505      0.00000
   7917     182.4619      0.00000
   7918     182.4766      0.00000
   7919     182.5013      0.00000
   7920     182.5140      0.00000
   7921     182.5477      0.00000
   7922     182.5490      0.00000
   7923     182.5718      0.00000
   7924     182.5890      0.00000
   7925     182.6128      0.00000
   7926     182.6344      0.00000
   7927     182.6509      0.00000
   7928     182.6668      0.00000
   7929     182.6852      0.00000
   7930     182.6976      0.00000
   7931     182.7141      0.00000
   7932     182.7334      0.00000
   7933     182.7442      0.00000
   7934     182.7687      0.00000
   7935     182.7828      0.00000
   7936     182.7909      0.00000
   7937     182.8170      0.00000
   7938     182.8218      0.00000
   7939     182.8337      0.00000
   7940     182.8446      0.00000
   7941     182.8512      0.00000
   7942     182.8633      0.00000
   7943     182.8874      0.00000
   7944     182.8964      0.00000
   7945     182.8996      0.00000
   7946     182.9356      0.00000
   7947     182.9426      0.00000
   7948     182.9534      0.00000
   7949     182.9924      0.00000
   7950     182.9972      0.00000
   7951     183.0269      0.00000
   7952     183.0331      0.00000
   7953     183.0580      0.00000
   7954     183.0757      0.00000
   7955     183.0794      0.00000
   7956     183.0922      0.00000
   7957     183.1155      0.00000
   7958     183.1205      0.00000
   7959     183.1357      0.00000
   7960     183.1537      0.00000
   7961     183.1683      0.00000
   7962     183.1755      0.00000
   7963     183.1793      0.00000
   7964     183.1835      0.00000
   7965     183.2043      0.00000
   7966     183.2270      0.00000
   7967     183.2559      0.00000
   7968     183.2595      0.00000
   7969     183.2965      0.00000
   7970     183.3031      0.00000
   7971     183.3132      0.00000
   7972     183.3490      0.00000
   7973     183.3560      0.00000
   7974     183.3663      0.00000
   7975     183.3785      0.00000
   7976     183.3874      0.00000
   7977     183.4198      0.00000
   7978     183.4231      0.00000
   7979     183.4443      0.00000
   7980     183.4613      0.00000
   7981     183.4780      0.00000
   7982     183.5119      0.00000
   7983     183.5399      0.00000
   7984     183.5565      0.00000
   7985     183.5642      0.00000
   7986     183.5720      0.00000
   7987     183.5791      0.00000
   7988     183.5936      0.00000
   7989     183.6109      0.00000
   7990     183.6282      0.00000
   7991     183.6406      0.00000
   7992     183.6548      0.00000
   7993     183.6786      0.00000
   7994     183.6874      0.00000
   7995     183.7138      0.00000
   7996     183.7414      0.00000
   7997     183.7606      0.00000
   7998     183.7647      0.00000
   7999     183.7837      0.00000
   8000     183.7899      0.00000
   8001     183.8071      0.00000
   8002     183.8285      0.00000
   8003     183.8345      0.00000
   8004     183.8483      0.00000
   8005     183.8628      0.00000
   8006     183.8782      0.00000
   8007     183.8897      0.00000
   8008     183.9014      0.00000
   8009     183.9202      0.00000
   8010     183.9424      0.00000
   8011     183.9449      0.00000
   8012     183.9507      0.00000
   8013     183.9836      0.00000
   8014     183.9890      0.00000
   8015     184.0092      0.00000
   8016     184.0313      0.00000
   8017     184.0392      0.00000
   8018     184.0582      0.00000
   8019     184.0757      0.00000
   8020     184.0769      0.00000
   8021     184.0863      0.00000
   8022     184.1154      0.00000
   8023     184.1374      0.00000
   8024     184.1409      0.00000
   8025     184.1651      0.00000
   8026     184.1735      0.00000
   8027     184.1747      0.00000
   8028     184.2019      0.00000
   8029     184.2232      0.00000
   8030     184.2381      0.00000
   8031     184.2416      0.00000
   8032     184.2636      0.00000
   8033     184.2978      0.00000
   8034     184.3175      0.00000
   8035     184.3334      0.00000
   8036     184.3342      0.00000
   8037     184.3451      0.00000
   8038     184.3615      0.00000
   8039     184.3741      0.00000
   8040     184.3950      0.00000
   8041     184.4013      0.00000
   8042     184.4114      0.00000
   8043     184.4259      0.00000
   8044     184.4408      0.00000
   8045     184.4558      0.00000
   8046     184.4813      0.00000
   8047     184.4864      0.00000
   8048     184.5029      0.00000
   8049     184.5156      0.00000
   8050     184.5239      0.00000
   8051     184.5467      0.00000
   8052     184.5535      0.00000
   8053     184.5737      0.00000
   8054     184.5943      0.00000
   8055     184.6003      0.00000
   8056     184.6134      0.00000
   8057     184.6360      0.00000
   8058     184.6480      0.00000
   8059     184.6703      0.00000
   8060     184.6843      0.00000
   8061     184.6916      0.00000
   8062     184.6984      0.00000
   8063     184.7117      0.00000
   8064     184.7186      0.00000
   8065     184.7401      0.00000
   8066     184.7566      0.00000
   8067     184.7801      0.00000
   8068     184.7934      0.00000
   8069     184.8095      0.00000
   8070     184.8265      0.00000
   8071     184.8382      0.00000
   8072     184.8608      0.00000
   8073     184.8679      0.00000
   8074     184.8918      0.00000
   8075     184.9115      0.00000
   8076     184.9153      0.00000
   8077     184.9270      0.00000
   8078     184.9420      0.00000
   8079     184.9657      0.00000
   8080     184.9709      0.00000
   8081     184.9878      0.00000
   8082     184.9993      0.00000
   8083     185.0270      0.00000
   8084     185.0404      0.00000
   8085     185.0541      0.00000
   8086     185.0691      0.00000
   8087     185.0877      0.00000
   8088     185.0997      0.00000
   8089     185.1074      0.00000
   8090     185.1240      0.00000
   8091     185.1344      0.00000
   8092     185.1459      0.00000
   8093     185.1626      0.00000
   8094     185.1749      0.00000
   8095     185.2013      0.00000
   8096     185.2170      0.00000
   8097     185.2255      0.00000
   8098     185.2346      0.00000
   8099     185.2575      0.00000
   8100     185.2644      0.00000
   8101     185.2961      0.00000
   8102     185.3125      0.00000
   8103     185.3230      0.00000
   8104     185.3284      0.00000
   8105     185.3412      0.00000
   8106     185.3560      0.00000
   8107     185.3680      0.00000
   8108     185.3779      0.00000
   8109     185.3971      0.00000
   8110     185.4110      0.00000
   8111     185.4307      0.00000
   8112     185.4498      0.00000
   8113     185.4614      0.00000
   8114     185.4866      0.00000
   8115     185.4997      0.00000
   8116     185.5209      0.00000
   8117     185.5331      0.00000
   8118     185.5496      0.00000
   8119     185.5557      0.00000
   8120     185.5772      0.00000
   8121     185.5913      0.00000
   8122     185.6197      0.00000
   8123     185.6349      0.00000
   8124     185.6414      0.00000
   8125     185.6457      0.00000
   8126     185.6588      0.00000
   8127     185.6713      0.00000
   8128     185.6877      0.00000
   8129     185.6970      0.00000
   8130     185.7397      0.00000
   8131     185.7560      0.00000
   8132     185.7686      0.00000
   8133     185.8043      0.00000
   8134     185.8254      0.00000
   8135     185.8310      0.00000
   8136     185.8494      0.00000
   8137     185.8637      0.00000
   8138     185.8668      0.00000
   8139     185.8842      0.00000
   8140     185.9007      0.00000
   8141     185.9122      0.00000
   8142     185.9365      0.00000
   8143     185.9502      0.00000
   8144     185.9645      0.00000
   8145     185.9738      0.00000
   8146     185.9864      0.00000
   8147     185.9988      0.00000
   8148     186.0131      0.00000
   8149     186.0499      0.00000
   8150     186.0627      0.00000
   8151     186.0750      0.00000
   8152     186.1019      0.00000
   8153     186.1095      0.00000
   8154     186.1291      0.00000
   8155     186.1389      0.00000
   8156     186.1525      0.00000
   8157     186.1686      0.00000
   8158     186.1887      0.00000
   8159     186.2005      0.00000
   8160     186.2262      0.00000
   8161     186.2308      0.00000
   8162     186.2467      0.00000
   8163     186.2534      0.00000
   8164     186.2699      0.00000
   8165     186.2706      0.00000
   8166     186.2868      0.00000
   8167     186.3207      0.00000
   8168     186.3373      0.00000
   8169     186.3471      0.00000
   8170     186.3522      0.00000
   8171     186.3735      0.00000
   8172     186.3894      0.00000
   8173     186.4103      0.00000
   8174     186.4202      0.00000
   8175     186.4261      0.00000
   8176     186.4518      0.00000
   8177     186.4668      0.00000
   8178     186.4946      0.00000
   8179     186.5265      0.00000
   8180     186.5303      0.00000
   8181     186.5381      0.00000
   8182     186.5635      0.00000
   8183     186.5653      0.00000
   8184     186.5757      0.00000
   8185     186.6012      0.00000
   8186     186.6229      0.00000
   8187     186.6354      0.00000
   8188     186.6440      0.00000
   8189     186.6549      0.00000
   8190     186.6694      0.00000
   8191     186.6775      0.00000
   8192     186.6906      0.00000
   8193     186.7079      0.00000
   8194     186.7187      0.00000
   8195     186.7401      0.00000
   8196     186.7492      0.00000
   8197     186.7698      0.00000
   8198     186.7867      0.00000
   8199     186.8183      0.00000
   8200     186.8270      0.00000
   8201     186.8375      0.00000
   8202     186.8482      0.00000
   8203     186.8597      0.00000
   8204     186.8840      0.00000
   8205     186.8861      0.00000
   8206     186.9100      0.00000
   8207     186.9251      0.00000
   8208     186.9381      0.00000
   8209     186.9520      0.00000
   8210     186.9794      0.00000
   8211     186.9949      0.00000
   8212     187.0043      0.00000
   8213     187.0190      0.00000
   8214     187.0300      0.00000
   8215     187.0537      0.00000
   8216     187.0639      0.00000
   8217     187.0991      0.00000
   8218     187.1106      0.00000
   8219     187.1198      0.00000
   8220     187.1279      0.00000
   8221     187.1489      0.00000
   8222     187.1574      0.00000
   8223     187.1976      0.00000
   8224     187.2122      0.00000
   8225     187.2211      0.00000
   8226     187.2351      0.00000
   8227     187.2427      0.00000
   8228     187.2587      0.00000
   8229     187.2797      0.00000
   8230     187.2846      0.00000
   8231     187.3232      0.00000
   8232     187.3284      0.00000
   8233     187.3448      0.00000
   8234     187.3582      0.00000
   8235     187.3699      0.00000
   8236     187.3861      0.00000
   8237     187.3905      0.00000
   8238     187.4023      0.00000
   8239     187.4231      0.00000
   8240     187.4298      0.00000
   8241     187.4363      0.00000
   8242     187.4470      0.00000
   8243     187.4815      0.00000
   8244     187.4932      0.00000
   8245     187.5020      0.00000
   8246     187.5162      0.00000
   8247     187.5423      0.00000
   8248     187.5518      0.00000
   8249     187.5670      0.00000
   8250     187.5878      0.00000
   8251     187.6014      0.00000
   8252     187.6242      0.00000
   8253     187.6292      0.00000
   8254     187.6449      0.00000
   8255     187.6617      0.00000
   8256     187.6754      0.00000
   8257     187.6840      0.00000
   8258     187.7113      0.00000
   8259     187.7345      0.00000
   8260     187.7458      0.00000
   8261     187.7475      0.00000
   8262     187.7651      0.00000
   8263     187.7806      0.00000
   8264     187.8137      0.00000
   8265     187.8251      0.00000
   8266     187.8410      0.00000
   8267     187.8599      0.00000
   8268     187.8709      0.00000
   8269     187.8955      0.00000
   8270     187.9021      0.00000
   8271     187.9141      0.00000
   8272     187.9340      0.00000
   8273     187.9561      0.00000
   8274     187.9594      0.00000
   8275     187.9690      0.00000
   8276     188.0038      0.00000
   8277     188.0086      0.00000
   8278     188.0320      0.00000
   8279     188.0437      0.00000
   8280     188.0554      0.00000
   8281     188.0697      0.00000
   8282     188.1032      0.00000
   8283     188.1413      0.00000
   8284     188.1542      0.00000
   8285     188.1632      0.00000
   8286     188.1933      0.00000
   8287     188.2013      0.00000
   8288     188.2323      0.00000
   8289     188.2389      0.00000
   8290     188.2517      0.00000
   8291     188.2702      0.00000
   8292     188.2899      0.00000
   8293     188.3005      0.00000
   8294     188.3197      0.00000
   8295     188.3251      0.00000
   8296     188.3527      0.00000
   8297     188.3733      0.00000
   8298     188.3831      0.00000
   8299     188.4024      0.00000
   8300     188.4254      0.00000
   8301     188.4445      0.00000
   8302     188.4668      0.00000
   8303     188.4778      0.00000
   8304     188.4828      0.00000
   8305     188.5046      0.00000
   8306     188.5261      0.00000
   8307     188.5355      0.00000
   8308     188.5651      0.00000
   8309     188.5716      0.00000
   8310     188.5911      0.00000
   8311     188.5964      0.00000
   8312     188.6336      0.00000
   8313     188.6423      0.00000
   8314     188.6472      0.00000
   8315     188.6800      0.00000
   8316     188.6847      0.00000
   8317     188.7090      0.00000
   8318     188.7297      0.00000
   8319     188.7348      0.00000
   8320     188.7432      0.00000
   8321     188.7595      0.00000
   8322     188.7779      0.00000
   8323     188.7962      0.00000
   8324     188.8083      0.00000
   8325     188.8246      0.00000
   8326     188.8627      0.00000
   8327     188.8655      0.00000
   8328     188.8741      0.00000
   8329     188.8817      0.00000
   8330     188.8989      0.00000
   8331     188.9110      0.00000
   8332     188.9218      0.00000
   8333     188.9284      0.00000
   8334     188.9545      0.00000
   8335     188.9866      0.00000
   8336     188.9994      0.00000
   8337     189.0278      0.00000
   8338     189.0444      0.00000
   8339     189.0602      0.00000
   8340     189.0730      0.00000
   8341     189.0892      0.00000
   8342     189.1039      0.00000
   8343     189.1088      0.00000
   8344     189.1408      0.00000
   8345     189.1578      0.00000
   8346     189.1834      0.00000
   8347     189.1919      0.00000
   8348     189.1983      0.00000
   8349     189.2299      0.00000
   8350     189.2374      0.00000
   8351     189.2533      0.00000
   8352     189.2687      0.00000
   8353     189.2767      0.00000
   8354     189.2895      0.00000
   8355     189.3010      0.00000
   8356     189.3211      0.00000
   8357     189.3347      0.00000
   8358     189.3465      0.00000
   8359     189.3646      0.00000
   8360     189.3856      0.00000
   8361     189.3970      0.00000
   8362     189.4185      0.00000
   8363     189.4407      0.00000
   8364     189.4654      0.00000
   8365     189.4742      0.00000
   8366     189.4854      0.00000
   8367     189.5069      0.00000
   8368     189.5282      0.00000
   8369     189.5322      0.00000
   8370     189.5439      0.00000
   8371     189.5621      0.00000
   8372     189.5688      0.00000
   8373     189.5775      0.00000
   8374     189.5987      0.00000
   8375     189.6213      0.00000
   8376     189.6393      0.00000
   8377     189.6563      0.00000
   8378     189.6770      0.00000
   8379     189.7005      0.00000
   8380     189.7073      0.00000
   8381     189.7197      0.00000
   8382     189.7395      0.00000
   8383     189.7416      0.00000
   8384     189.7625      0.00000
   8385     189.7787      0.00000
   8386     189.7897      0.00000
   8387     189.7982      0.00000
   8388     189.8198      0.00000
   8389     189.8373      0.00000
   8390     189.8487      0.00000
   8391     189.8845      0.00000
   8392     189.9044      0.00000
   8393     189.9291      0.00000
   8394     189.9356      0.00000
   8395     189.9626      0.00000
   8396     189.9670      0.00000
   8397     189.9701      0.00000
   8398     189.9947      0.00000
   8399     190.0060      0.00000
   8400     190.0273      0.00000
   8401     190.0568      0.00000
   8402     190.0769      0.00000
   8403     190.0940      0.00000
   8404     190.1172      0.00000
   8405     190.1309      0.00000
   8406     190.1469      0.00000
   8407     190.1558      0.00000
   8408     190.1743      0.00000
   8409     190.1806      0.00000
   8410     190.1980      0.00000
   8411     190.2146      0.00000
   8412     190.2231      0.00000
   8413     190.2406      0.00000
   8414     190.2529      0.00000
   8415     190.2868      0.00000
   8416     190.3057      0.00000
   8417     190.3125      0.00000
   8418     190.3361      0.00000
   8419     190.3563      0.00000
   8420     190.3829      0.00000
   8421     190.4127      0.00000
   8422     190.4159      0.00000
   8423     190.4394      0.00000
   8424     190.4552      0.00000
   8425     190.4752      0.00000
   8426     190.4920      0.00000
   8427     190.5042      0.00000
   8428     190.5154      0.00000
   8429     190.5270      0.00000
   8430     190.5359      0.00000
   8431     190.5563      0.00000
   8432     190.5656      0.00000
   8433     190.5855      0.00000
   8434     190.5973      0.00000
   8435     190.6100      0.00000
   8436     190.6223      0.00000
   8437     190.6322      0.00000
   8438     190.6518      0.00000
   8439     190.6665      0.00000
   8440     190.6823      0.00000
   8441     190.6964      0.00000
   8442     190.7091      0.00000
   8443     190.7385      0.00000
   8444     190.7453      0.00000
   8445     190.7636      0.00000
   8446     190.7820      0.00000
   8447     190.7913      0.00000
   8448     190.8181      0.00000
   8449     190.8257      0.00000
   8450     190.8527      0.00000
   8451     190.8851      0.00000
   8452     190.9017      0.00000
   8453     190.9108      0.00000
   8454     190.9352      0.00000
   8455     190.9434      0.00000
   8456     190.9466      0.00000
   8457     190.9662      0.00000
   8458     190.9862      0.00000
   8459     191.0026      0.00000
   8460     191.0536      0.00000
   8461     191.0625      0.00000
   8462     191.0869      0.00000
   8463     191.0889      0.00000
   8464     191.0999      0.00000
   8465     191.1090      0.00000
   8466     191.1339      0.00000
   8467     191.1474      0.00000
   8468     191.1613      0.00000
   8469     191.1692      0.00000
   8470     191.1819      0.00000
   8471     191.2044      0.00000
   8472     191.2247      0.00000
   8473     191.2282      0.00000
   8474     191.2514      0.00000
   8475     191.2651      0.00000
   8476     191.2839      0.00000
   8477     191.3067      0.00000
   8478     191.3171      0.00000
   8479     191.3367      0.00000
   8480     191.3549      0.00000
   8481     191.3703      0.00000
   8482     191.3776      0.00000
   8483     191.3906      0.00000
   8484     191.4037      0.00000
   8485     191.4105      0.00000
   8486     191.4325      0.00000
   8487     191.4636      0.00000
   8488     191.4776      0.00000
   8489     191.4881      0.00000
   8490     191.5002      0.00000
   8491     191.5181      0.00000
   8492     191.5263      0.00000
   8493     191.5454      0.00000
   8494     191.5551      0.00000
   8495     191.5930      0.00000
   8496     191.6043      0.00000
   8497     191.6219      0.00000
   8498     191.6390      0.00000
   8499     191.6470      0.00000
   8500     191.6558      0.00000
   8501     191.6684      0.00000
   8502     191.6781      0.00000
   8503     191.6963      0.00000
   8504     191.7065      0.00000
   8505     191.7215      0.00000
   8506     191.7291      0.00000
   8507     191.7459      0.00000
   8508     191.7790      0.00000
   8509     191.7847      0.00000
   8510     191.8006      0.00000
   8511     191.8100      0.00000
   8512     191.8251      0.00000
   8513     191.8514      0.00000
   8514     191.8603      0.00000
   8515     191.8928      0.00000
   8516     191.8968      0.00000
   8517     191.9166      0.00000
   8518     191.9352      0.00000
   8519     191.9449      0.00000
   8520     191.9599      0.00000
   8521     191.9626      0.00000
   8522     191.9864      0.00000
   8523     192.0075      0.00000
   8524     192.0220      0.00000
   8525     192.0359      0.00000
   8526     192.0543      0.00000
   8527     192.0679      0.00000
   8528     192.0882      0.00000
   8529     192.0925      0.00000
   8530     192.1190      0.00000
   8531     192.1260      0.00000
   8532     192.1482      0.00000
   8533     192.1776      0.00000
   8534     192.1992      0.00000
   8535     192.2056      0.00000
   8536     192.2199      0.00000
   8537     192.2347      0.00000
   8538     192.2717      0.00000
   8539     192.2923      0.00000
   8540     192.3047      0.00000
   8541     192.3204      0.00000
   8542     192.3323      0.00000
   8543     192.3458      0.00000
   8544     192.3537      0.00000
   8545     192.3773      0.00000
   8546     192.4016      0.00000
   8547     192.4129      0.00000
   8548     192.4275      0.00000
   8549     192.4341      0.00000
   8550     192.4424      0.00000
   8551     192.4705      0.00000
   8552     192.4993      0.00000
   8553     192.5054      0.00000
   8554     192.5260      0.00000
   8555     192.5318      0.00000
   8556     192.5497      0.00000
   8557     192.5687      0.00000
   8558     192.5747      0.00000
   8559     192.5901      0.00000
   8560     192.6103      0.00000
   8561     192.6282      0.00000
   8562     192.6422      0.00000
   8563     192.6482      0.00000
   8564     192.6580      0.00000
   8565     192.6780      0.00000
   8566     192.6900      0.00000
   8567     192.7103      0.00000
   8568     192.7209      0.00000
   8569     192.7388      0.00000
   8570     192.7569      0.00000
   8571     192.7745      0.00000
   8572     192.7815      0.00000
   8573     192.8067      0.00000
   8574     192.8201      0.00000
   8575     192.8346      0.00000
   8576     192.8597      0.00000
   8577     192.8708      0.00000
   8578     192.8741      0.00000
   8579     192.8904      0.00000
   8580     192.8988      0.00000
   8581     192.9249      0.00000
   8582     192.9381      0.00000
   8583     192.9496      0.00000
   8584     192.9788      0.00000
   8585     192.9914      0.00000
   8586     193.0026      0.00000
   8587     193.0251      0.00000
   8588     193.0350      0.00000
   8589     193.0509      0.00000
   8590     193.0752      0.00000
   8591     193.0955      0.00000
   8592     193.1093      0.00000
   8593     193.1300      0.00000
   8594     193.1375      0.00000
   8595     193.1490      0.00000
   8596     193.1692      0.00000
   8597     193.1950      0.00000
   8598     193.1993      0.00000
   8599     193.2123      0.00000
   8600     193.2353      0.00000
   8601     193.2358      0.00000
   8602     193.2572      0.00000
   8603     193.2768      0.00000
   8604     193.3153      0.00000
   8605     193.3215      0.00000
   8606     193.3300      0.00000
   8607     193.3358      0.00000
   8608     193.3507      0.00000
   8609     193.3651      0.00000
   8610     193.3894      0.00000
   8611     193.3946      0.00000
   8612     193.4158      0.00000
   8613     193.4416      0.00000
   8614     193.4444      0.00000
   8615     193.4593      0.00000
   8616     193.4691      0.00000
   8617     193.5115      0.00000
   8618     193.5171      0.00000
   8619     193.5303      0.00000
   8620     193.5432      0.00000
   8621     193.5619      0.00000
   8622     193.5754      0.00000
   8623     193.5824      0.00000
   8624     193.6034      0.00000
   8625     193.6134      0.00000
   8626     193.6447      0.00000
   8627     193.6531      0.00000
   8628     193.6626      0.00000
   8629     193.6779      0.00000
   8630     193.6876      0.00000
   8631     193.7000      0.00000
   8632     193.7131      0.00000
   8633     193.7232      0.00000
   8634     193.7436      0.00000
   8635     193.7698      0.00000
   8636     193.8067      0.00000
   8637     193.8082      0.00000
   8638     193.8188      0.00000
   8639     193.8320      0.00000
   8640     193.8605      0.00000
   8641     193.8807      0.00000
   8642     193.8868      0.00000
   8643     193.9012      0.00000
   8644     193.9186      0.00000
   8645     193.9346      0.00000
   8646     193.9510      0.00000
   8647     193.9629      0.00000
   8648     193.9733      0.00000
   8649     193.9900      0.00000
   8650     193.9987      0.00000
   8651     194.0071      0.00000
   8652     194.0306      0.00000
   8653     194.0329      0.00000
   8654     194.0541      0.00000
   8655     194.0717      0.00000
   8656     194.0904      0.00000
   8657     194.0953      0.00000
   8658     194.1105      0.00000
   8659     194.1466      0.00000
   8660     194.1570      0.00000
   8661     194.1820      0.00000
   8662     194.1909      0.00000
   8663     194.1992      0.00000
   8664     194.2081      0.00000
   8665     194.2224      0.00000
   8666     194.2316      0.00000
   8667     194.2736      0.00000
   8668     194.2841      0.00000
   8669     194.2903      0.00000
   8670     194.3034      0.00000
   8671     194.3394      0.00000
   8672     194.3593      0.00000
   8673     194.3813      0.00000
   8674     194.4034      0.00000
   8675     194.4174      0.00000
   8676     194.4376      0.00000
   8677     194.4500      0.00000
   8678     194.4816      0.00000
   8679     194.4890      0.00000
   8680     194.4967      0.00000
   8681     194.5099      0.00000
   8682     194.5144      0.00000
   8683     194.5368      0.00000
   8684     194.5569      0.00000
   8685     194.5711      0.00000
   8686     194.5902      0.00000
   8687     194.6014      0.00000
   8688     194.6167      0.00000
   8689     194.6342      0.00000
   8690     194.6396      0.00000
   8691     194.6601      0.00000
   8692     194.6752      0.00000
   8693     194.6783      0.00000
   8694     194.6879      0.00000
   8695     194.7121      0.00000
   8696     194.7162      0.00000
   8697     194.7314      0.00000
   8698     194.7454      0.00000
   8699     194.7565      0.00000
   8700     194.7747      0.00000
   8701     194.7897      0.00000
   8702     194.8015      0.00000
   8703     194.8157      0.00000
   8704     194.8304      0.00000
   8705     194.8495      0.00000
   8706     194.8606      0.00000
   8707     194.8736      0.00000
   8708     194.8971      0.00000
   8709     194.9046      0.00000
   8710     194.9223      0.00000
   8711     194.9434      0.00000
   8712     194.9511      0.00000
   8713     194.9722      0.00000
   8714     194.9897      0.00000
   8715     195.0082      0.00000
   8716     195.0232      0.00000
   8717     195.0338      0.00000
   8718     195.0504      0.00000
   8719     195.0526      0.00000
   8720     195.0687      0.00000
   8721     195.0993      0.00000
   8722     195.1106      0.00000
   8723     195.1221      0.00000
   8724     195.1310      0.00000
   8725     195.1542      0.00000
   8726     195.1547      0.00000
   8727     195.1695      0.00000
   8728     195.1858      0.00000
   8729     195.2140      0.00000
   8730     195.2177      0.00000
   8731     195.2373      0.00000
   8732     195.2479      0.00000
   8733     195.2600      0.00000
   8734     195.2831      0.00000
   8735     195.2998      0.00000
   8736     195.3072      0.00000
   8737     195.3253      0.00000
   8738     195.3442      0.00000
   8739     195.3686      0.00000
   8740     195.3779      0.00000
   8741     195.3878      0.00000
   8742     195.3969      0.00000
   8743     195.4199      0.00000
   8744     195.4385      0.00000
   8745     195.4559      0.00000
   8746     195.4588      0.00000
   8747     195.4798      0.00000
   8748     195.4828      0.00000
   8749     195.4858      0.00000
   8750     195.4995      0.00000
   8751     195.5069      0.00000
   8752     195.5314      0.00000
   8753     195.5385      0.00000
   8754     195.5542      0.00000
   8755     195.5751      0.00000
   8756     195.5811      0.00000
   8757     195.5994      0.00000
   8758     195.6073      0.00000
   8759     195.6157      0.00000
   8760     195.6291      0.00000
   8761     195.6318      0.00000
   8762     195.6599      0.00000
   8763     195.6734      0.00000
   8764     195.6848      0.00000
   8765     195.7002      0.00000
   8766     195.7195      0.00000
   8767     195.7228      0.00000
   8768     195.7574      0.00000
   8769     195.7710      0.00000
   8770     195.7764      0.00000
   8771     195.7793      0.00000
   8772     195.7998      0.00000
   8773     195.8207      0.00000
   8774     195.8299      0.00000
   8775     195.8389      0.00000
   8776     195.8623      0.00000
   8777     195.8714      0.00000
   8778     195.8937      0.00000
   8779     195.9086      0.00000
   8780     195.9224      0.00000
   8781     195.9404      0.00000
   8782     195.9465      0.00000
   8783     195.9628      0.00000
   8784     195.9691      0.00000
   8785     195.9834      0.00000
   8786     196.0026      0.00000
   8787     196.0080      0.00000
   8788     196.0331      0.00000
   8789     196.0421      0.00000
   8790     196.0485      0.00000
   8791     196.0671      0.00000
   8792     196.0866      0.00000
   8793     196.1121      0.00000
   8794     196.1136      0.00000
   8795     196.1383      0.00000
   8796     196.1458      0.00000
   8797     196.1556      0.00000
   8798     196.1618      0.00000
   8799     196.1957      0.00000
   8800     196.2127      0.00000
   8801     196.2268      0.00000
   8802     196.2500      0.00000
   8803     196.2565      0.00000
   8804     196.2705      0.00000
   8805     196.2872      0.00000
   8806     196.3023      0.00000
   8807     196.3125      0.00000
   8808     196.3261      0.00000
   8809     196.3466      0.00000
   8810     196.3551      0.00000
   8811     196.3769      0.00000
   8812     196.3827      0.00000
   8813     196.3870      0.00000
   8814     196.3981      0.00000
   8815     196.4215      0.00000
   8816     196.4232      0.00000
   8817     196.4478      0.00000
   8818     196.4664      0.00000
   8819     196.4757      0.00000
   8820     196.4804      0.00000
   8821     196.4839      0.00000
   8822     196.4934      0.00000
   8823     196.5163      0.00000
   8824     196.5525      0.00000
   8825     196.5616      0.00000
   8826     196.5739      0.00000
   8827     196.5827      0.00000
   8828     196.5945      0.00000
   8829     196.6156      0.00000
   8830     196.6178      0.00000
   8831     196.6344      0.00000
   8832     196.6390      0.00000
   8833     196.6507      0.00000
   8834     196.6695      0.00000
   8835     196.6734      0.00000
   8836     196.6991      0.00000
   8837     196.7086      0.00000
   8838     196.7170      0.00000
   8839     196.7253      0.00000
   8840     196.7516      0.00000
   8841     196.7700      0.00000
   8842     196.7766      0.00000
   8843     196.7891      0.00000
   8844     196.8006      0.00000
   8845     196.8204      0.00000
   8846     196.8387      0.00000
   8847     196.8491      0.00000
   8848     196.8581      0.00000
   8849     196.8731      0.00000
   8850     196.8774      0.00000
   8851     196.8986      0.00000
   8852     196.9030      0.00000
   8853     196.9338      0.00000
   8854     196.9454      0.00000
   8855     196.9523      0.00000
   8856     196.9757      0.00000
   8857     196.9899      0.00000
   8858     197.0067      0.00000
   8859     197.0188      0.00000
   8860     197.0389      0.00000
   8861     197.0455      0.00000
   8862     197.0575      0.00000
   8863     197.0722      0.00000
   8864     197.0798      0.00000
   8865     197.1137      0.00000
   8866     197.1285      0.00000
   8867     197.1392      0.00000
   8868     197.1450      0.00000
   8869     197.1576      0.00000
   8870     197.1852      0.00000
   8871     197.2038      0.00000
   8872     197.2127      0.00000
   8873     197.2213      0.00000
   8874     197.2397      0.00000
   8875     197.2586      0.00000
   8876     197.2658      0.00000
   8877     197.2733      0.00000
   8878     197.2907      0.00000
   8879     197.3083      0.00000
   8880     197.3197      0.00000
   8881     197.3307      0.00000
   8882     197.3384      0.00000
   8883     197.3649      0.00000
   8884     197.3788      0.00000
   8885     197.3909      0.00000
   8886     197.4037      0.00000
   8887     197.4192      0.00000
   8888     197.4407      0.00000
   8889     197.4493      0.00000
   8890     197.4755      0.00000
   8891     197.4831      0.00000
   8892     197.4971      0.00000
   8893     197.5032      0.00000
   8894     197.5142      0.00000
   8895     197.5351      0.00000
   8896     197.5491      0.00000
   8897     197.5689      0.00000
   8898     197.5703      0.00000
   8899     197.5753      0.00000
   8900     197.6019      0.00000
   8901     197.6167      0.00000
   8902     197.6276      0.00000
   8903     197.6488      0.00000
   8904     197.6592      0.00000
   8905     197.6669      0.00000
   8906     197.6896      0.00000
   8907     197.6984      0.00000
   8908     197.7027      0.00000
   8909     197.7205      0.00000
   8910     197.7273      0.00000
   8911     197.7395      0.00000
   8912     197.7597      0.00000
   8913     197.7906      0.00000
   8914     197.7989      0.00000
   8915     197.8194      0.00000
   8916     197.8224      0.00000
   8917     197.8490      0.00000
   8918     197.8505      0.00000
   8919     197.8675      0.00000
   8920     197.8922      0.00000
   8921     197.8966      0.00000
   8922     197.9014      0.00000
   8923     197.9195      0.00000
   8924     197.9278      0.00000
   8925     197.9505      0.00000
   8926     197.9651      0.00000
   8927     197.9758      0.00000
   8928     197.9885      0.00000
   8929     198.0111      0.00000
   8930     198.0290      0.00000
   8931     198.0507      0.00000
   8932     198.0580      0.00000
   8933     198.0692      0.00000
   8934     198.0882      0.00000
   8935     198.0904      0.00000
   8936     198.1373      0.00000
   8937     198.1442      0.00000
   8938     198.1534      0.00000
   8939     198.1623      0.00000
   8940     198.1859      0.00000
   8941     198.1937      0.00000
   8942     198.2073      0.00000
   8943     198.2152      0.00000
   8944     198.2330      0.00000
   8945     198.2485      0.00000
   8946     198.2711      0.00000
   8947     198.2805      0.00000
   8948     198.3014      0.00000
   8949     198.3209      0.00000
   8950     198.3398      0.00000
   8951     198.3617      0.00000
   8952     198.3756      0.00000
   8953     198.3811      0.00000
   8954     198.3964      0.00000
   8955     198.4191      0.00000
   8956     198.4252      0.00000
   8957     198.4386      0.00000
   8958     198.4508      0.00000
   8959     198.4704      0.00000
   8960     198.4812      0.00000
   8961     198.5081      0.00000
   8962     198.5229      0.00000
   8963     198.5371      0.00000
   8964     198.5464      0.00000
   8965     198.5641      0.00000
   8966     198.5791      0.00000
   8967     198.5974      0.00000
   8968     198.6135      0.00000
   8969     198.6266      0.00000
   8970     198.6527      0.00000
   8971     198.6783      0.00000
   8972     198.7056      0.00000
   8973     198.7203      0.00000
   8974     198.7408      0.00000
   8975     198.7445      0.00000
   8976     198.7534      0.00000
   8977     198.7820      0.00000
   8978     198.7908      0.00000
   8979     198.7963      0.00000
   8980     198.8229      0.00000
   8981     198.8464      0.00000
   8982     198.8477      0.00000
   8983     198.8730      0.00000
   8984     198.8888      0.00000
   8985     198.8969      0.00000
   8986     198.9262      0.00000
   8987     198.9512      0.00000
   8988     198.9683      0.00000
   8989     198.9764      0.00000
   8990     198.9829      0.00000
   8991     198.9987      0.00000
   8992     199.0268      0.00000
   8993     199.0463      0.00000
   8994     199.0608      0.00000
   8995     199.0870      0.00000
   8996     199.0904      0.00000
   8997     199.1073      0.00000
   8998     199.1236      0.00000
   8999     199.1285      0.00000
   9000     199.1376      0.00000
   9001     199.1728      0.00000
   9002     199.1907      0.00000
   9003     199.2101      0.00000
   9004     199.2184      0.00000
   9005     199.2293      0.00000
   9006     199.2545      0.00000
   9007     199.2647      0.00000
   9008     199.2909      0.00000
   9009     199.3024      0.00000
   9010     199.3155      0.00000
   9011     199.3399      0.00000
   9012     199.3438      0.00000
   9013     199.3492      0.00000
   9014     199.3636      0.00000
   9015     199.3780      0.00000
   9016     199.3984      0.00000
   9017     199.4206      0.00000
   9018     199.4372      0.00000
   9019     199.4466      0.00000
   9020     199.4747      0.00000
   9021     199.4833      0.00000
   9022     199.5001      0.00000
   9023     199.5052      0.00000
   9024     199.5158      0.00000
   9025     199.5380      0.00000
   9026     199.5530      0.00000
   9027     199.5575      0.00000
   9028     199.5809      0.00000
   9029     199.6012      0.00000
   9030     199.6084      0.00000
   9031     199.6133      0.00000
   9032     199.6437      0.00000
   9033     199.6687      0.00000
   9034     199.6831      0.00000
   9035     199.6903      0.00000
   9036     199.7160      0.00000
   9037     199.7227      0.00000
   9038     199.7257      0.00000
   9039     199.7547      0.00000
   9040     199.7721      0.00000
   9041     199.7798      0.00000
   9042     199.8146      0.00000
   9043     199.8237      0.00000
   9044     199.8390      0.00000
   9045     199.8491      0.00000
   9046     199.8609      0.00000
   9047     199.8781      0.00000
   9048     199.8893      0.00000
   9049     199.9076      0.00000
   9050     199.9306      0.00000
   9051     199.9388      0.00000
   9052     199.9483      0.00000
   9053     199.9594      0.00000
   9054     199.9698      0.00000
   9055     199.9946      0.00000
   9056     200.0142      0.00000
   9057     200.0187      0.00000
   9058     200.0272      0.00000
   9059     200.0505      0.00000
   9060     200.0564      0.00000
   9061     200.0641      0.00000
   9062     200.0729      0.00000
   9063     200.1101      0.00000
   9064     200.1115      0.00000
   9065     200.1406      0.00000
   9066     200.1455      0.00000
   9067     200.1544      0.00000
   9068     200.1930      0.00000
   9069     200.2120      0.00000
   9070     200.2182      0.00000
   9071     200.2238      0.00000
   9072     200.2307      0.00000
   9073     200.2479      0.00000
   9074     200.2636      0.00000
   9075     200.2791      0.00000
   9076     200.2898      0.00000
   9077     200.3114      0.00000
   9078     200.3242      0.00000
   9079     200.3382      0.00000
   9080     200.3741      0.00000
   9081     200.3915      0.00000
   9082     200.4108      0.00000
   9083     200.4170      0.00000
   9084     200.4301      0.00000
   9085     200.4367      0.00000
   9086     200.4493      0.00000
   9087     200.4634      0.00000
   9088     200.4827      0.00000
   9089     200.4935      0.00000
   9090     200.5103      0.00000
   9091     200.5222      0.00000
   9092     200.5331      0.00000
   9093     200.5568      0.00000
   9094     200.5723      0.00000
   9095     200.5963      0.00000
   9096     200.6187      0.00000
   9097     200.6230      0.00000
   9098     200.6311      0.00000
   9099     200.6520      0.00000
   9100     200.6614      0.00000
   9101     200.6806      0.00000
   9102     200.6973      0.00000
   9103     200.7067      0.00000
   9104     200.7239      0.00000
   9105     200.7445      0.00000
   9106     200.7677      0.00000
   9107     200.7952      0.00000
   9108     200.7988      0.00000
   9109     200.8201      0.00000
   9110     200.8339      0.00000
   9111     200.8482      0.00000
   9112     200.8705      0.00000
   9113     200.8840      0.00000
   9114     200.8938      0.00000
   9115     200.9044      0.00000
   9116     200.9282      0.00000
   9117     200.9391      0.00000
   9118     200.9473      0.00000
   9119     200.9607      0.00000
   9120     200.9715      0.00000
   9121     200.9938      0.00000
   9122     201.0021      0.00000
   9123     201.0260      0.00000
   9124     201.0283      0.00000
   9125     201.0456      0.00000
   9126     201.0562      0.00000
   9127     201.0610      0.00000
   9128     201.0973      0.00000
   9129     201.1192      0.00000
   9130     201.1227      0.00000
   9131     201.1609      0.00000
   9132     201.1665      0.00000
   9133     201.1859      0.00000
   9134     201.1948      0.00000
   9135     201.2003      0.00000
   9136     201.2267      0.00000
   9137     201.2353      0.00000
   9138     201.2432      0.00000
   9139     201.2621      0.00000
   9140     201.2834      0.00000
   9141     201.3087      0.00000
   9142     201.3265      0.00000
   9143     201.3382      0.00000
   9144     201.3529      0.00000
   9145     201.3867      0.00000
   9146     201.3903      0.00000
   9147     201.4042      0.00000
   9148     201.4241      0.00000
   9149     201.4297      0.00000
   9150     201.4480      0.00000
   9151     201.4685      0.00000
   9152     201.4862      0.00000
   9153     201.4984      0.00000
   9154     201.5108      0.00000
   9155     201.5195      0.00000
   9156     201.5477      0.00000
   9157     201.5595      0.00000
   9158     201.5838      0.00000
   9159     201.5910      0.00000
   9160     201.6120      0.00000
   9161     201.6173      0.00000
   9162     201.6432      0.00000
   9163     201.6711      0.00000
   9164     201.6748      0.00000
   9165     201.6888      0.00000
   9166     201.6967      0.00000
   9167     201.7238      0.00000
   9168     201.7298      0.00000
   9169     201.7451      0.00000
   9170     201.7648      0.00000
   9171     201.7753      0.00000
   9172     201.7861      0.00000
   9173     201.7931      0.00000
   9174     201.8006      0.00000
   9175     201.8178      0.00000
   9176     201.8237      0.00000
   9177     201.8451      0.00000
   9178     201.8498      0.00000
   9179     201.8646      0.00000
   9180     201.8788      0.00000
   9181     201.9058      0.00000
   9182     201.9237      0.00000
   9183     201.9261      0.00000
   9184     201.9336      0.00000
   9185     201.9599      0.00000
   9186     201.9730      0.00000
   9187     201.9947      0.00000
   9188     201.9970      0.00000
   9189     202.0158      0.00000
   9190     202.0236      0.00000
   9191     202.0325      0.00000
   9192     202.0549      0.00000
   9193     202.0632      0.00000
   9194     202.0702      0.00000
   9195     202.1009      0.00000
   9196     202.1143      0.00000
   9197     202.1212      0.00000
   9198     202.1400      0.00000
   9199     202.1502      0.00000
   9200     202.1745      0.00000
   9201     202.1868      0.00000
   9202     202.2147      0.00000
   9203     202.2186      0.00000
   9204     202.2412      0.00000
   9205     202.2648      0.00000
   9206     202.2906      0.00000
   9207     202.2965      0.00000
   9208     202.3416      0.00000
   9209     202.3473      0.00000
   9210     202.3603      0.00000
   9211     202.3745      0.00000
   9212     202.3843      0.00000
   9213     202.3973      0.00000
   9214     202.4016      0.00000
   9215     202.4280      0.00000
   9216     202.4479      0.00000
   9217     202.4603      0.00000
   9218     202.4702      0.00000
   9219     202.4762      0.00000
   9220     202.4980      0.00000
   9221     202.5230      0.00000
   9222     202.5442      0.00000
   9223     202.5499      0.00000
   9224     202.5553      0.00000
   9225     202.5740      0.00000
   9226     202.5826      0.00000
   9227     202.6069      0.00000
   9228     202.6254      0.00000
   9229     202.6303      0.00000
   9230     202.6454      0.00000
   9231     202.6558      0.00000
   9232     202.6638      0.00000
   9233     202.6988      0.00000
   9234     202.7038      0.00000
   9235     202.7128      0.00000
   9236     202.7221      0.00000
   9237     202.7350      0.00000
   9238     202.7411      0.00000
   9239     202.7700      0.00000
   9240     202.7714      0.00000
   9241     202.7995      0.00000
   9242     202.8128      0.00000
   9243     202.8507      0.00000
   9244     202.8634      0.00000
   9245     202.8753      0.00000
   9246     202.8859      0.00000
   9247     202.9036      0.00000
   9248     202.9199      0.00000
   9249     202.9305      0.00000
   9250     202.9450      0.00000
   9251     202.9523      0.00000
   9252     202.9704      0.00000
   9253     202.9912      0.00000
   9254     202.9946      0.00000
   9255     203.0031      0.00000
   9256     203.0230      0.00000
   9257     203.0380      0.00000
   9258     203.0776      0.00000
   9259     203.0813      0.00000
   9260     203.0888      0.00000
   9261     203.1056      0.00000
   9262     203.1215      0.00000
   9263     203.1295      0.00000
   9264     203.1318      0.00000
   9265     203.1639      0.00000
   9266     203.1825      0.00000
   9267     203.1871      0.00000
   9268     203.2096      0.00000
   9269     203.2199      0.00000
   9270     203.2241      0.00000
   9271     203.2565      0.00000
   9272     203.2654      0.00000
   9273     203.2854      0.00000
   9274     203.3064      0.00000
   9275     203.3174      0.00000
   9276     203.3302      0.00000
   9277     203.3473      0.00000
   9278     203.3680      0.00000
   9279     203.3852      0.00000
   9280     203.3943      0.00000
   9281     203.4281      0.00000
   9282     203.4308      0.00000
   9283     203.4546      0.00000
   9284     203.4668      0.00000
   9285     203.4800      0.00000
   9286     203.4830      0.00000
   9287     203.5037      0.00000
   9288     203.5124      0.00000
   9289     203.5161      0.00000
   9290     203.5552      0.00000
   9291     203.5614      0.00000
   9292     203.5778      0.00000
   9293     203.5808      0.00000
   9294     203.6103      0.00000
   9295     203.6250      0.00000
   9296     203.6530      0.00000
   9297     203.6648      0.00000
   9298     203.6678      0.00000
   9299     203.7037      0.00000
   9300     203.7184      0.00000
   9301     203.7234      0.00000
   9302     203.7331      0.00000
   9303     203.7463      0.00000
   9304     203.7850      0.00000
   9305     203.7900      0.00000
   9306     203.8137      0.00000
   9307     203.8292      0.00000
   9308     203.8463      0.00000
   9309     203.8557      0.00000
   9310     203.8741      0.00000
   9311     203.8887      0.00000
   9312     203.8949      0.00000
   9313     203.9101      0.00000
   9314     203.9198      0.00000
   9315     203.9462      0.00000
   9316     203.9605      0.00000
   9317     203.9702      0.00000
   9318     203.9832      0.00000
   9319     203.9920      0.00000
   9320     204.0097      0.00000
   9321     204.0412      0.00000
   9322     204.0644      0.00000
   9323     204.0730      0.00000
   9324     204.0971      0.00000
   9325     204.1037      0.00000
   9326     204.1220      0.00000
   9327     204.1406      0.00000
   9328     204.1530      0.00000
   9329     204.1696      0.00000
   9330     204.1863      0.00000
   9331     204.2143      0.00000
   9332     204.2178      0.00000
   9333     204.2350      0.00000
   9334     204.2380      0.00000
   9335     204.2666      0.00000
   9336     204.2768      0.00000
   9337     204.2878      0.00000
   9338     204.3037      0.00000
   9339     204.3055      0.00000
   9340     204.3295      0.00000
   9341     204.3402      0.00000
   9342     204.3545      0.00000
   9343     204.3573      0.00000
   9344     204.3836      0.00000
   9345     204.4065      0.00000
   9346     204.4163      0.00000
   9347     204.4381      0.00000
   9348     204.4662      0.00000
   9349     204.4882      0.00000
   9350     204.4975      0.00000
   9351     204.5107      0.00000
   9352     204.5294      0.00000
   9353     204.5377      0.00000
   9354     204.5623      0.00000
   9355     204.5968      0.00000
   9356     204.6082      0.00000
   9357     204.6223      0.00000
   9358     204.6276      0.00000
   9359     204.6569      0.00000
   9360     204.6803      0.00000
   9361     204.6964      0.00000
   9362     204.7057      0.00000
   9363     204.7286      0.00000
   9364     204.7400      0.00000
   9365     204.7446      0.00000
   9366     204.7907      0.00000
   9367     204.8083      0.00000
   9368     204.8250      0.00000
   9369     204.8268      0.00000
   9370     204.8420      0.00000
   9371     204.8654      0.00000
   9372     204.8746      0.00000
   9373     204.8879      0.00000
   9374     204.8930      0.00000
   9375     204.9149      0.00000
   9376     204.9173      0.00000
   9377     204.9431      0.00000
   9378     204.9484      0.00000
   9379     204.9713      0.00000
   9380     204.9797      0.00000
   9381     204.9932      0.00000
   9382     205.0170      0.00000
   9383     205.0375      0.00000
   9384     205.0470      0.00000
   9385     205.0677      0.00000
   9386     205.0847      0.00000
   9387     205.0904      0.00000
   9388     205.0991      0.00000
   9389     205.1087      0.00000
   9390     205.1363      0.00000
   9391     205.1482      0.00000
   9392     205.1742      0.00000
   9393     205.1986      0.00000
   9394     205.2065      0.00000
   9395     205.2325      0.00000
   9396     205.2518      0.00000
   9397     205.2607      0.00000
   9398     205.2907      0.00000
   9399     205.2998      0.00000
   9400     205.3100      0.00000
   9401     205.3324      0.00000
   9402     205.3560      0.00000
   9403     205.3692      0.00000
   9404     205.3862      0.00000
   9405     205.3909      0.00000
   9406     205.3940      0.00000
   9407     205.4250      0.00000
   9408     205.4347      0.00000
   9409     205.4489      0.00000
   9410     205.4541      0.00000
   9411     205.4744      0.00000
   9412     205.5035      0.00000
   9413     205.5071      0.00000
   9414     205.5165      0.00000
   9415     205.5203      0.00000
   9416     205.5392      0.00000
   9417     205.5585      0.00000
   9418     205.5791      0.00000
   9419     205.6025      0.00000
   9420     205.6130      0.00000
   9421     205.6225      0.00000
   9422     205.6274      0.00000
   9423     205.6450      0.00000
   9424     205.6790      0.00000
   9425     205.6937      0.00000
   9426     205.7083      0.00000
   9427     205.7161      0.00000
   9428     205.7394      0.00000
   9429     205.7702      0.00000
   9430     205.7812      0.00000
   9431     205.7890      0.00000
   9432     205.8004      0.00000
   9433     205.8206      0.00000
   9434     205.8396      0.00000
   9435     205.8416      0.00000
   9436     205.8557      0.00000
   9437     205.8812      0.00000
   9438     205.8839      0.00000
   9439     205.8919      0.00000
   9440     205.9011      0.00000
   9441     205.9072      0.00000
   9442     205.9305      0.00000
   9443     205.9537      0.00000
   9444     205.9683      0.00000
   9445     205.9725      0.00000
   9446     205.9959      0.00000
   9447     206.0041      0.00000
   9448     206.0387      0.00000
   9449     206.0742      0.00000
   9450     206.0776      0.00000
   9451     206.0943      0.00000
   9452     206.1116      0.00000
   9453     206.1239      0.00000
   9454     206.1439      0.00000
   9455     206.1664      0.00000
   9456     206.1764      0.00000
   9457     206.1853      0.00000
   9458     206.2000      0.00000
   9459     206.2225      0.00000
   9460     206.2298      0.00000
   9461     206.2515      0.00000
   9462     206.2667      0.00000
   9463     206.2818      0.00000
   9464     206.2863      0.00000
   9465     206.3042      0.00000
   9466     206.3172      0.00000
   9467     206.3503      0.00000
   9468     206.3548      0.00000
   9469     206.3650      0.00000
   9470     206.3934      0.00000
   9471     206.3970      0.00000
   9472     206.4124      0.00000
   9473     206.4393      0.00000
   9474     206.4425      0.00000
   9475     206.4677      0.00000
   9476     206.4746      0.00000
   9477     206.4771      0.00000
   9478     206.5023      0.00000
   9479     206.5126      0.00000
   9480     206.5328      0.00000
   9481     206.5623      0.00000
   9482     206.5686      0.00000
   9483     206.5730      0.00000
   9484     206.5981      0.00000
   9485     206.6017      0.00000
   9486     206.6203      0.00000
   9487     206.6321      0.00000
   9488     206.6493      0.00000
   9489     206.6598      0.00000
   9490     206.6683      0.00000
   9491     206.6937      0.00000
   9492     206.7117      0.00000
   9493     206.7163      0.00000
   9494     206.7336      0.00000
   9495     206.7413      0.00000
   9496     206.7603      0.00000
   9497     206.7802      0.00000
   9498     206.7870      0.00000
   9499     206.7960      0.00000
   9500     206.8134      0.00000
   9501     206.8167      0.00000
   9502     206.8274      0.00000
   9503     206.8434      0.00000
   9504     206.8625      0.00000
   9505     206.8775      0.00000
   9506     206.8902      0.00000
   9507     206.9046      0.00000
   9508     206.9227      0.00000
   9509     206.9318      0.00000
   9510     206.9622      0.00000
   9511     206.9752      0.00000
   9512     206.9810      0.00000
   9513     206.9943      0.00000
   9514     207.0122      0.00000
   9515     207.0261      0.00000
   9516     207.0305      0.00000
   9517     207.0547      0.00000
   9518     207.0749      0.00000
   9519     207.0783      0.00000
   9520     207.0868      0.00000
   9521     207.1071      0.00000
   9522     207.1152      0.00000
   9523     207.1357      0.00000
   9524     207.1491      0.00000
   9525     207.1569      0.00000
   9526     207.1780      0.00000
   9527     207.1873      0.00000
   9528     207.1940      0.00000
   9529     207.1985      0.00000
   9530     207.2288      0.00000
   9531     207.2472      0.00000
   9532     207.2630      0.00000
   9533     207.2855      0.00000
   9534     207.3041      0.00000
   9535     207.3187      0.00000
   9536     207.3240      0.00000
   9537     207.3329      0.00000
   9538     207.3405      0.00000
   9539     207.3505      0.00000
   9540     207.3598      0.00000
   9541     207.3905      0.00000
   9542     207.3975      0.00000
   9543     207.4146      0.00000
   9544     207.4273      0.00000
   9545     207.4396      0.00000
   9546     207.4474      0.00000
   9547     207.4709      0.00000
   9548     207.4771      0.00000
   9549     207.5071      0.00000
   9550     207.5131      0.00000
   9551     207.5252      0.00000
   9552     207.5330      0.00000
   9553     207.5411      0.00000
   9554     207.5606      0.00000
   9555     207.5643      0.00000
   9556     207.6022      0.00000
   9557     207.6155      0.00000
   9558     207.6180      0.00000
   9559     207.6251      0.00000
   9560     207.6445      0.00000
   9561     207.6574      0.00000
   9562     207.6668      0.00000
   9563     207.6754      0.00000
   9564     207.7075      0.00000
   9565     207.7100      0.00000
   9566     207.7223      0.00000
   9567     207.7401      0.00000
   9568     207.7559      0.00000
   9569     207.7610      0.00000
   9570     207.7781      0.00000
   9571     207.7889      0.00000
   9572     207.8043      0.00000
   9573     207.8215      0.00000
   9574     207.8274      0.00000
   9575     207.8395      0.00000
   9576     207.8540      0.00000
   9577     207.8792      0.00000
   9578     207.8828      0.00000
   9579     207.8953      0.00000
   9580     207.9001      0.00000
   9581     207.9192      0.00000
   9582     207.9335      0.00000
   9583     207.9524      0.00000
   9584     207.9591      0.00000
   9585     207.9648      0.00000
   9586     207.9757      0.00000
   9587     207.9842      0.00000
   9588     207.9918      0.00000
   9589     208.0168      0.00000
   9590     208.0316      0.00000
   9591     208.0513      0.00000
   9592     208.0581      0.00000
   9593     208.0773      0.00000
   9594     208.0940      0.00000
   9595     208.1029      0.00000
   9596     208.1239      0.00000
   9597     208.1263      0.00000
   9598     208.1503      0.00000
   9599     208.1617      0.00000
   9600     208.1830      0.00000
   9601     208.1885      0.00000
   9602     208.1961      0.00000
   9603     208.2096      0.00000
   9604     208.2177      0.00000
   9605     208.2231      0.00000
   9606     208.2479      0.00000
   9607     208.2555      0.00000
   9608     208.2759      0.00000
   9609     208.2823      0.00000
   9610     208.2883      0.00000
   9611     208.2999      0.00000
   9612     208.3080      0.00000
   9613     208.3205      0.00000
   9614     208.3348      0.00000
   9615     208.3602      0.00000
   9616     208.3684      0.00000
   9617     208.3751      0.00000
   9618     208.3807      0.00000
   9619     208.4016      0.00000
   9620     208.4141      0.00000
   9621     208.4298      0.00000
   9622     208.4309      0.00000
   9623     208.4531      0.00000
   9624     208.4584      0.00000
   9625     208.4828      0.00000
   9626     208.4923      0.00000
   9627     208.4961      0.00000
   9628     208.5025      0.00000
   9629     208.5104      0.00000
   9630     208.5357      0.00000
   9631     208.5412      0.00000
   9632     208.5511      0.00000
   9633     208.5735      0.00000
   9634     208.5854      0.00000
   9635     208.6117      0.00000
   9636     208.6153      0.00000
   9637     208.6170      0.00000
   9638     208.6375      0.00000
   9639     208.6472      0.00000
   9640     208.6658      0.00000
   9641     208.6682      0.00000
   9642     208.6812      0.00000
   9643     208.6967      0.00000
   9644     208.7106      0.00000
   9645     208.7160      0.00000
   9646     208.7286      0.00000
   9647     208.7486      0.00000
   9648     208.7589      0.00000
   9649     208.7715      0.00000
   9650     208.7897      0.00000
   9651     208.8114      0.00000
   9652     208.8229      0.00000
   9653     208.8313      0.00000
   9654     208.8514      0.00000
   9655     208.8553      0.00000
   9656     208.8618      0.00000
   9657     208.8699      0.00000
   9658     208.8827      0.00000
   9659     208.9080      0.00000
   9660     208.9157      0.00000
   9661     208.9227      0.00000
   9662     208.9353      0.00000
   9663     208.9503      0.00000
   9664     208.9646      0.00000
   9665     208.9880      0.00000
   9666     208.9983      0.00000
   9667     209.0191      0.00000
   9668     209.0198      0.00000
   9669     209.0352      0.00000
   9670     209.0430      0.00000
   9671     209.0488      0.00000
   9672     209.0534      0.00000
   9673     209.0680      0.00000
   9674     209.0905      0.00000
   9675     209.0973      0.00000
   9676     209.1078      0.00000
   9677     209.1366      0.00000
   9678     209.1458      0.00000
   9679     209.1521      0.00000
   9680     209.1666      0.00000
   9681     209.1813      0.00000
   9682     209.1985      0.00000
   9683     209.2080      0.00000
   9684     209.2270      0.00000
   9685     209.2383      0.00000
   9686     209.2441      0.00000
   9687     209.2524      0.00000
   9688     209.2856      0.00000
   9689     209.2961      0.00000
   9690     209.3028      0.00000
   9691     209.3218      0.00000
   9692     209.3279      0.00000
   9693     209.3534      0.00000
   9694     209.3564      0.00000
   9695     209.3591      0.00000
   9696     209.3725      0.00000
   9697     209.3932      0.00000
   9698     209.3953      0.00000
   9699     209.4185      0.00000
   9700     209.4265      0.00000
   9701     209.4315      0.00000
   9702     209.4450      0.00000
   9703     209.4616      0.00000
   9704     209.4635      0.00000
   9705     209.4896      0.00000
   9706     209.4979      0.00000
   9707     209.5207      0.00000
   9708     209.5393      0.00000
   9709     209.5589      0.00000
   9710     209.5638      0.00000
   9711     209.5796      0.00000
   9712     209.5817      0.00000
   9713     209.5873      0.00000
   9714     209.6097      0.00000
   9715     209.6232      0.00000
   9716     209.6436      0.00000
   9717     209.6725      0.00000
   9718     209.6730      0.00000
   9719     209.6932      0.00000
   9720     209.7144      0.00000
   9721     209.7206      0.00000
   9722     209.7288      0.00000
   9723     209.7397      0.00000
   9724     209.7629      0.00000
   9725     209.7681      0.00000
   9726     209.7917      0.00000
   9727     209.7958      0.00000
   9728     209.8003      0.00000
   9729     209.8118      0.00000
   9730     209.8239      0.00000
   9731     209.8482      0.00000
   9732     209.8556      0.00000
   9733     209.8753      0.00000
   9734     209.8873      0.00000
   9735     209.8988      0.00000
   9736     209.9310      0.00000
   9737     209.9386      0.00000
   9738     209.9472      0.00000
   9739     209.9580      0.00000
   9740     209.9688      0.00000
   9741     209.9859      0.00000
   9742     209.9971      0.00000
   9743     210.0090      0.00000
   9744     210.0146      0.00000
   9745     210.0536      0.00000
   9746     210.0597      0.00000
   9747     210.0681      0.00000
   9748     210.0829      0.00000
   9749     210.0886      0.00000
   9750     210.1164      0.00000
   9751     210.1265      0.00000
   9752     210.1366      0.00000
   9753     210.1528      0.00000
   9754     210.1616      0.00000
   9755     210.1801      0.00000
   9756     210.1813      0.00000
   9757     210.1922      0.00000
   9758     210.2157      0.00000
   9759     210.2299      0.00000
   9760     210.2570      0.00000
   9761     210.2638      0.00000
   9762     210.2776      0.00000
   9763     210.2804      0.00000
   9764     210.3152      0.00000
   9765     210.3320      0.00000
   9766     210.3453      0.00000
   9767     210.3531      0.00000
   9768     210.3646      0.00000
   9769     210.3702      0.00000
   9770     210.4076      0.00000
   9771     210.4246      0.00000
   9772     210.4304      0.00000
   9773     210.4455      0.00000
   9774     210.4468      0.00000
   9775     210.4560      0.00000
   9776     210.4752      0.00000
   9777     210.4966      0.00000
   9778     210.5007      0.00000
   9779     210.5119      0.00000
   9780     210.5431      0.00000
   9781     210.5557      0.00000
   9782     210.5771      0.00000
   9783     210.5839      0.00000
   9784     210.5860      0.00000
   9785     210.5995      0.00000
   9786     210.6203      0.00000
   9787     210.6300      0.00000
   9788     210.6458      0.00000
   9789     210.6629      0.00000
   9790     210.6730      0.00000
   9791     210.6884      0.00000
   9792     210.6925      0.00000
   9793     210.7102      0.00000
   9794     210.7250      0.00000
   9795     210.7298      0.00000
   9796     210.7361      0.00000
   9797     210.7594      0.00000
   9798     210.7658      0.00000
   9799     210.7841      0.00000
   9800     210.8175      0.00000
   9801     210.8282      0.00000
   9802     210.8399      0.00000
   9803     210.8526      0.00000
   9804     210.8668      0.00000
   9805     210.8861      0.00000
   9806     210.8930      0.00000
   9807     210.8971      0.00000
   9808     210.9111      0.00000
   9809     210.9199      0.00000
   9810     210.9702      0.00000
   9811     210.9716      0.00000
   9812     210.9971      0.00000
   9813     211.0100      0.00000
   9814     211.0112      0.00000
   9815     211.0346      0.00000
   9816     211.0369      0.00000
   9817     211.0620      0.00000
   9818     211.0687      0.00000
   9819     211.0798      0.00000
   9820     211.0918      0.00000
   9821     211.1072      0.00000
   9822     211.1166      0.00000
   9823     211.1391      0.00000
   9824     211.1454      0.00000
   9825     211.1649      0.00000
   9826     211.1814      0.00000
   9827     211.2048      0.00000
   9828     211.2083      0.00000
   9829     211.2191      0.00000
   9830     211.2260      0.00000
   9831     211.2306      0.00000
   9832     211.2593      0.00000
   9833     211.2806      0.00000
   9834     211.2932      0.00000
   9835     211.2951      0.00000
   9836     211.3005      0.00000
   9837     211.3217      0.00000
   9838     211.3288      0.00000
   9839     211.3416      0.00000
   9840     211.3501      0.00000
   9841     211.3582      0.00000
   9842     211.3784      0.00000
   9843     211.3886      0.00000
   9844     211.4177      0.00000
   9845     211.4282      0.00000
   9846     211.4468      0.00000
   9847     211.4520      0.00000
   9848     211.4662      0.00000
   9849     211.4671      0.00000
   9850     211.4972      0.00000
   9851     211.5089      0.00000
   9852     211.5210      0.00000
   9853     211.5400      0.00000
   9854     211.5520      0.00000
   9855     211.5655      0.00000
   9856     211.5860      0.00000
   9857     211.5996      0.00000
   9858     211.6122      0.00000
   9859     211.6277      0.00000
   9860     211.6522      0.00000
   9861     211.6709      0.00000
   9862     211.6816      0.00000
   9863     211.6848      0.00000
   9864     211.7037      0.00000
   9865     211.7061      0.00000
   9866     211.7166      0.00000
   9867     211.7364      0.00000
   9868     211.7463      0.00000
   9869     211.7500      0.00000
   9870     211.7695      0.00000
   9871     211.7838      0.00000
   9872     211.7908      0.00000
   9873     211.8165      0.00000
   9874     211.8279      0.00000
   9875     211.8363      0.00000
   9876     211.8423      0.00000
   9877     211.8764      0.00000
   9878     211.8870      0.00000
   9879     211.8980      0.00000
   9880     211.9126      0.00000
   9881     211.9265      0.00000
   9882     211.9301      0.00000
   9883     211.9520      0.00000
   9884     211.9715      0.00000
   9885     211.9856      0.00000
   9886     211.9949      0.00000
   9887     212.0097      0.00000
   9888     212.0353      0.00000
   9889     212.0493      0.00000
   9890     212.0513      0.00000
   9891     212.0660      0.00000
   9892     212.0838      0.00000
   9893     212.0889      0.00000
   9894     212.1065      0.00000
   9895     212.1166      0.00000
   9896     212.1324      0.00000
   9897     212.1378      0.00000
   9898     212.1481      0.00000
   9899     212.1570      0.00000
   9900     212.1749      0.00000
   9901     212.1924      0.00000
   9902     212.2060      0.00000
   9903     212.2250      0.00000
   9904     212.2446      0.00000
   9905     212.2590      0.00000
   9906     212.2710      0.00000
   9907     212.2835      0.00000
   9908     212.2876      0.00000
   9909     212.3115      0.00000
   9910     212.3308      0.00000
   9911     212.3430      0.00000
   9912     212.3543      0.00000
   9913     212.3604      0.00000
   9914     212.3829      0.00000
   9915     212.3995      0.00000
   9916     212.4095      0.00000
   9917     212.4345      0.00000
   9918     212.4439      0.00000
   9919     212.4549      0.00000
   9920     212.4742      0.00000
   9921     212.4914      0.00000
   9922     212.5023      0.00000
   9923     212.5098      0.00000
   9924     212.5349      0.00000
   9925     212.5381      0.00000
   9926     212.5545      0.00000
   9927     212.5618      0.00000
   9928     212.5802      0.00000
   9929     212.5858      0.00000
   9930     212.6102      0.00000
   9931     212.6199      0.00000
   9932     212.6306      0.00000
   9933     212.6448      0.00000
   9934     212.6736      0.00000
   9935     212.6816      0.00000
   9936     212.6871      0.00000
   9937     212.7018      0.00000
   9938     212.7129      0.00000
   9939     212.7222      0.00000
   9940     212.7392      0.00000
   9941     212.7500      0.00000
   9942     212.7614      0.00000
   9943     212.7756      0.00000
   9944     212.7948      0.00000
   9945     212.8144      0.00000
   9946     212.8208      0.00000
   9947     212.8382      0.00000
   9948     212.8519      0.00000
   9949     212.8716      0.00000
   9950     212.8830      0.00000
   9951     212.8985      0.00000
   9952     212.9027      0.00000
   9953     212.9136      0.00000
   9954     212.9179      0.00000
   9955     212.9445      0.00000
   9956     212.9519      0.00000
   9957     212.9650      0.00000
   9958     212.9951      0.00000
   9959     213.0088      0.00000
   9960     213.0115      0.00000
   9961     213.0277      0.00000
   9962     213.0403      0.00000
   9963     213.0507      0.00000
   9964     213.0591      0.00000
   9965     213.0618      0.00000
   9966     213.0979      0.00000
   9967     213.1043      0.00000
   9968     213.1138      0.00000
   9969     213.1260      0.00000
   9970     213.1402      0.00000
   9971     213.1460      0.00000
   9972     213.1737      0.00000
   9973     213.1830      0.00000
   9974     213.2000      0.00000
   9975     213.2091      0.00000
   9976     213.2254      0.00000
   9977     213.2493      0.00000
   9978     213.2536      0.00000
   9979     213.2658      0.00000
   9980     213.2892      0.00000
   9981     213.2975      0.00000
   9982     213.3030      0.00000
   9983     213.3188      0.00000
   9984     213.3304      0.00000
   9985     213.3550      0.00000
   9986     213.3625      0.00000
   9987     213.3716      0.00000
   9988     213.3980      0.00000
   9989     213.4020      0.00000
   9990     213.4142      0.00000
   9991     213.4323      0.00000
   9992     213.4468      0.00000
   9993     213.4522      0.00000
   9994     213.4796      0.00000
   9995     213.4844      0.00000
   9996     213.4982      0.00000
   9997     213.5182      0.00000
   9998     213.5450      0.00000
   9999     213.5654      0.00000
  10000     213.5681      0.00000
  10001     213.5827      0.00000
  10002     213.5960      0.00000
  10003     213.6088      0.00000
  10004     213.6132      0.00000
  10005     213.6381      0.00000
  10006     213.6616      0.00000
  10007     213.6714      0.00000
  10008     213.6820      0.00000
  10009     213.6962      0.00000
  10010     213.7114      0.00000
  10011     213.7224      0.00000
  10012     213.7367      0.00000
  10013     213.7568      0.00000
  10014     213.7634      0.00000
  10015     213.7867      0.00000
  10016     213.7999      0.00000
  10017     213.8142      0.00000
  10018     213.8230      0.00000
  10019     213.8381      0.00000
  10020     213.8542      0.00000
  10021     213.8654      0.00000
  10022     213.8679      0.00000
  10023     213.8711      0.00000
  10024     213.8993      0.00000
  10025     213.9077      0.00000
  10026     213.9254      0.00000
  10027     213.9335      0.00000
  10028     213.9351      0.00000
  10029     213.9634      0.00000
  10030     213.9859      0.00000
  10031     213.9985      0.00000
  10032     214.0135      0.00000
  10033     214.0192      0.00000
  10034     214.0537      0.00000
  10035     214.0634      0.00000
  10036     214.0783      0.00000
  10037     214.0894      0.00000
  10038     214.0998      0.00000
  10039     214.1107      0.00000
  10040     214.1223      0.00000
  10041     214.1364      0.00000
  10042     214.1540      0.00000
  10043     214.1699      0.00000
  10044     214.1798      0.00000
  10045     214.1938      0.00000
  10046     214.2062      0.00000
  10047     214.2137      0.00000
  10048     214.2345      0.00000
  10049     214.2448      0.00000
  10050     214.2726      0.00000
  10051     214.2760      0.00000
  10052     214.2902      0.00000
  10053     214.3012      0.00000
  10054     214.3126      0.00000
  10055     214.3272      0.00000
  10056     214.3498      0.00000
  10057     214.3516      0.00000
  10058     214.3854      0.00000
  10059     214.3915      0.00000
  10060     214.4042      0.00000
  10061     214.4181      0.00000
  10062     214.4355      0.00000
  10063     214.4427      0.00000
  10064     214.4478      0.00000
  10065     214.4667      0.00000
  10066     214.4745      0.00000
  10067     214.4940      0.00000
  10068     214.5245      0.00000
  10069     214.5268      0.00000
  10070     214.5448      0.00000
  10071     214.5450      0.00000
  10072     214.5703      0.00000
  10073     214.6035      0.00000
  10074     214.6061      0.00000
  10075     214.6203      0.00000
  10076     214.6348      0.00000
  10077     214.6428      0.00000
  10078     214.6514      0.00000
  10079     214.6640      0.00000
  10080     214.6727      0.00000
  10081     214.6802      0.00000
  10082     214.7114      0.00000
  10083     214.7196      0.00000
  10084     214.7275      0.00000
  10085     214.7383      0.00000
  10086     214.7669      0.00000
  10087     214.7835      0.00000
  10088     214.7974      0.00000
  10089     214.8079      0.00000
  10090     214.8158      0.00000
  10091     214.8323      0.00000
  10092     214.8412      0.00000
  10093     214.8551      0.00000
  10094     214.8576      0.00000
  10095     214.8774      0.00000
  10096     214.8827      0.00000
  10097     214.8961      0.00000
  10098     214.9045      0.00000
  10099     214.9306      0.00000
  10100     214.9420      0.00000
  10101     214.9541      0.00000
  10102     214.9586      0.00000
  10103     214.9634      0.00000
  10104     214.9735      0.00000
  10105     214.9819      0.00000
  10106     215.0136      0.00000
  10107     215.0207      0.00000
  10108     215.0317      0.00000
  10109     215.0563      0.00000
  10110     215.0725      0.00000
  10111     215.0783      0.00000
  10112     215.0893      0.00000
  10113     215.1005      0.00000
  10114     215.1237      0.00000
  10115     215.1331      0.00000
  10116     215.1484      0.00000
  10117     215.1705      0.00000
  10118     215.1903      0.00000
  10119     215.2037      0.00000
  10120     215.2112      0.00000
  10121     215.2222      0.00000
  10122     215.2352      0.00000
  10123     215.2409      0.00000
  10124     215.2696      0.00000
  10125     215.2755      0.00000
  10126     215.2870      0.00000
  10127     215.3062      0.00000
  10128     215.3248      0.00000
  10129     215.3292      0.00000
  10130     215.3352      0.00000
  10131     215.3448      0.00000
  10132     215.3521      0.00000
  10133     215.3700      0.00000
  10134     215.4043      0.00000
  10135     215.4195      0.00000
  10136     215.4316      0.00000
  10137     215.4403      0.00000
  10138     215.4452      0.00000
  10139     215.4619      0.00000
  10140     215.4836      0.00000
  10141     215.5033      0.00000
  10142     215.5308      0.00000
  10143     215.5371      0.00000
  10144     215.5536      0.00000
  10145     215.5575      0.00000
  10146     215.5694      0.00000
  10147     215.5849      0.00000
  10148     215.5886      0.00000
  10149     215.6003      0.00000
  10150     215.6299      0.00000
  10151     215.6319      0.00000
  10152     215.6644      0.00000
  10153     215.6727      0.00000
  10154     215.6835      0.00000
  10155     215.6928      0.00000
  10156     215.7004      0.00000
  10157     215.7064      0.00000
  10158     215.7216      0.00000
  10159     215.7368      0.00000
  10160     215.7423      0.00000
  10161     215.7633      0.00000
  10162     215.7847      0.00000
  10163     215.7924      0.00000
  10164     215.8168      0.00000
  10165     215.8219      0.00000
  10166     215.8366      0.00000
  10167     215.8406      0.00000
  10168     215.8632      0.00000
  10169     215.8647      0.00000
  10170     215.8802      0.00000
  10171     215.9011      0.00000
  10172     215.9317      0.00000
  10173     215.9393      0.00000
  10174     215.9578      0.00000
  10175     215.9772      0.00000
  10176     215.9908      0.00000
  10177     215.9987      0.00000
  10178     216.0144      0.00000
  10179     216.0290      0.00000
  10180     216.0390      0.00000
  10181     216.0407      0.00000
  10182     216.0528      0.00000
  10183     216.0836      0.00000
  10184     216.0862      0.00000
  10185     216.1007      0.00000
  10186     216.1202      0.00000
  10187     216.1433      0.00000
  10188     216.1469      0.00000
  10189     216.1598      0.00000
  10190     216.1772      0.00000
  10191     216.1874      0.00000
  10192     216.2125      0.00000
  10193     216.2191      0.00000
  10194     216.2291      0.00000
  10195     216.2457      0.00000
  10196     216.2711      0.00000
  10197     216.2828      0.00000
  10198     216.2897      0.00000
  10199     216.3114      0.00000
  10200     216.3172      0.00000
  10201     216.3480      0.00000
  10202     216.3643      0.00000
  10203     216.3726      0.00000
  10204     216.3804      0.00000
  10205     216.3953      0.00000
  10206     216.4206      0.00000
  10207     216.4402      0.00000
  10208     216.4477      0.00000
  10209     216.4548      0.00000
  10210     216.4636      0.00000
  10211     216.4853      0.00000
  10212     216.4930      0.00000
  10213     216.5128      0.00000
  10214     216.5210      0.00000
  10215     216.5298      0.00000
  10216     216.5480      0.00000
  10217     216.5681      0.00000
  10218     216.5783      0.00000
  10219     216.5921      0.00000
  10220     216.6139      0.00000
  10221     216.6250      0.00000
  10222     216.6369      0.00000
  10223     216.6609      0.00000
  10224     216.6700      0.00000
  10225     216.6824      0.00000
  10226     216.7100      0.00000
  10227     216.7155      0.00000
  10228     216.7305      0.00000
  10229     216.7389      0.00000
  10230     216.7538      0.00000
  10231     216.7801      0.00000
  10232     216.7887      0.00000
  10233     216.8098      0.00000
  10234     216.8227      0.00000
  10235     216.8408      0.00000
  10236     216.8601      0.00000
  10237     216.8654      0.00000
  10238     216.8874      0.00000
  10239     216.8948      0.00000
  10240     216.9131      0.00000
  10241     216.9177      0.00000
  10242     216.9291      0.00000
  10243     216.9480      0.00000
  10244     216.9592      0.00000
  10245     216.9835      0.00000
  10246     217.0052      0.00000
  10247     217.0255      0.00000
  10248     217.0464      0.00000
  10249     217.0497      0.00000
  10250     217.0571      0.00000
  10251     217.0763      0.00000
  10252     217.0810      0.00000
  10253     217.0965      0.00000
  10254     217.1068      0.00000
  10255     217.1305      0.00000
  10256     217.1375      0.00000
  10257     217.1539      0.00000
  10258     217.1713      0.00000
  10259     217.1818      0.00000
  10260     217.2016      0.00000
  10261     217.2209      0.00000
  10262     217.2252      0.00000
  10263     217.2439      0.00000
  10264     217.2536      0.00000
  10265     217.2641      0.00000
  10266     217.2852      0.00000
  10267     217.2930      0.00000
  10268     217.2987      0.00000
  10269     217.3126      0.00000
  10270     217.3347      0.00000
  10271     217.3420      0.00000
  10272     217.3615      0.00000
  10273     217.3850      0.00000
  10274     217.3932      0.00000
  10275     217.4043      0.00000
  10276     217.4196      0.00000
  10277     217.4255      0.00000
  10278     217.4385      0.00000
  10279     217.4532      0.00000
  10280     217.4675      0.00000
  10281     217.4886      0.00000
  10282     217.4999      0.00000
  10283     217.5277      0.00000
  10284     217.5383      0.00000
  10285     217.5487      0.00000
  10286     217.5587      0.00000
  10287     217.5655      0.00000
  10288     217.5917      0.00000
  10289     217.6054      0.00000
  10290     217.6118      0.00000
  10291     217.6238      0.00000
  10292     217.6417      0.00000
  10293     217.6539      0.00000
  10294     217.6787      0.00000
  10295     217.6856      0.00000
  10296     217.6937      0.00000
  10297     217.7001      0.00000
  10298     217.7160      0.00000
  10299     217.7304      0.00000
  10300     217.7523      0.00000
  10301     217.7843      0.00000
  10302     217.7916      0.00000
  10303     217.8154      0.00000
  10304     217.8216      0.00000
  10305     217.8298      0.00000
  10306     217.8417      0.00000
  10307     217.8746      0.00000
  10308     217.8751      0.00000
  10309     217.8938      0.00000
  10310     217.9101      0.00000
  10311     217.9185      0.00000
  10312     217.9364      0.00000
  10313     217.9413      0.00000
  10314     217.9570      0.00000
  10315     217.9731      0.00000
  10316     217.9922      0.00000
  10317     218.0098      0.00000
  10318     218.0127      0.00000
  10319     218.0267      0.00000
  10320     218.0482      0.00000
  10321     218.0678      0.00000
  10322     218.0899      0.00000
  10323     218.1007      0.00000
  10324     218.1216      0.00000
  10325     218.1315      0.00000
  10326     218.1428      0.00000
  10327     218.1694      0.00000
  10328     218.1792      0.00000
  10329     218.1965      0.00000
  10330     218.2143      0.00000
  10331     218.2234      0.00000
  10332     218.2376      0.00000
  10333     218.2495      0.00000
  10334     218.2631      0.00000
  10335     218.2850      0.00000
  10336     218.3144      0.00000
  10337     218.3172      0.00000
  10338     218.3323      0.00000
  10339     218.3408      0.00000
  10340     218.3618      0.00000
  10341     218.3698      0.00000
  10342     218.3881      0.00000
  10343     218.4042      0.00000
  10344     218.4270      0.00000
  10345     218.4395      0.00000
  10346     218.4459      0.00000
  10347     218.4678      0.00000
  10348     218.4780      0.00000
  10349     218.4913      0.00000
  10350     218.5103      0.00000
  10351     218.5334      0.00000
  10352     218.5443      0.00000
  10353     218.5646      0.00000
  10354     218.5800      0.00000
  10355     218.5936      0.00000
  10356     218.6029      0.00000
  10357     218.6253      0.00000
  10358     218.6359      0.00000
  10359     218.6446      0.00000
  10360     218.6760      0.00000
  10361     218.6794      0.00000
  10362     218.6977      0.00000
  10363     218.7035      0.00000
  10364     218.7351      0.00000
  10365     218.7553      0.00000
  10366     218.7700      0.00000
  10367     218.7735      0.00000
  10368     218.8007      0.00000
  10369     218.8131      0.00000
  10370     218.8289      0.00000
  10371     218.8465      0.00000
  10372     218.8543      0.00000
  10373     218.8724      0.00000
  10374     218.8875      0.00000
  10375     218.8883      0.00000
  10376     218.8971      0.00000
  10377     218.9214      0.00000
  10378     218.9382      0.00000
  10379     218.9486      0.00000
  10380     218.9674      0.00000
  10381     218.9754      0.00000
  10382     218.9872      0.00000
  10383     218.9939      0.00000
  10384     219.0134      0.00000
  10385     219.0206      0.00000
  10386     219.0541      0.00000
  10387     219.0851      0.00000
  10388     219.0922      0.00000
  10389     219.1006      0.00000
  10390     219.1168      0.00000
  10391     219.1407      0.00000
  10392     219.1496      0.00000
  10393     219.1609      0.00000
  10394     219.1741      0.00000
  10395     219.1881      0.00000
  10396     219.2044      0.00000
  10397     219.2416      0.00000
  10398     219.2525      0.00000
  10399     219.2637      0.00000
  10400     219.2775      0.00000
  10401     219.2860      0.00000
  10402     219.3081      0.00000
  10403     219.3185      0.00000
  10404     219.3261      0.00000
  10405     219.3630      0.00000
  10406     219.3739      0.00000
  10407     219.3819      0.00000
  10408     219.4102      0.00000
  10409     219.4204      0.00000
  10410     219.4268      0.00000
  10411     219.4444      0.00000
  10412     219.4472      0.00000
  10413     219.4691      0.00000
  10414     219.4802      0.00000
  10415     219.4903      0.00000
  10416     219.4984      0.00000
  10417     219.5099      0.00000
  10418     219.5261      0.00000
  10419     219.5567      0.00000
  10420     219.5655      0.00000
  10421     219.5826      0.00000
  10422     219.5871      0.00000
  10423     219.6030      0.00000
  10424     219.6194      0.00000
  10425     219.6432      0.00000
  10426     219.6488      0.00000
  10427     219.6721      0.00000
  10428     219.6755      0.00000
  10429     219.6828      0.00000
  10430     219.6955      0.00000
  10431     219.7089      0.00000
  10432     219.7400      0.00000
  10433     219.7503      0.00000
  10434     219.7612      0.00000
  10435     219.7711      0.00000
  10436     219.7829      0.00000
  10437     219.8181      0.00000
  10438     219.8237      0.00000
  10439     219.8437      0.00000
  10440     219.8593      0.00000
  10441     219.8806      0.00000
  10442     219.8958      0.00000
  10443     219.8976      0.00000
  10444     219.9117      0.00000
  10445     219.9248      0.00000
  10446     219.9362      0.00000
  10447     219.9497      0.00000
  10448     219.9805      0.00000
  10449     219.9817      0.00000
  10450     219.9990      0.00000
  10451     220.0108      0.00000
  10452     220.0145      0.00000
  10453     220.0213      0.00000
  10454     220.0404      0.00000
  10455     220.0591      0.00000
  10456     220.0767      0.00000
  10457     220.0820      0.00000
  10458     220.0934      0.00000
  10459     220.1199      0.00000
  10460     220.1394      0.00000
  10461     220.1518      0.00000
  10462     220.1545      0.00000
  10463     220.1835      0.00000
  10464     220.2016      0.00000
  10465     220.2140      0.00000
  10466     220.2294      0.00000
  10467     220.2371      0.00000
  10468     220.2503      0.00000
  10469     220.2700      0.00000
  10470     220.2800      0.00000
  10471     220.2964      0.00000
  10472     220.3161      0.00000
  10473     220.3229      0.00000
  10474     220.3363      0.00000
  10475     220.3382      0.00000
  10476     220.3480      0.00000
  10477     220.3769      0.00000
  10478     220.3932      0.00000
  10479     220.4204      0.00000
  10480     220.4230      0.00000
  10481     220.4321      0.00000
  10482     220.4411      0.00000
  10483     220.4492      0.00000
  10484     220.4802      0.00000
  10485     220.5062      0.00000
  10486     220.5111      0.00000
  10487     220.5301      0.00000
  10488     220.5359      0.00000
  10489     220.5455      0.00000
  10490     220.5599      0.00000
  10491     220.5757      0.00000
  10492     220.6001      0.00000
  10493     220.6156      0.00000
  10494     220.6187      0.00000
  10495     220.6378      0.00000
  10496     220.6464      0.00000
  10497     220.6529      0.00000
  10498     220.6709      0.00000
  10499     220.6987      0.00000
  10500     220.7222      0.00000
  10501     220.7411      0.00000
  10502     220.7461      0.00000
  10503     220.7593      0.00000
  10504     220.7732      0.00000
  10505     220.7984      0.00000
  10506     220.8082      0.00000
  10507     220.8268      0.00000
  10508     220.8382      0.00000
  10509     220.8432      0.00000
  10510     220.8639      0.00000
  10511     220.8861      0.00000
  10512     220.9107      0.00000
  10513     220.9166      0.00000
  10514     220.9214      0.00000
  10515     220.9383      0.00000
  10516     220.9512      0.00000
  10517     220.9741      0.00000
  10518     220.9849      0.00000
  10519     220.9942      0.00000
  10520     221.0025      0.00000
  10521     221.0134      0.00000
  10522     221.0276      0.00000
  10523     221.0354      0.00000
  10524     221.0521      0.00000
  10525     221.0597      0.00000
  10526     221.0709      0.00000
  10527     221.1026      0.00000
  10528     221.1263      0.00000
  10529     221.1407      0.00000
  10530     221.1471      0.00000
  10531     221.1665      0.00000
  10532     221.1764      0.00000
  10533     221.1915      0.00000
  10534     221.2176      0.00000
  10535     221.2323      0.00000
  10536     221.2404      0.00000
  10537     221.2493      0.00000
  10538     221.2678      0.00000
  10539     221.2862      0.00000
  10540     221.3031      0.00000
  10541     221.3167      0.00000
  10542     221.3261      0.00000
  10543     221.3316      0.00000
  10544     221.3428      0.00000
  10545     221.3720      0.00000
  10546     221.3802      0.00000
  10547     221.3858      0.00000
  10548     221.3998      0.00000
  10549     221.4176      0.00000
  10550     221.4280      0.00000
  10551     221.4329      0.00000
  10552     221.4590      0.00000
  10553     221.4680      0.00000
  10554     221.4741      0.00000
  10555     221.4895      0.00000
  10556     221.5175      0.00000
  10557     221.5254      0.00000
  10558     221.5352      0.00000
  10559     221.5436      0.00000
  10560     221.5561      0.00000
  10561     221.5640      0.00000
  10562     221.5898      0.00000
  10563     221.6009      0.00000
  10564     221.6156      0.00000
  10565     221.6311      0.00000
  10566     221.6439      0.00000
  10567     221.6488      0.00000
  10568     221.6727      0.00000
  10569     221.6852      0.00000
  10570     221.6925      0.00000
  10571     221.6999      0.00000
  10572     221.7173      0.00000
  10573     221.7245      0.00000
  10574     221.7433      0.00000
  10575     221.7696      0.00000
  10576     221.7750      0.00000
  10577     221.7907      0.00000
  10578     221.8088      0.00000
  10579     221.8267      0.00000
  10580     221.8406      0.00000
  10581     221.8578      0.00000
  10582     221.8649      0.00000
  10583     221.8784      0.00000
  10584     221.8924      0.00000
  10585     221.9140      0.00000
  10586     221.9258      0.00000
  10587     221.9365      0.00000
  10588     221.9598      0.00000
  10589     221.9697      0.00000
  10590     221.9814      0.00000
  10591     222.0155      0.00000
  10592     222.0264      0.00000
  10593     222.0292      0.00000
  10594     222.0438      0.00000
  10595     222.0507      0.00000
  10596     222.0702      0.00000
  10597     222.0890      0.00000
  10598     222.0951      0.00000
  10599     222.0987      0.00000
  10600     222.1389      0.00000
  10601     222.1419      0.00000
  10602     222.1593      0.00000
  10603     222.1701      0.00000
  10604     222.1832      0.00000
  10605     222.1994      0.00000
  10606     222.2076      0.00000
  10607     222.2126      0.00000
  10608     222.2432      0.00000
  10609     222.2493      0.00000
  10610     222.2712      0.00000
  10611     222.2811      0.00000
  10612     222.2918      0.00000
  10613     222.3258      0.00000
  10614     222.3339      0.00000
  10615     222.3381      0.00000
  10616     222.3637      0.00000
  10617     222.3726      0.00000
  10618     222.3790      0.00000
  10619     222.4065      0.00000
  10620     222.4259      0.00000
  10621     222.4421      0.00000
  10622     222.4500      0.00000
  10623     222.4582      0.00000
  10624     222.4672      0.00000
  10625     222.4857      0.00000
  10626     222.4938      0.00000
  10627     222.5249      0.00000
  10628     222.5346      0.00000
  10629     222.5430      0.00000
  10630     222.5649      0.00000
  10631     222.5806      0.00000
  10632     222.5874      0.00000
  10633     222.5990      0.00000
  10634     222.6058      0.00000
  10635     222.6326      0.00000
  10636     222.6404      0.00000
  10637     222.6547      0.00000
  10638     222.6711      0.00000
  10639     222.6975      0.00000
  10640     222.7024      0.00000
  10641     222.7081      0.00000
  10642     222.7216      0.00000
  10643     222.7412      0.00000
  10644     222.7441      0.00000
  10645     222.7500      0.00000
  10646     222.7673      0.00000
  10647     222.7808      0.00000
  10648     222.7970      0.00000
  10649     222.8029      0.00000
  10650     222.8124      0.00000
  10651     222.8346      0.00000
  10652     222.8409      0.00000
  10653     222.8529      0.00000
  10654     222.8581      0.00000
  10655     222.8886      0.00000
  10656     222.8953      0.00000
  10657     222.9084      0.00000
  10658     222.9120      0.00000
  10659     222.9270      0.00000
  10660     222.9554      0.00000
  10661     222.9580      0.00000
  10662     222.9754      0.00000
  10663     222.9838      0.00000
  10664     223.0087      0.00000
  10665     223.0188      0.00000
  10666     223.0292      0.00000
  10667     223.0374      0.00000
  10668     223.0720      0.00000
  10669     223.0821      0.00000
  10670     223.0884      0.00000
  10671     223.1050      0.00000
  10672     223.1120      0.00000
  10673     223.1296      0.00000
  10674     223.1357      0.00000
  10675     223.1418      0.00000
  10676     223.1707      0.00000
  10677     223.1907      0.00000
  10678     223.1975      0.00000
  10679     223.2096      0.00000
  10680     223.2224      0.00000
  10681     223.2311      0.00000
  10682     223.2389      0.00000
  10683     223.2627      0.00000
  10684     223.2705      0.00000
  10685     223.2965      0.00000
  10686     223.3037      0.00000
  10687     223.3125      0.00000
  10688     223.3211      0.00000
  10689     223.3566      0.00000
  10690     223.3607      0.00000
  10691     223.3758      0.00000
  10692     223.3791      0.00000
  10693     223.3950      0.00000
  10694     223.4083      0.00000
  10695     223.4165      0.00000
  10696     223.4254      0.00000
  10697     223.4408      0.00000
  10698     223.4503      0.00000
  10699     223.4633      0.00000
  10700     223.4711      0.00000
  10701     223.4806      0.00000
  10702     223.4864      0.00000
  10703     223.5117      0.00000
  10704     223.5235      0.00000
  10705     223.5340      0.00000
  10706     223.5605      0.00000
  10707     223.5606      0.00000
  10708     223.5806      0.00000
  10709     223.5921      0.00000
  10710     223.6087      0.00000
  10711     223.6242      0.00000
  10712     223.6372      0.00000
  10713     223.6528      0.00000
  10714     223.6623      0.00000
  10715     223.6749      0.00000
  10716     223.7034      0.00000
  10717     223.7066      0.00000
  10718     223.7165      0.00000
  10719     223.7235      0.00000
  10720     223.7468      0.00000
  10721     223.7571      0.00000
  10722     223.7592      0.00000
  10723     223.7799      0.00000
  10724     223.7903      0.00000
  10725     223.8122      0.00000
  10726     223.8255      0.00000
  10727     223.8413      0.00000
  10728     223.8577      0.00000
  10729     223.8826      0.00000
  10730     223.8895      0.00000
  10731     223.8959      0.00000
  10732     223.9056      0.00000
  10733     223.9123      0.00000
  10734     223.9224      0.00000
  10735     223.9370      0.00000
  10736     223.9452      0.00000
  10737     223.9603      0.00000
  10738     223.9679      0.00000
  10739     223.9937      0.00000
  10740     223.9974      0.00000
  10741     224.0209      0.00000
  10742     224.0354      0.00000
  10743     224.0363      0.00000
  10744     224.0597      0.00000
  10745     224.0684      0.00000
  10746     224.1004      0.00000
  10747     224.1060      0.00000
  10748     224.1082      0.00000
  10749     224.1135      0.00000
  10750     224.1337      0.00000
  10751     224.1369      0.00000
  10752     224.1628      0.00000
  10753     224.1733      0.00000
  10754     224.1830      0.00000
  10755     224.1936      0.00000
  10756     224.2082      0.00000
  10757     224.2272      0.00000
  10758     224.2365      0.00000
  10759     224.2446      0.00000
  10760     224.2651      0.00000
  10761     224.2790      0.00000
  10762     224.2816      0.00000
  10763     224.2861      0.00000
  10764     224.2973      0.00000
  10765     224.3113      0.00000
  10766     224.3215      0.00000
  10767     224.3393      0.00000
  10768     224.3426      0.00000
  10769     224.3594      0.00000
  10770     224.3726      0.00000
  10771     224.3781      0.00000
  10772     224.3996      0.00000
  10773     224.4112      0.00000
  10774     224.4206      0.00000
  10775     224.4344      0.00000
  10776     224.4458      0.00000
  10777     224.4649      0.00000
  10778     224.4797      0.00000
  10779     224.4860      0.00000
  10780     224.4970      0.00000
  10781     224.5217      0.00000
  10782     224.5411      0.00000
  10783     224.5460      0.00000
  10784     224.5583      0.00000
  10785     224.5707      0.00000
  10786     224.5862      0.00000
  10787     224.6083      0.00000
  10788     224.6247      0.00000
  10789     224.6346      0.00000
  10790     224.6402      0.00000
  10791     224.6444      0.00000
  10792     224.6733      0.00000
  10793     224.6802      0.00000
  10794     224.6924      0.00000
  10795     224.7069      0.00000
  10796     224.7204      0.00000
  10797     224.7249      0.00000
  10798     224.7431      0.00000
  10799     224.7590      0.00000
  10800     224.7855      0.00000
  10801     224.7936      0.00000
  10802     224.8017      0.00000
  10803     224.8024      0.00000
  10804     224.8266      0.00000
  10805     224.8337      0.00000
  10806     224.8685      0.00000
  10807     224.8779      0.00000
  10808     224.8859      0.00000
  10809     224.8953      0.00000
  10810     224.8991      0.00000
  10811     224.9085      0.00000
  10812     224.9192      0.00000
  10813     224.9375      0.00000
  10814     224.9404      0.00000
  10815     224.9627      0.00000
  10816     224.9724      0.00000
  10817     224.9869      0.00000
  10818     225.0089      0.00000
  10819     225.0118      0.00000
  10820     225.0192      0.00000
  10821     225.0381      0.00000
  10822     225.0552      0.00000
  10823     225.0780      0.00000
  10824     225.0863      0.00000
  10825     225.0899      0.00000
  10826     225.1150      0.00000
  10827     225.1226      0.00000
  10828     225.1259      0.00000
  10829     225.1488      0.00000
  10830     225.1532      0.00000
  10831     225.1673      0.00000
  10832     225.1787      0.00000
  10833     225.1921      0.00000
  10834     225.2064      0.00000
  10835     225.2345      0.00000
  10836     225.2382      0.00000
  10837     225.2460      0.00000
  10838     225.2664      0.00000
  10839     225.2801      0.00000
  10840     225.3000      0.00000
  10841     225.3012      0.00000
  10842     225.3114      0.00000
  10843     225.3259      0.00000
  10844     225.3421      0.00000
  10845     225.3511      0.00000
  10846     225.3689      0.00000
  10847     225.3743      0.00000
  10848     225.3979      0.00000
  10849     225.4130      0.00000
  10850     225.4242      0.00000
  10851     225.4338      0.00000
  10852     225.4469      0.00000
  10853     225.4541      0.00000
  10854     225.4745      0.00000
  10855     225.4911      0.00000
  10856     225.4949      0.00000
  10857     225.5107      0.00000
  10858     225.5282      0.00000
  10859     225.5360      0.00000
  10860     225.5612      0.00000
  10861     225.5688      0.00000
  10862     225.5808      0.00000
  10863     225.5865      0.00000
  10864     225.5986      0.00000
  10865     225.6114      0.00000
  10866     225.6191      0.00000
  10867     225.6358      0.00000
  10868     225.6456      0.00000
  10869     225.6713      0.00000
  10870     225.6733      0.00000
  10871     225.6801      0.00000
  10872     225.6915      0.00000
  10873     225.7067      0.00000
  10874     225.7303      0.00000
  10875     225.7430      0.00000
  10876     225.7678      0.00000
  10877     225.7717      0.00000
  10878     225.7939      0.00000
  10879     225.7969      0.00000
  10880     225.8005      0.00000
  10881     225.8151      0.00000
  10882     225.8337      0.00000
  10883     225.8361      0.00000
  10884     225.8610      0.00000
  10885     225.8723      0.00000
  10886     225.8786      0.00000
  10887     225.8936      0.00000
  10888     225.8960      0.00000
  10889     225.8984      0.00000
  10890     225.9140      0.00000
  10891     225.9298      0.00000
  10892     225.9397      0.00000
  10893     225.9651      0.00000
  10894     225.9681      0.00000
  10895     225.9868      0.00000
  10896     225.9986      0.00000
  10897     226.0158      0.00000
  10898     226.0310      0.00000
  10899     226.0427      0.00000
  10900     226.0537      0.00000
  10901     226.0646      0.00000
  10902     226.0757      0.00000
  10903     226.0886      0.00000
  10904     226.1030      0.00000
  10905     226.1284      0.00000
  10906     226.1362      0.00000
  10907     226.1448      0.00000
  10908     226.1648      0.00000
  10909     226.1744      0.00000
  10910     226.1860      0.00000
  10911     226.1974      0.00000
  10912     226.2092      0.00000
  10913     226.2265      0.00000
  10914     226.2336      0.00000
  10915     226.2609      0.00000
  10916     226.2635      0.00000
  10917     226.2738      0.00000
  10918     226.2775      0.00000
  10919     226.2956      0.00000
  10920     226.3116      0.00000
  10921     226.3247      0.00000
  10922     226.3372      0.00000
  10923     226.3442      0.00000
  10924     226.3593      0.00000
  10925     226.3697      0.00000
  10926     226.3988      0.00000
  10927     226.4048      0.00000
  10928     226.4199      0.00000
  10929     226.4277      0.00000
  10930     226.4534      0.00000
  10931     226.4636      0.00000
  10932     226.4779      0.00000
  10933     226.4843      0.00000
  10934     226.4988      0.00000
  10935     226.5180      0.00000
  10936     226.5443      0.00000
  10937     226.5615      0.00000
  10938     226.5633      0.00000
  10939     226.5789      0.00000
  10940     226.5874      0.00000
  10941     226.5942      0.00000
  10942     226.6210      0.00000
  10943     226.6387      0.00000
  10944     226.6399      0.00000
  10945     226.6735      0.00000
  10946     226.6883      0.00000
  10947     226.7005      0.00000
  10948     226.7122      0.00000
  10949     226.7217      0.00000
  10950     226.7293      0.00000
  10951     226.7356      0.00000
  10952     226.7704      0.00000
  10953     226.7756      0.00000
  10954     226.7902      0.00000
  10955     226.8133      0.00000
  10956     226.8159      0.00000
  10957     226.8317      0.00000
  10958     226.8411      0.00000
  10959     226.8591      0.00000
  10960     226.8726      0.00000
  10961     226.8891      0.00000
  10962     226.8975      0.00000
  10963     226.9233      0.00000
  10964     226.9308      0.00000
  10965     226.9556      0.00000
  10966     226.9749      0.00000
  10967     226.9969      0.00000
  10968     227.0114      0.00000
  10969     227.0158      0.00000
  10970     227.0380      0.00000
  10971     227.0456      0.00000
  10972     227.0617      0.00000
  10973     227.0764      0.00000
  10974     227.0878      0.00000
  10975     227.1075      0.00000
  10976     227.1258      0.00000
  10977     227.1488      0.00000
  10978     227.1686      0.00000
  10979     227.1758      0.00000
  10980     227.2081      0.00000
  10981     227.2195      0.00000
  10982     227.2335      0.00000
  10983     227.2444      0.00000
  10984     227.2472      0.00000
  10985     227.2768      0.00000
  10986     227.2784      0.00000
  10987     227.2949      0.00000
  10988     227.3150      0.00000
  10989     227.3391      0.00000
  10990     227.3404      0.00000
  10991     227.3575      0.00000
  10992     227.3621      0.00000
  10993     227.3874      0.00000
  10994     227.4010      0.00000
  10995     227.4038      0.00000
  10996     227.4186      0.00000
  10997     227.4334      0.00000
  10998     227.4682      0.00000
  10999     227.4857      0.00000
  11000     227.4932      0.00000
  11001     227.5128      0.00000
  11002     227.5300      0.00000
  11003     227.5373      0.00000
  11004     227.5474      0.00000
  11005     227.5597      0.00000
  11006     227.5635      0.00000
  11007     227.5859      0.00000
  11008     227.5961      0.00000
  11009     227.6232      0.00000
  11010     227.6256      0.00000
  11011     227.6478      0.00000
  11012     227.6568      0.00000
  11013     227.6721      0.00000
  11014     227.6726      0.00000
  11015     227.7009      0.00000
  11016     227.7084      0.00000
  11017     227.7129      0.00000
  11018     227.7287      0.00000
  11019     227.7574      0.00000
  11020     227.7614      0.00000
  11021     227.7742      0.00000
  11022     227.7968      0.00000
  11023     227.8120      0.00000
  11024     227.8190      0.00000
  11025     227.8423      0.00000
  11026     227.8544      0.00000
  11027     227.8855      0.00000
  11028     227.8992      0.00000
  11029     227.9209      0.00000
  11030     227.9323      0.00000
  11031     227.9374      0.00000
  11032     227.9500      0.00000
  11033     227.9839      0.00000
  11034     227.9998      0.00000
  11035     228.0006      0.00000
  11036     228.0181      0.00000
  11037     228.0410      0.00000
  11038     228.0593      0.00000
  11039     228.0666      0.00000
  11040     228.0930      0.00000
  11041     228.1110      0.00000
  11042     228.1347      0.00000
  11043     228.1436      0.00000
  11044     228.1556      0.00000
  11045     228.1702      0.00000
  11046     228.1722      0.00000
  11047     228.1950      0.00000
  11048     228.2156      0.00000
  11049     228.2286      0.00000
  11050     228.2396      0.00000
  11051     228.2641      0.00000
  11052     228.2759      0.00000
  11053     228.2959      0.00000
  11054     228.3272      0.00000
  11055     228.3347      0.00000
  11056     228.3439      0.00000
  11057     228.3675      0.00000
  11058     228.3858      0.00000
  11059     228.4022      0.00000
  11060     228.4136      0.00000
  11061     228.4267      0.00000
  11062     228.4469      0.00000
  11063     228.4688      0.00000
  11064     228.4974      0.00000
  11065     228.5120      0.00000
  11066     228.5209      0.00000
  11067     228.5306      0.00000
  11068     228.5600      0.00000
  11069     228.5645      0.00000
  11070     228.5961      0.00000
  11071     228.6133      0.00000
  11072     228.6217      0.00000
  11073     228.6304      0.00000
  11074     228.6525      0.00000
  11075     228.6721      0.00000
  11076     228.6968      0.00000
  11077     228.7096      0.00000
  11078     228.7408      0.00000
  11079     228.7418      0.00000
  11080     228.7522      0.00000
  11081     228.7729      0.00000
  11082     228.7920      0.00000
  11083     228.8148      0.00000
  11084     228.8338      0.00000
  11085     228.8466      0.00000
  11086     228.8501      0.00000
  11087     228.8819      0.00000
  11088     228.9154      0.00000
  11089     228.9430      0.00000
  11090     228.9541      0.00000
  11091     228.9641      0.00000
  11092     228.9939      0.00000
  11093     229.0090      0.00000
  11094     229.0312      0.00000
  11095     229.0600      0.00000
  11096     229.0671      0.00000
  11097     229.0969      0.00000
  11098     229.1024      0.00000
  11099     229.1214      0.00000
  11100     229.1443      0.00000
  11101     229.1611      0.00000
  11102     229.1708      0.00000
  11103     229.1861      0.00000
  11104     229.1942      0.00000
  11105     229.2251      0.00000
  11106     229.2359      0.00000
  11107     229.2530      0.00000
  11108     229.2769      0.00000
  11109     229.2794      0.00000
  11110     229.3092      0.00000
  11111     229.3292      0.00000
  11112     229.3354      0.00000
  11113     229.3373      0.00000
  11114     229.3605      0.00000
  11115     229.3692      0.00000
  11116     229.4012      0.00000
  11117     229.4116      0.00000
  11118     229.4353      0.00000
  11119     229.4399      0.00000
  11120     229.4697      0.00000
  11121     229.5001      0.00000
  11122     229.5048      0.00000
  11123     229.5353      0.00000
  11124     229.5392      0.00000
  11125     229.5492      0.00000
  11126     229.5670      0.00000
  11127     229.5926      0.00000
  11128     229.5995      0.00000
  11129     229.6108      0.00000
  11130     229.6436      0.00000
  11131     229.6447      0.00000
  11132     229.6537      0.00000
  11133     229.6741      0.00000
  11134     229.6882      0.00000
  11135     229.7067      0.00000
  11136     229.7257      0.00000
  11137     229.7417      0.00000
  11138     229.7536      0.00000
  11139     229.7620      0.00000
  11140     229.7781      0.00000
  11141     229.7970      0.00000
  11142     229.8232      0.00000
  11143     229.8384      0.00000
  11144     229.8530      0.00000
  11145     229.8723      0.00000
  11146     229.8887      0.00000
  11147     229.9015      0.00000
  11148     229.9188      0.00000
  11149     229.9266      0.00000
  11150     229.9387      0.00000
  11151     229.9882      0.00000
  11152     229.9987      0.00000
  11153     230.0132      0.00000
  11154     230.0216      0.00000
  11155     230.0366      0.00000
  11156     230.0560      0.00000
  11157     230.0768      0.00000
  11158     230.1125      0.00000
  11159     230.1191      0.00000
  11160     230.1295      0.00000
  11161     230.1466      0.00000
  11162     230.1608      0.00000
  11163     230.1818      0.00000
  11164     230.1888      0.00000
  11165     230.1931      0.00000
  11166     230.2441      0.00000
  11167     230.2559      0.00000
  11168     230.2734      0.00000
  11169     230.2823      0.00000
  11170     230.2931      0.00000
  11171     230.2961      0.00000
  11172     230.3192      0.00000
  11173     230.3354      0.00000
  11174     230.3390      0.00000
  11175     230.3582      0.00000
  11176     230.3618      0.00000
  11177     230.3938      0.00000
  11178     230.4070      0.00000
  11179     230.4267      0.00000
  11180     230.4449      0.00000
  11181     230.4558      0.00000
  11182     230.4732      0.00000
  11183     230.4852      0.00000
  11184     230.5112      0.00000
  11185     230.5152      0.00000
  11186     230.5278      0.00000
  11187     230.5586      0.00000
  11188     230.5672      0.00000
  11189     230.5790      0.00000
  11190     230.6010      0.00000
  11191     230.6116      0.00000
  11192     230.6327      0.00000
  11193     230.6445      0.00000
  11194     230.6601      0.00000
  11195     230.6724      0.00000
  11196     230.6803      0.00000
  11197     230.7039      0.00000
  11198     230.7125      0.00000
  11199     230.7211      0.00000
  11200     230.7403      0.00000
  11201     230.7455      0.00000
  11202     230.7760      0.00000
  11203     230.7891      0.00000
  11204     230.8121      0.00000
  11205     230.8148      0.00000
  11206     230.8288      0.00000
  11207     230.8673      0.00000
  11208     230.8810      0.00000
  11209     230.8916      0.00000
  11210     230.9042      0.00000
  11211     230.9055      0.00000
  11212     230.9226      0.00000
  11213     230.9425      0.00000
  11214     230.9554      0.00000
  11215     230.9672      0.00000
  11216     230.9709      0.00000
  11217     230.9939      0.00000
  11218     231.0075      0.00000
  11219     231.0355      0.00000
  11220     231.0470      0.00000
  11221     231.0589      0.00000
  11222     231.0711      0.00000
  11223     231.0767      0.00000
  11224     231.0939      0.00000
  11225     231.1086      0.00000
  11226     231.1170      0.00000
  11227     231.1460      0.00000
  11228     231.1526      0.00000
  11229     231.1622      0.00000
  11230     231.1708      0.00000
  11231     231.1937      0.00000
  11232     231.2236      0.00000
  11233     231.2285      0.00000
  11234     231.2359      0.00000
  11235     231.2565      0.00000
  11236     231.2702      0.00000
  11237     231.2759      0.00000
  11238     231.3016      0.00000
  11239     231.3076      0.00000
  11240     231.3132      0.00000
  11241     231.3351      0.00000
  11242     231.3421      0.00000
  11243     231.3612      0.00000
  11244     231.3726      0.00000
  11245     231.3871      0.00000
  11246     231.4096      0.00000
  11247     231.4163      0.00000
  11248     231.4302      0.00000
  11249     231.4516      0.00000
  11250     231.4544      0.00000
  11251     231.4668      0.00000
  11252     231.4874      0.00000
  11253     231.4969      0.00000
  11254     231.5168      0.00000
  11255     231.5265      0.00000
  11256     231.5333      0.00000
  11257     231.5520      0.00000
  11258     231.5693      0.00000
  11259     231.5804      0.00000
  11260     231.5863      0.00000
  11261     231.6022      0.00000
  11262     231.6146      0.00000
  11263     231.6235      0.00000
  11264     231.6358      0.00000
  11265     231.6557      0.00000
  11266     231.6712      0.00000
  11267     231.6753      0.00000
  11268     231.6927      0.00000
  11269     231.7021      0.00000
  11270     231.7318      0.00000
  11271     231.7332      0.00000
  11272     231.7423      0.00000
  11273     231.7602      0.00000
  11274     231.7648      0.00000
  11275     231.7790      0.00000
  11276     231.7879      0.00000
  11277     231.8009      0.00000
  11278     231.8215      0.00000
  11279     231.8271      0.00000
  11280     231.8538      0.00000
  11281     231.8624      0.00000
  11282     231.8814      0.00000
  11283     231.8932      0.00000
  11284     231.9054      0.00000
  11285     231.9255      0.00000
  11286     231.9383      0.00000
  11287     231.9497      0.00000
  11288     231.9596      0.00000
  11289     231.9944      0.00000
  11290     231.9995      0.00000
  11291     232.0078      0.00000
  11292     232.0216      0.00000
  11293     232.0385      0.00000
  11294     232.0444      0.00000
  11295     232.0703      0.00000
  11296     232.0752      0.00000
  11297     232.0831      0.00000
  11298     232.1083      0.00000
  11299     232.1211      0.00000
  11300     232.1312      0.00000
  11301     232.1546      0.00000
  11302     232.1602      0.00000
  11303     232.1853      0.00000
  11304     232.1947      0.00000
  11305     232.1966      0.00000
  11306     232.2001      0.00000
  11307     232.2200      0.00000
  11308     232.2326      0.00000
  11309     232.2486      0.00000
  11310     232.2516      0.00000
  11311     232.2708      0.00000
  11312     232.2816      0.00000
  11313     232.2877      0.00000
  11314     232.3211      0.00000
  11315     232.3277      0.00000
  11316     232.3424      0.00000
  11317     232.3559      0.00000
  11318     232.3701      0.00000
  11319     232.3834      0.00000
  11320     232.3923      0.00000
  11321     232.4080      0.00000
  11322     232.4202      0.00000
  11323     232.4327      0.00000
  11324     232.4444      0.00000
  11325     232.4560      0.00000
  11326     232.4806      0.00000
  11327     232.4886      0.00000
  11328     232.5133      0.00000
  11329     232.5188      0.00000
  11330     232.5354      0.00000
  11331     232.5510      0.00000
  11332     232.5556      0.00000
  11333     232.5659      0.00000
  11334     232.5905      0.00000
  11335     232.5961      0.00000
  11336     232.6229      0.00000
  11337     232.6375      0.00000
  11338     232.6428      0.00000
  11339     232.6697      0.00000
  11340     232.6799      0.00000
  11341     232.6831      0.00000
  11342     232.6907      0.00000
  11343     232.7151      0.00000
  11344     232.7259      0.00000
  11345     232.7417      0.00000
  11346     232.7584      0.00000
  11347     232.7592      0.00000
  11348     232.7923      0.00000
  11349     232.8031      0.00000
  11350     232.8221      0.00000
  11351     232.8278      0.00000
  11352     232.8344      0.00000
  11353     232.8382      0.00000
  11354     232.8616      0.00000
  11355     232.8755      0.00000
  11356     232.8915      0.00000
  11357     232.9100      0.00000
  11358     232.9158      0.00000
  11359     232.9295      0.00000
  11360     232.9374      0.00000
  11361     232.9610      0.00000
  11362     232.9762      0.00000
  11363     233.0025      0.00000
  11364     233.0186      0.00000
  11365     233.0292      0.00000
  11366     233.0424      0.00000
  11367     233.0579      0.00000
  11368     233.0611      0.00000
  11369     233.0825      0.00000
  11370     233.1000      0.00000
  11371     233.1203      0.00000
  11372     233.1225      0.00000
  11373     233.1350      0.00000
  11374     233.1491      0.00000
  11375     233.1771      0.00000
  11376     233.1881      0.00000
  11377     233.1952      0.00000
  11378     233.2187      0.00000
  11379     233.2335      0.00000
  11380     233.2440      0.00000
  11381     233.2571      0.00000
  11382     233.2696      0.00000
  11383     233.2780      0.00000
  11384     233.2902      0.00000
  11385     233.3072      0.00000
  11386     233.3263      0.00000
  11387     233.3460      0.00000
  11388     233.3655      0.00000
  11389     233.3752      0.00000
  11390     233.3898      0.00000
  11391     233.3953      0.00000
  11392     233.4069      0.00000
  11393     233.4108      0.00000
  11394     233.4379      0.00000
  11395     233.4482      0.00000
  11396     233.4525      0.00000
  11397     233.4626      0.00000
  11398     233.4968      0.00000
  11399     233.5001      0.00000
  11400     233.5258      0.00000
  11401     233.5316      0.00000
  11402     233.5458      0.00000
  11403     233.5659      0.00000
  11404     233.5850      0.00000
  11405     233.5933      0.00000
  11406     233.6107      0.00000
  11407     233.6247      0.00000
  11408     233.6328      0.00000
  11409     233.6520      0.00000
  11410     233.6532      0.00000
  11411     233.6725      0.00000
  11412     233.6934      0.00000
  11413     233.7117      0.00000
  11414     233.7197      0.00000
  11415     233.7266      0.00000
  11416     233.7427      0.00000
  11417     233.7695      0.00000
  11418     233.7853      0.00000
  11419     233.7930      0.00000
  11420     233.8233      0.00000
  11421     233.8283      0.00000
  11422     233.8366      0.00000
  11423     233.8480      0.00000
  11424     233.8595      0.00000
  11425     233.8848      0.00000
  11426     233.9011      0.00000
  11427     233.9116      0.00000
  11428     233.9176      0.00000
  11429     233.9425      0.00000
  11430     233.9654      0.00000
  11431     233.9709      0.00000
  11432     233.9837      0.00000
  11433     233.9946      0.00000
  11434     234.0077      0.00000
  11435     234.0328      0.00000
  11436     234.0484      0.00000
  11437     234.0671      0.00000
  11438     234.0784      0.00000
  11439     234.1014      0.00000
  11440     234.1242      0.00000
  11441     234.1541      0.00000
  11442     234.1717      0.00000
  11443     234.1807      0.00000
  11444     234.1862      0.00000
  11445     234.2009      0.00000
  11446     234.2134      0.00000
  11447     234.2297      0.00000
  11448     234.2400      0.00000
  11449     234.2492      0.00000
  11450     234.2680      0.00000
  11451     234.2881      0.00000
  11452     234.3009      0.00000
  11453     234.3116      0.00000
  11454     234.3261      0.00000
  11455     234.3356      0.00000
  11456     234.3659      0.00000
  11457     234.3700      0.00000
  11458     234.3783      0.00000
  11459     234.3938      0.00000
  11460     234.4327      0.00000
  11461     234.4362      0.00000
  11462     234.4441      0.00000
  11463     234.4545      0.00000
  11464     234.4717      0.00000
  11465     234.4890      0.00000
  11466     234.5116      0.00000
  11467     234.5182      0.00000
  11468     234.5401      0.00000
  11469     234.5651      0.00000
  11470     234.5940      0.00000
  11471     234.6017      0.00000
  11472     234.6044      0.00000
  11473     234.6179      0.00000
  11474     234.6362      0.00000
  11475     234.6423      0.00000
  11476     234.6683      0.00000
  11477     234.6814      0.00000
  11478     234.6868      0.00000
  11479     234.6990      0.00000
  11480     234.7138      0.00000
  11481     234.7186      0.00000
  11482     234.7309      0.00000
  11483     234.7386      0.00000
  11484     234.7538      0.00000
  11485     234.7889      0.00000
  11486     234.8008      0.00000
  11487     234.8204      0.00000
  11488     234.8355      0.00000
  11489     234.8513      0.00000
  11490     234.8556      0.00000
  11491     234.8798      0.00000
  11492     234.8966      0.00000
  11493     234.9012      0.00000
  11494     234.9071      0.00000
  11495     234.9274      0.00000
  11496     234.9361      0.00000
  11497     234.9431      0.00000
  11498     234.9503      0.00000
  11499     234.9579      0.00000
  11500     234.9958      0.00000
  11501     235.0068      0.00000
  11502     235.0324      0.00000
  11503     235.0444      0.00000
  11504     235.0520      0.00000
  11505     235.0606      0.00000
  11506     235.0828      0.00000
  11507     235.0942      0.00000
  11508     235.0944      0.00000
  11509     235.1208      0.00000
  11510     235.1274      0.00000
  11511     235.1425      0.00000
  11512     235.1623      0.00000
  11513     235.1736      0.00000
  11514     235.1845      0.00000
  11515     235.2049      0.00000
  11516     235.2116      0.00000
  11517     235.2172      0.00000
  11518     235.2333      0.00000
  11519     235.2527      0.00000
  11520     235.2620      0.00000
  11521     235.2852      0.00000
  11522     235.2976      0.00000
  11523     235.3032      0.00000
  11524     235.3227      0.00000
  11525     235.3459      0.00000
  11526     235.3701      0.00000
  11527     235.3767      0.00000
  11528     235.3848      0.00000
  11529     235.4109      0.00000
  11530     235.4185      0.00000
  11531     235.4288      0.00000
  11532     235.4337      0.00000
  11533     235.4708      0.00000
  11534     235.4749      0.00000
  11535     235.4806      0.00000
  11536     235.4899      0.00000
  11537     235.5111      0.00000
  11538     235.5238      0.00000
  11539     235.5316      0.00000
  11540     235.5429      0.00000
  11541     235.5536      0.00000
  11542     235.5632      0.00000
  11543     235.5750      0.00000
  11544     235.5940      0.00000
  11545     235.6208      0.00000
  11546     235.6367      0.00000
  11547     235.6420      0.00000
  11548     235.6658      0.00000
  11549     235.6675      0.00000
  11550     235.6828      0.00000
  11551     235.6999      0.00000
  11552     235.7116      0.00000
  11553     235.7290      0.00000
  11554     235.7554      0.00000
  11555     235.7736      0.00000
  11556     235.7768      0.00000
  11557     235.7808      0.00000
  11558     235.8074      0.00000
  11559     235.8212      0.00000
  11560     235.8294      0.00000
  11561     235.8459      0.00000
  11562     235.8700      0.00000
  11563     235.8733      0.00000
  11564     235.8925      0.00000
  11565     235.9057      0.00000
  11566     235.9249      0.00000
  11567     235.9391      0.00000
  11568     235.9403      0.00000
  11569     235.9497      0.00000
  11570     235.9640      0.00000
  11571     235.9832      0.00000
  11572     235.9868      0.00000
  11573     235.9987      0.00000
  11574     236.0299      0.00000
  11575     236.0311      0.00000
  11576     236.0394      0.00000
  11577     236.0784      0.00000
  11578     236.0967      0.00000
  11579     236.1154      0.00000
  11580     236.1183      0.00000
  11581     236.1309      0.00000
  11582     236.1371      0.00000
  11583     236.1475      0.00000
  11584     236.1589      0.00000
  11585     236.1774      0.00000
  11586     236.2028      0.00000
  11587     236.2091      0.00000
  11588     236.2226      0.00000
  11589     236.2320      0.00000
  11590     236.2368      0.00000
  11591     236.2588      0.00000
  11592     236.2700      0.00000
  11593     236.2895      0.00000
  11594     236.2977      0.00000
  11595     236.3145      0.00000
  11596     236.3261      0.00000
  11597     236.3377      0.00000
  11598     236.3568      0.00000
  11599     236.3625      0.00000
  11600     236.3704      0.00000
  11601     236.3981      0.00000
  11602     236.4048      0.00000
  11603     236.4102      0.00000
  11604     236.4196      0.00000
  11605     236.4426      0.00000
  11606     236.4449      0.00000
  11607     236.4549      0.00000
  11608     236.4696      0.00000
  11609     236.4864      0.00000
  11610     236.4933      0.00000
  11611     236.5058      0.00000
  11612     236.5194      0.00000
  11613     236.5360      0.00000
  11614     236.5573      0.00000
  11615     236.5621      0.00000
  11616     236.5813      0.00000
  11617     236.5875      0.00000
  11618     236.6010      0.00000
  11619     236.6221      0.00000
  11620     236.6356      0.00000
  11621     236.6374      0.00000
  11622     236.6625      0.00000
  11623     236.6789      0.00000
  11624     236.6809      0.00000
  11625     236.6952      0.00000
  11626     236.7157      0.00000
  11627     236.7364      0.00000
  11628     236.7441      0.00000
  11629     236.7645      0.00000
  11630     236.7757      0.00000
  11631     236.7855      0.00000
  11632     236.7997      0.00000
  11633     236.8151      0.00000
  11634     236.8233      0.00000
  11635     236.8320      0.00000
  11636     236.8510      0.00000
  11637     236.8675      0.00000
  11638     236.8920      0.00000
  11639     236.8976      0.00000
  11640     236.9126      0.00000
  11641     236.9256      0.00000
  11642     236.9436      0.00000
  11643     236.9472      0.00000
  11644     236.9753      0.00000
  11645     236.9889      0.00000
  11646     236.9944      0.00000
  11647     237.0015      0.00000
  11648     237.0115      0.00000
  11649     237.0230      0.00000
  11650     237.0348      0.00000
  11651     237.0669      0.00000
  11652     237.0763      0.00000
  11653     237.0881      0.00000
  11654     237.1042      0.00000
  11655     237.1213      0.00000
  11656     237.1369      0.00000
  11657     237.1535      0.00000
  11658     237.1628      0.00000
  11659     237.1694      0.00000
  11660     237.1765      0.00000
  11661     237.1979      0.00000
  11662     237.2052      0.00000
  11663     237.2143      0.00000
  11664     237.2354      0.00000
  11665     237.2481      0.00000
  11666     237.2511      0.00000
  11667     237.2707      0.00000
  11668     237.2872      0.00000
  11669     237.3059      0.00000
  11670     237.3092      0.00000
  11671     237.3207      0.00000
  11672     237.3349      0.00000
  11673     237.3387      0.00000
  11674     237.3485      0.00000
  11675     237.3692      0.00000
  11676     237.3973      0.00000
  11677     237.4010      0.00000
  11678     237.4247      0.00000
  11679     237.4269      0.00000
  11680     237.4448      0.00000
  11681     237.4557      0.00000
  11682     237.4603      0.00000
  11683     237.4865      0.00000
  11684     237.4945      0.00000
  11685     237.4982      0.00000
  11686     237.5202      0.00000
  11687     237.5406      0.00000
  11688     237.5595      0.00000
  11689     237.5681      0.00000
  11690     237.5813      0.00000
  11691     237.6042      0.00000
  11692     237.6161      0.00000
  11693     237.6237      0.00000
  11694     237.6285      0.00000
  11695     237.6391      0.00000
  11696     237.6561      0.00000
  11697     237.6583      0.00000
  11698     237.6773      0.00000
  11699     237.6912      0.00000
  11700     237.7031      0.00000
  11701     237.7149      0.00000
  11702     237.7177      0.00000
  11703     237.7370      0.00000
  11704     237.7521      0.00000
  11705     237.7672      0.00000
  11706     237.7841      0.00000
  11707     237.7927      0.00000
  11708     237.8005      0.00000
  11709     237.8089      0.00000
  11710     237.8321      0.00000
  11711     237.8356      0.00000
  11712     237.8538      0.00000
  11713     237.8655      0.00000
  11714     237.8838      0.00000
  11715     237.8953      0.00000
  11716     237.8979      0.00000
  11717     237.9141      0.00000
  11718     237.9183      0.00000
  11719     237.9351      0.00000
  11720     237.9442      0.00000
  11721     237.9623      0.00000
  11722     237.9715      0.00000
  11723     237.9793      0.00000
  11724     237.9952      0.00000
  11725     238.0110      0.00000
  11726     238.0273      0.00000
  11727     238.0369      0.00000
  11728     238.0461      0.00000
  11729     238.0647      0.00000
  11730     238.0673      0.00000
  11731     238.0924      0.00000
  11732     238.1077      0.00000
  11733     238.1129      0.00000
  11734     238.1379      0.00000
  11735     238.1422      0.00000
  11736     238.1602      0.00000
  11737     238.1647      0.00000
  11738     238.1862      0.00000
  11739     238.1900      0.00000
  11740     238.1924      0.00000
  11741     238.2044      0.00000
  11742     238.2313      0.00000
  11743     238.2395      0.00000
  11744     238.2411      0.00000
  11745     238.2493      0.00000
  11746     238.2649      0.00000
  11747     238.2891      0.00000
  11748     238.3163      0.00000
  11749     238.3238      0.00000
  11750     238.3355      0.00000
  11751     238.3501      0.00000
  11752     238.3714      0.00000
  11753     238.3808      0.00000
  11754     238.3898      0.00000
  11755     238.4011      0.00000
  11756     238.4179      0.00000
  11757     238.4356      0.00000
  11758     238.4372      0.00000
  11759     238.4424      0.00000
  11760     238.4654      0.00000
  11761     238.4745      0.00000
  11762     238.4799      0.00000
  11763     238.5008      0.00000
  11764     238.5151      0.00000
  11765     238.5343      0.00000
  11766     238.5429      0.00000
  11767     238.5638      0.00000
  11768     238.5781      0.00000
  11769     238.5883      0.00000
  11770     238.5982      0.00000
  11771     238.6077      0.00000
  11772     238.6143      0.00000
  11773     238.6311      0.00000
  11774     238.6399      0.00000
  11775     238.6481      0.00000
  11776     238.6680      0.00000
  11777     238.6744      0.00000
  11778     238.6839      0.00000
  11779     238.6917      0.00000
  11780     238.7069      0.00000
  11781     238.7244      0.00000
  11782     238.7335      0.00000
  11783     238.7406      0.00000
  11784     238.7622      0.00000
  11785     238.7764      0.00000
  11786     238.7824      0.00000
  11787     238.7948      0.00000
  11788     238.8109      0.00000
  11789     238.8170      0.00000
  11790     238.8284      0.00000
  11791     238.8496      0.00000
  11792     238.8554      0.00000
  11793     238.8708      0.00000
  11794     238.8759      0.00000
  11795     238.8811      0.00000
  11796     238.9015      0.00000
  11797     238.9164      0.00000
  11798     238.9375      0.00000
  11799     238.9427      0.00000
  11800     238.9588      0.00000
  11801     238.9659      0.00000
  11802     238.9742      0.00000
  11803     238.9856      0.00000
  11804     238.9907      0.00000
  11805     239.0005      0.00000
  11806     239.0212      0.00000
  11807     239.0373      0.00000
  11808     239.0512      0.00000
  11809     239.0616      0.00000
  11810     239.0684      0.00000
  11811     239.0835      0.00000
  11812     239.0928      0.00000
  11813     239.0989      0.00000
  11814     239.1268      0.00000
  11815     239.1302      0.00000
  11816     239.1368      0.00000
  11817     239.1642      0.00000
  11818     239.1738      0.00000
  11819     239.1801      0.00000
  11820     239.1989      0.00000
  11821     239.2189      0.00000
  11822     239.2276      0.00000
  11823     239.2418      0.00000
  11824     239.2638      0.00000
  11825     239.2730      0.00000
  11826     239.2782      0.00000
  11827     239.2940      0.00000
  11828     239.3007      0.00000
  11829     239.3203      0.00000
  11830     239.3221      0.00000
  11831     239.3326      0.00000
  11832     239.3580      0.00000
  11833     239.3627      0.00000
  11834     239.3702      0.00000
  11835     239.3771      0.00000
  11836     239.3887      0.00000
  11837     239.3921      0.00000
  11838     239.4063      0.00000
  11839     239.4260      0.00000
  11840     239.4367      0.00000
  11841     239.4657      0.00000
  11842     239.4660      0.00000
  11843     239.4729      0.00000
  11844     239.4807      0.00000
  11845     239.5075      0.00000
  11846     239.5150      0.00000
  11847     239.5230      0.00000
  11848     239.5328      0.00000
  11849     239.5541      0.00000
  11850     239.5603      0.00000
  11851     239.5661      0.00000
  11852     239.5843      0.00000
  11853     239.5878      0.00000
  11854     239.6037      0.00000
  11855     239.6206      0.00000
  11856     239.6356      0.00000
  11857     239.6472      0.00000
  11858     239.6486      0.00000
  11859     239.6580      0.00000
  11860     239.6916      0.00000
  11861     239.6950      0.00000
  11862     239.7002      0.00000
  11863     239.7191      0.00000
  11864     239.7378      0.00000
  11865     239.7405      0.00000
  11866     239.7512      0.00000
  11867     239.7650      0.00000
  11868     239.7788      0.00000
  11869     239.7853      0.00000
  11870     239.8025      0.00000
  11871     239.8065      0.00000
  11872     239.8119      0.00000
  11873     239.8372      0.00000
  11874     239.8626      0.00000
  11875     239.8767      0.00000
  11876     239.8817      0.00000
  11877     239.8901      0.00000
  11878     239.9006      0.00000
  11879     239.9071      0.00000
  11880     239.9183      0.00000
  11881     239.9324      0.00000
  11882     239.9605      0.00000
  11883     239.9685      0.00000
  11884     239.9867      0.00000
  11885     239.9940      0.00000
  11886     240.0034      0.00000
  11887     240.0086      0.00000
  11888     240.0150      0.00000
  11889     240.0336      0.00000
  11890     240.0548      0.00000
  11891     240.0689      0.00000
  11892     240.0743      0.00000
  11893     240.0870      0.00000
  11894     240.0975      0.00000
  11895     240.1080      0.00000
  11896     240.1139      0.00000
  11897     240.1311      0.00000
  11898     240.1368      0.00000
  11899     240.1547      0.00000
  11900     240.1785      0.00000
  11901     240.1838      0.00000
  11902     240.1960      0.00000
  11903     240.2050      0.00000
  11904     240.2185      0.00000
  11905     240.2319      0.00000
  11906     240.2464      0.00000
  11907     240.2493      0.00000
  11908     240.2732      0.00000
  11909     240.2773      0.00000
  11910     240.2813      0.00000
  11911     240.2977      0.00000
  11912     240.3342      0.00000
  11913     240.3369      0.00000
  11914     240.3453      0.00000
  11915     240.3553      0.00000
  11916     240.3585      0.00000
  11917     240.3750      0.00000
  11918     240.3842      0.00000
  11919     240.3958      0.00000
  11920     240.4180      0.00000
  11921     240.4210      0.00000
  11922     240.4327      0.00000
  11923     240.4483      0.00000
  11924     240.4505      0.00000
  11925     240.4654      0.00000
  11926     240.4765      0.00000
  11927     240.4927      0.00000
  11928     240.5119      0.00000
  11929     240.5215      0.00000
  11930     240.5420      0.00000
  11931     240.5479      0.00000
  11932     240.5634      0.00000
  11933     240.5781      0.00000
  11934     240.5856      0.00000
  11935     240.5962      0.00000
  11936     240.6064      0.00000
  11937     240.6261      0.00000
  11938     240.6349      0.00000
  11939     240.6471      0.00000
  11940     240.6592      0.00000
  11941     240.6709      0.00000
  11942     240.6856      0.00000
  11943     240.6999      0.00000
  11944     240.7105      0.00000
  11945     240.7217      0.00000
  11946     240.7321      0.00000
  11947     240.7509      0.00000
  11948     240.7574      0.00000
  11949     240.7802      0.00000
  11950     240.7844      0.00000
  11951     240.7968      0.00000
  11952     240.8221      0.00000
  11953     240.8233      0.00000
  11954     240.8311      0.00000
  11955     240.8570      0.00000
  11956     240.8663      0.00000
  11957     240.8831      0.00000
  11958     240.8856      0.00000
  11959     240.9008      0.00000
  11960     240.9112      0.00000
  11961     240.9295      0.00000
  11962     240.9453      0.00000
  11963     240.9508      0.00000
  11964     240.9711      0.00000
  11965     240.9818      0.00000
  11966     240.9897      0.00000
  11967     241.0041      0.00000
  11968     241.0158      0.00000
  11969     241.0283      0.00000
  11970     241.0504      0.00000
  11971     241.0620      0.00000
  11972     241.0792      0.00000
  11973     241.0901      0.00000
  11974     241.0926      0.00000
  11975     241.1078      0.00000
  11976     241.1269      0.00000
  11977     241.1426      0.00000
  11978     241.1523      0.00000
  11979     241.1576      0.00000
  11980     241.1780      0.00000
  11981     241.1823      0.00000
  11982     241.1928      0.00000
  11983     241.2273      0.00000
  11984     241.2373      0.00000
  11985     241.2475      0.00000
  11986     241.2577      0.00000
  11987     241.2650      0.00000
  11988     241.2708      0.00000
  11989     241.2812      0.00000
  11990     241.2957      0.00000
  11991     241.3049      0.00000
  11992     241.3258      0.00000
  11993     241.3291      0.00000
  11994     241.3333      0.00000
  11995     241.3626      0.00000
  11996     241.3696      0.00000
  11997     241.3808      0.00000
  11998     241.3938      0.00000
  11999     241.4120      0.00000
  12000     241.4134      0.00000
  12001     241.4207      0.00000
  12002     241.4482      0.00000
  12003     241.4616      0.00000
  12004     241.4678      0.00000
  12005     241.4871      0.00000
  12006     241.4922      0.00000
  12007     241.5134      0.00000
  12008     241.5190      0.00000
  12009     241.5292      0.00000
  12010     241.5539      0.00000
  12011     241.5611      0.00000
  12012     241.5734      0.00000
  12013     241.5819      0.00000
  12014     241.5951      0.00000
  12015     241.5985      0.00000
  12016     241.6193      0.00000
  12017     241.6400      0.00000
  12018     241.6435      0.00000
  12019     241.6624      0.00000
  12020     241.6760      0.00000
  12021     241.6866      0.00000
  12022     241.6907      0.00000
  12023     241.7058      0.00000
  12024     241.7106      0.00000
  12025     241.7227      0.00000
  12026     241.7440      0.00000
  12027     241.7650      0.00000
  12028     241.7809      0.00000
  12029     241.7933      0.00000
  12030     241.8102      0.00000
  12031     241.8275      0.00000
  12032     241.8320      0.00000
  12033     241.8426      0.00000
  12034     241.8488      0.00000
  12035     241.8724      0.00000
  12036     241.8900      0.00000
  12037     241.8990      0.00000
  12038     241.9085      0.00000
  12039     241.9188      0.00000
  12040     241.9418      0.00000
  12041     241.9562      0.00000
  12042     241.9668      0.00000
  12043     241.9745      0.00000
  12044     241.9855      0.00000
  12045     241.9934      0.00000
  12046     242.0233      0.00000
  12047     242.0312      0.00000
  12048     242.0363      0.00000
  12049     242.0549      0.00000
  12050     242.0651      0.00000
  12051     242.0802      0.00000
  12052     242.0965      0.00000
  12053     242.1006      0.00000
  12054     242.1139      0.00000
  12055     242.1259      0.00000
  12056     242.1370      0.00000
  12057     242.1427      0.00000
  12058     242.1652      0.00000
  12059     242.1795      0.00000
  12060     242.2008      0.00000
  12061     242.2116      0.00000
  12062     242.2140      0.00000
  12063     242.2265      0.00000
  12064     242.2342      0.00000
  12065     242.2449      0.00000
  12066     242.2551      0.00000
  12067     242.2726      0.00000
  12068     242.2913      0.00000
  12069     242.2972      0.00000
  12070     242.3250      0.00000
  12071     242.3341      0.00000
  12072     242.3345      0.00000
  12073     242.3688      0.00000
  12074     242.3940      0.00000
  12075     242.4076      0.00000
  12076     242.4207      0.00000
  12077     242.4381      0.00000
  12078     242.4407      0.00000
  12079     242.4597      0.00000
  12080     242.4700      0.00000
  12081     242.4809      0.00000
  12082     242.4853      0.00000
  12083     242.4959      0.00000
  12084     242.5177      0.00000
  12085     242.5281      0.00000
  12086     242.5560      0.00000
  12087     242.5611      0.00000
  12088     242.5848      0.00000
  12089     242.5977      0.00000
  12090     242.6101      0.00000
  12091     242.6169      0.00000
  12092     242.6207      0.00000
  12093     242.6458      0.00000
  12094     242.6626      0.00000
  12095     242.6764      0.00000
  12096     242.6900      0.00000
  12097     242.7145      0.00000
  12098     242.7258      0.00000
  12099     242.7277      0.00000
  12100     242.7316      0.00000
  12101     242.7592      0.00000
  12102     242.7784      0.00000
  12103     242.8135      0.00000
  12104     242.8220      0.00000
  12105     242.8412      0.00000
  12106     242.8532      0.00000
  12107     242.8629      0.00000
  12108     242.8770      0.00000
  12109     242.8989      0.00000
  12110     242.9184      0.00000
  12111     242.9258      0.00000
  12112     242.9469      0.00000
  12113     242.9613      0.00000
  12114     242.9743      0.00000
  12115     242.9846      0.00000
  12116     243.0114      0.00000
  12117     243.0144      0.00000
  12118     243.0621      0.00000
  12119     243.0650      0.00000
  12120     243.0666      0.00000
  12121     243.0798      0.00000
  12122     243.0867      0.00000
  12123     243.1037      0.00000
  12124     243.1076      0.00000
  12125     243.1330      0.00000
  12126     243.1660      0.00000
  12127     243.1726      0.00000
  12128     243.1827      0.00000
  12129     243.2019      0.00000
  12130     243.2208      0.00000
  12131     243.2413      0.00000
  12132     243.2616      0.00000
  12133     243.2718      0.00000
  12134     243.2744      0.00000
  12135     243.2825      0.00000
  12136     243.3072      0.00000
  12137     243.3202      0.00000
  12138     243.3356      0.00000
  12139     243.3581      0.00000
  12140     243.3737      0.00000
  12141     243.3989      0.00000
  12142     243.4041      0.00000
  12143     243.4143      0.00000
  12144     243.4364      0.00000
  12145     243.4555      0.00000
  12146     243.4585      0.00000
  12147     243.4925      0.00000
  12148     243.5012      0.00000
  12149     243.5175      0.00000
  12150     243.5229      0.00000
  12151     243.5421      0.00000
  12152     243.5578      0.00000
  12153     243.5785      0.00000
  12154     243.5857      0.00000
  12155     243.6134      0.00000
  12156     243.6249      0.00000
  12157     243.6409      0.00000
  12158     243.6770      0.00000
  12159     243.6926      0.00000
  12160     243.6958      0.00000
  12161     243.7121      0.00000
  12162     243.7222      0.00000
  12163     243.7458      0.00000
  12164     243.7603      0.00000
  12165     243.7693      0.00000
  12166     243.7824      0.00000
  12167     243.7960      0.00000
  12168     243.8189      0.00000
  12169     243.8338      0.00000
  12170     243.8594      0.00000
  12171     243.8664      0.00000
  12172     243.8851      0.00000
  12173     243.8933      0.00000
  12174     243.9228      0.00000
  12175     243.9469      0.00000
  12176     243.9528      0.00000
  12177     243.9657      0.00000
  12178     243.9785      0.00000
  12179     243.9910      0.00000
  12180     244.0011      0.00000
  12181     244.0235      0.00000
  12182     244.0311      0.00000
  12183     244.0550      0.00000
  12184     244.0958      0.00000
  12185     244.1168      0.00000
  12186     244.1317      0.00000
  12187     244.1529      0.00000
  12188     244.1617      0.00000
  12189     244.1655      0.00000
  12190     244.1828      0.00000
  12191     244.2045      0.00000
  12192     244.2263      0.00000
  12193     244.2339      0.00000
  12194     244.2437      0.00000
  12195     244.2675      0.00000
  12196     244.3124      0.00000
  12197     244.3146      0.00000
  12198     244.3233      0.00000
  12199     244.3487      0.00000
  12200     244.3588      0.00000
  12201     244.3720      0.00000
  12202     244.3932      0.00000
  12203     244.4131      0.00000
  12204     244.4268      0.00000
  12205     244.4346      0.00000
  12206     244.4631      0.00000
  12207     244.4685      0.00000
  12208     244.4715      0.00000
  12209     244.4880      0.00000
  12210     244.5185      0.00000
  12211     244.5217      0.00000
  12212     244.5565      0.00000
  12213     244.5636      0.00000
  12214     244.5962      0.00000
  12215     244.6112      0.00000
  12216     244.6130      0.00000
  12217     244.6355      0.00000
  12218     244.6666      0.00000
  12219     244.6889      0.00000
  12220     244.6982      0.00000
  12221     244.7166      0.00000
  12222     244.7337      0.00000
  12223     244.7485      0.00000
  12224     244.7541      0.00000
  12225     244.7641      0.00000
  12226     244.7762      0.00000
  12227     244.8015      0.00000
  12228     244.8052      0.00000
  12229     244.8292      0.00000
  12230     244.8515      0.00000
  12231     244.8559      0.00000
  12232     244.8637      0.00000
  12233     244.8788      0.00000
  12234     244.9026      0.00000
  12235     244.9233      0.00000
  12236     244.9311      0.00000
  12237     244.9487      0.00000
  12238     244.9587      0.00000
  12239     244.9635      0.00000
  12240     244.9934      0.00000
  12241     245.0229      0.00000
  12242     245.0266      0.00000
  12243     245.0474      0.00000
  12244     245.0693      0.00000
  12245     245.0719      0.00000
  12246     245.0921      0.00000
  12247     245.0982      0.00000
  12248     245.1312      0.00000
  12249     245.1328      0.00000
  12250     245.1476      0.00000
  12251     245.1595      0.00000
  12252     245.1816      0.00000
  12253     245.1858      0.00000
  12254     245.2015      0.00000
  12255     245.2270      0.00000
  12256     245.2413      0.00000
  12257     245.2471      0.00000
  12258     245.2605      0.00000
  12259     245.2751      0.00000
  12260     245.2892      0.00000
  12261     245.2960      0.00000
  12262     245.3179      0.00000
  12263     245.3564      0.00000
  12264     245.3622      0.00000
  12265     245.3640      0.00000
  12266     245.3785      0.00000
  12267     245.3895      0.00000
  12268     245.3996      0.00000
  12269     245.4181      0.00000
  12270     245.4435      0.00000
  12271     245.4460      0.00000
  12272     245.4593      0.00000
  12273     245.4683      0.00000
  12274     245.4846      0.00000
  12275     245.5071      0.00000
  12276     245.5209      0.00000
  12277     245.5347      0.00000
  12278     245.5435      0.00000
  12279     245.5497      0.00000
  12280     245.5710      0.00000
  12281     245.6004      0.00000
  12282     245.6130      0.00000
  12283     245.6281      0.00000
  12284     245.6344      0.00000
  12285     245.6427      0.00000
  12286     245.6532      0.00000
  12287     245.6699      0.00000
  12288     245.6994      0.00000
  12289     245.7228      0.00000
  12290     245.7315      0.00000
  12291     245.7444      0.00000
  12292     245.7670      0.00000
  12293     245.7737      0.00000
  12294     245.7893      0.00000
  12295     245.7997      0.00000
  12296     245.8057      0.00000
  12297     245.8168      0.00000
  12298     245.8443      0.00000
  12299     245.8553      0.00000
  12300     245.8628      0.00000
  12301     245.8787      0.00000
  12302     245.8907      0.00000
  12303     245.8996      0.00000
  12304     245.9155      0.00000
  12305     245.9239      0.00000
  12306     245.9453      0.00000
  12307     245.9689      0.00000
  12308     245.9774      0.00000
  12309     245.9879      0.00000
  12310     246.0122      0.00000
  12311     246.0209      0.00000
  12312     246.0394      0.00000
  12313     246.0554      0.00000
  12314     246.0638      0.00000
  12315     246.0709      0.00000
  12316     246.0964      0.00000
  12317     246.1161      0.00000
  12318     246.1254      0.00000
  12319     246.1385      0.00000
  12320     246.1430      0.00000
  12321     246.1542      0.00000
  12322     246.1709      0.00000
  12323     246.1802      0.00000
  12324     246.1919      0.00000
  12325     246.2092      0.00000
  12326     246.2285      0.00000
  12327     246.2413      0.00000
  12328     246.2477      0.00000
  12329     246.2741      0.00000
  12330     246.2869      0.00000
  12331     246.2889      0.00000
  12332     246.3003      0.00000
  12333     246.3193      0.00000
  12334     246.3552      0.00000
  12335     246.3627      0.00000
  12336     246.3658      0.00000
  12337     246.3786      0.00000
  12338     246.3969      0.00000
  12339     246.4037      0.00000
  12340     246.4332      0.00000
  12341     246.4611      0.00000
  12342     246.4729      0.00000
  12343     246.4899      0.00000
  12344     246.4981      0.00000
  12345     246.5031      0.00000
  12346     246.5129      0.00000
  12347     246.5246      0.00000
  12348     246.5430      0.00000
  12349     246.5511      0.00000
  12350     246.5710      0.00000
  12351     246.5877      0.00000
  12352     246.5971      0.00000
  12353     246.6146      0.00000
  12354     246.6225      0.00000
  12355     246.6329      0.00000
  12356     246.6411      0.00000
  12357     246.6532      0.00000
  12358     246.6704      0.00000
  12359     246.6912      0.00000
  12360     246.7025      0.00000
  12361     246.7256      0.00000
  12362     246.7385      0.00000
  12363     246.7441      0.00000
  12364     246.7593      0.00000
  12365     246.7826      0.00000
  12366     246.8010      0.00000
  12367     246.8079      0.00000
  12368     246.8185      0.00000
  12369     246.8317      0.00000
  12370     246.8358      0.00000
  12371     246.8646      0.00000
  12372     246.8790      0.00000
  12373     246.8934      0.00000
  12374     246.9011      0.00000
  12375     246.9351      0.00000
  12376     246.9409      0.00000
  12377     246.9642      0.00000
  12378     246.9652      0.00000
  12379     246.9723      0.00000
  12380     246.9877      0.00000
  12381     246.9967      0.00000
  12382     247.0146      0.00000
  12383     247.0226      0.00000
  12384     247.0489      0.00000
  12385     247.0617      0.00000
  12386     247.0751      0.00000
  12387     247.0808      0.00000
  12388     247.0925      0.00000
  12389     247.1174      0.00000
  12390     247.1306      0.00000
  12391     247.1438      0.00000
  12392     247.1673      0.00000
  12393     247.1796      0.00000
  12394     247.1990      0.00000
  12395     247.2026      0.00000
  12396     247.2326      0.00000
  12397     247.2587      0.00000
  12398     247.2704      0.00000
  12399     247.2905      0.00000
  12400     247.3011      0.00000
  12401     247.3101      0.00000
  12402     247.3182      0.00000
  12403     247.3259      0.00000
  12404     247.3394      0.00000
  12405     247.3567      0.00000
  12406     247.3679      0.00000
  12407     247.3884      0.00000
  12408     247.3932      0.00000
  12409     247.4131      0.00000
  12410     247.4219      0.00000
  12411     247.4467      0.00000
  12412     247.4702      0.00000
  12413     247.4747      0.00000
  12414     247.5003      0.00000
  12415     247.5154      0.00000
  12416     247.5402      0.00000
  12417     247.5494      0.00000
  12418     247.5639      0.00000
  12419     247.5842      0.00000
  12420     247.5967      0.00000
  12421     247.6078      0.00000
  12422     247.6153      0.00000
  12423     247.6231      0.00000
  12424     247.6528      0.00000
  12425     247.6649      0.00000
  12426     247.6807      0.00000
  12427     247.6892      0.00000
  12428     247.6934      0.00000
  12429     247.7280      0.00000
  12430     247.7343      0.00000
  12431     247.7443      0.00000
  12432     247.7491      0.00000
  12433     247.7696      0.00000
  12434     247.7767      0.00000
  12435     247.7874      0.00000
  12436     247.8009      0.00000
  12437     247.8131      0.00000
  12438     247.8306      0.00000
  12439     247.8338      0.00000
  12440     247.8827      0.00000
  12441     247.8849      0.00000
  12442     247.8961      0.00000
  12443     247.9111      0.00000
  12444     247.9176      0.00000
  12445     247.9344      0.00000
  12446     247.9469      0.00000
  12447     247.9700      0.00000
  12448     247.9797      0.00000
  12449     247.9958      0.00000
  12450     248.0022      0.00000
  12451     248.0165      0.00000
  12452     248.0335      0.00000
  12453     248.0405      0.00000
  12454     248.0655      0.00000
  12455     248.0781      0.00000
  12456     248.0872      0.00000
  12457     248.0941      0.00000
  12458     248.1050      0.00000
  12459     248.1131      0.00000
  12460     248.1275      0.00000
  12461     248.1559      0.00000
  12462     248.1635      0.00000
  12463     248.1807      0.00000
  12464     248.1825      0.00000
  12465     248.2121      0.00000
  12466     248.2191      0.00000
  12467     248.2441      0.00000
  12468     248.2543      0.00000
  12469     248.2694      0.00000
  12470     248.2805      0.00000
  12471     248.2881      0.00000
  12472     248.2978      0.00000
  12473     248.3185      0.00000
  12474     248.3395      0.00000
  12475     248.3547      0.00000
  12476     248.3721      0.00000
  12477     248.3763      0.00000
  12478     248.3886      0.00000
  12479     248.4130      0.00000
  12480     248.4153      0.00000
  12481     248.4285      0.00000
  12482     248.4493      0.00000
  12483     248.4595      0.00000
  12484     248.4639      0.00000
  12485     248.4753      0.00000
  12486     248.4871      0.00000
  12487     248.5100      0.00000
  12488     248.5192      0.00000
  12489     248.5321      0.00000
  12490     248.5498      0.00000
  12491     248.5586      0.00000
  12492     248.5725      0.00000
  12493     248.5823      0.00000
  12494     248.6045      0.00000
  12495     248.6252      0.00000
  12496     248.6324      0.00000
  12497     248.6377      0.00000
  12498     248.6683      0.00000
  12499     248.6782      0.00000
  12500     248.6917      0.00000
  12501     248.6968      0.00000
  12502     248.7273      0.00000
  12503     248.7465      0.00000
  12504     248.7584      0.00000
  12505     248.7709      0.00000
  12506     248.7797      0.00000
  12507     248.7885      0.00000
  12508     248.7965      0.00000
  12509     248.8147      0.00000
  12510     248.8243      0.00000
  12511     248.8328      0.00000
  12512     248.8503      0.00000
  12513     248.8633      0.00000
  12514     248.8803      0.00000
  12515     248.9062      0.00000
  12516     248.9101      0.00000
  12517     248.9364      0.00000
  12518     248.9533      0.00000
  12519     248.9557      0.00000
  12520     248.9833      0.00000
  12521     248.9988      0.00000
  12522     249.0136      0.00000
  12523     249.0157      0.00000
  12524     249.0365      0.00000
  12525     249.0538      0.00000
  12526     249.0658      0.00000
  12527     249.0717      0.00000
  12528     249.0811      0.00000
  12529     249.0941      0.00000
  12530     249.1118      0.00000
  12531     249.1187      0.00000
  12532     249.1317      0.00000
  12533     249.1450      0.00000
  12534     249.1635      0.00000
  12535     249.1746      0.00000
  12536     249.1835      0.00000
  12537     249.2045      0.00000
  12538     249.2323      0.00000
  12539     249.2386      0.00000
  12540     249.2592      0.00000
  12541     249.2644      0.00000
  12542     249.2717      0.00000
  12543     249.2930      0.00000
  12544     249.3015      0.00000
  12545     249.3344      0.00000
  12546     249.3405      0.00000
  12547     249.3559      0.00000
  12548     249.3736      0.00000
  12549     249.3757      0.00000
  12550     249.3915      0.00000
  12551     249.4072      0.00000
  12552     249.4127      0.00000
  12553     249.4253      0.00000
  12554     249.4427      0.00000
  12555     249.4565      0.00000
  12556     249.4709      0.00000
  12557     249.5057      0.00000
  12558     249.5287      0.00000
  12559     249.5375      0.00000
  12560     249.5448      0.00000
  12561     249.5681      0.00000
  12562     249.5770      0.00000
  12563     249.5909      0.00000
  12564     249.6058      0.00000
  12565     249.6106      0.00000
  12566     249.6444      0.00000
  12567     249.6575      0.00000
  12568     249.6717      0.00000
  12569     249.6893      0.00000
  12570     249.6947      0.00000
  12571     249.7098      0.00000
  12572     249.7175      0.00000
  12573     249.7329      0.00000
  12574     249.7433      0.00000
  12575     249.7550      0.00000
  12576     249.7671      0.00000
  12577     249.7830      0.00000
  12578     249.8017      0.00000
  12579     249.8210      0.00000
  12580     249.8421      0.00000
  12581     249.8547      0.00000
  12582     249.8655      0.00000
  12583     249.8833      0.00000
  12584     249.8974      0.00000
  12585     249.9050      0.00000
  12586     249.9142      0.00000
  12587     249.9324      0.00000
  12588     249.9392      0.00000
  12589     249.9645      0.00000
  12590     249.9839      0.00000
  12591     249.9952      0.00000
  12592     250.0079      0.00000
  12593     250.0110      0.00000
  12594     250.0455      0.00000
  12595     250.0517      0.00000
  12596     250.0785      0.00000
  12597     250.0854      0.00000
  12598     250.1004      0.00000
  12599     250.1074      0.00000
  12600     250.1301      0.00000
  12601     250.1367      0.00000
  12602     250.1525      0.00000
  12603     250.1560      0.00000
  12604     250.1796      0.00000
  12605     250.1801      0.00000
  12606     250.2080      0.00000
  12607     250.2141      0.00000
  12608     250.2383      0.00000
  12609     250.2497      0.00000
  12610     250.2542      0.00000
  12611     250.2731      0.00000
  12612     250.2906      0.00000
  12613     250.2970      0.00000
  12614     250.3069      0.00000
  12615     250.3234      0.00000
  12616     250.3350      0.00000
  12617     250.3547      0.00000
  12618     250.3690      0.00000
  12619     250.3919      0.00000
  12620     250.4116      0.00000
  12621     250.4377      0.00000
  12622     250.4404      0.00000
  12623     250.4444      0.00000
  12624     250.4567      0.00000
  12625     250.4711      0.00000
  12626     250.4952      0.00000
  12627     250.5232      0.00000
  12628     250.5411      0.00000
  12629     250.5592      0.00000
  12630     250.5620      0.00000
  12631     250.5671      0.00000
  12632     250.5783      0.00000
  12633     250.5911      0.00000
  12634     250.6016      0.00000
  12635     250.6090      0.00000
  12636     250.6244      0.00000
  12637     250.6465      0.00000
  12638     250.6632      0.00000
  12639     250.6780      0.00000
  12640     250.6965      0.00000
  12641     250.7136      0.00000
  12642     250.7243      0.00000
  12643     250.7333      0.00000
  12644     250.7470      0.00000
  12645     250.7570      0.00000
  12646     250.7876      0.00000
  12647     250.7901      0.00000
  12648     250.8068      0.00000
  12649     250.8127      0.00000
  12650     250.8352      0.00000
  12651     250.8574      0.00000
  12652     250.8643      0.00000
  12653     250.8704      0.00000
  12654     250.8851      0.00000
  12655     250.9085      0.00000
  12656     250.9167      0.00000
  12657     250.9372      0.00000
  12658     250.9586      0.00000
  12659     250.9667      0.00000
  12660     250.9784      0.00000
  12661     250.9978      0.00000
  12662     251.0169      0.00000
  12663     251.0287      0.00000
  12664     251.0564      0.00000
  12665     251.0591      0.00000
  12666     251.0670      0.00000
  12667     251.0814      0.00000
  12668     251.0867      0.00000
  12669     251.1035      0.00000
  12670     251.1223      0.00000
  12671     251.1280      0.00000
  12672     251.1448      0.00000
  12673     251.1733      0.00000
  12674     251.1879      0.00000
  12675     251.1959      0.00000
  12676     251.2087      0.00000
  12677     251.2277      0.00000
  12678     251.2303      0.00000
  12679     251.2357      0.00000
  12680     251.2481      0.00000
  12681     251.2744      0.00000
  12682     251.2834      0.00000
  12683     251.3025      0.00000
  12684     251.3095      0.00000
  12685     251.3257      0.00000
  12686     251.3381      0.00000
  12687     251.3570      0.00000
  12688     251.3639      0.00000
  12689     251.3873      0.00000
  12690     251.4007      0.00000
  12691     251.4129      0.00000
  12692     251.4240      0.00000
  12693     251.4373      0.00000
  12694     251.4512      0.00000
  12695     251.4740      0.00000
  12696     251.4819      0.00000
  12697     251.4907      0.00000
  12698     251.4983      0.00000
  12699     251.5150      0.00000
  12700     251.5297      0.00000
  12701     251.5395      0.00000
  12702     251.5417      0.00000
  12703     251.5590      0.00000
  12704     251.5630      0.00000
  12705     251.5758      0.00000
  12706     251.5868      0.00000
  12707     251.6012      0.00000
  12708     251.6325      0.00000
  12709     251.6371      0.00000
  12710     251.6508      0.00000
  12711     251.6544      0.00000
  12712     251.6677      0.00000
  12713     251.6899      0.00000
  12714     251.6970      0.00000
  12715     251.7034      0.00000
  12716     251.7187      0.00000
  12717     251.7264      0.00000
  12718     251.7449      0.00000
  12719     251.7584      0.00000
  12720     251.7611      0.00000
  12721     251.7754      0.00000
  12722     251.7806      0.00000
  12723     251.8055      0.00000
  12724     251.8176      0.00000
  12725     251.8328      0.00000
  12726     251.8384      0.00000
  12727     251.8540      0.00000
  12728     251.8654      0.00000
  12729     251.8782      0.00000
  12730     251.8851      0.00000
  12731     251.8969      0.00000
  12732     251.9119      0.00000
  12733     251.9287      0.00000
  12734     251.9387      0.00000
  12735     251.9490      0.00000
  12736     251.9640      0.00000
  12737     251.9665      0.00000
  12738     251.9809      0.00000
  12739     252.0000      0.00000
  12740     252.0022      0.00000
  12741     252.0173      0.00000
  12742     252.0367      0.00000
  12743     252.0375      0.00000
  12744     252.0429      0.00000
  12745     252.0715      0.00000
  12746     252.0739      0.00000
  12747     252.0906      0.00000
  12748     252.0970      0.00000
  12749     252.1039      0.00000
  12750     252.1107      0.00000
  12751     252.1337      0.00000
  12752     252.1437      0.00000
  12753     252.1613      0.00000
  12754     252.1714      0.00000
  12755     252.1899      0.00000
  12756     252.2139      0.00000
  12757     252.2195      0.00000
  12758     252.2273      0.00000
  12759     252.2347      0.00000
  12760     252.2426      0.00000
  12761     252.2548      0.00000
  12762     252.2738      0.00000
  12763     252.2844      0.00000
  12764     252.3111      0.00000
  12765     252.3215      0.00000
  12766     252.3242      0.00000
  12767     252.3451      0.00000
  12768     252.3503      0.00000
  12769     252.3540      0.00000
  12770     252.3734      0.00000
  12771     252.3883      0.00000
  12772     252.4019      0.00000
  12773     252.4081      0.00000
  12774     252.4406      0.00000
  12775     252.4563      0.00000
  12776     252.4631      0.00000
  12777     252.4779      0.00000
  12778     252.4868      0.00000
  12779     252.4890      0.00000
  12780     252.5052      0.00000
  12781     252.5200      0.00000
  12782     252.5400      0.00000
  12783     252.5473      0.00000
  12784     252.5732      0.00000
  12785     252.5855      0.00000
  12786     252.5917      0.00000
  12787     252.6008      0.00000
  12788     252.6179      0.00000
  12789     252.6281      0.00000
  12790     252.6465      0.00000
  12791     252.6622      0.00000
  12792     252.6702      0.00000
  12793     252.6764      0.00000
  12794     252.6792      0.00000
  12795     252.6933      0.00000
  12796     252.7190      0.00000
  12797     252.7305      0.00000
  12798     252.7502      0.00000
  12799     252.7696      0.00000
  12800     252.7775      0.00000
  12801     252.8008      0.00000
  12802     252.8063      0.00000
  12803     252.8181      0.00000
  12804     252.8251      0.00000
  12805     252.8466      0.00000
  12806     252.8581      0.00000
  12807     252.8793      0.00000
  12808     252.8906      0.00000
  12809     252.8996      0.00000
  12810     252.9265      0.00000
  12811     252.9418      0.00000
  12812     252.9541      0.00000
  12813     252.9575      0.00000
  12814     252.9774      0.00000
  12815     252.9877      0.00000
  12816     253.0054      0.00000
  12817     253.0115      0.00000
  12818     253.0206      0.00000
  12819     253.0586      0.00000
  12820     253.0687      0.00000
  12821     253.0748      0.00000
  12822     253.0927      0.00000
  12823     253.1137      0.00000
  12824     253.1175      0.00000
  12825     253.1356      0.00000
  12826     253.1462      0.00000
  12827     253.1525      0.00000
  12828     253.1670      0.00000
  12829     253.1788      0.00000
  12830     253.1951      0.00000
  12831     253.2088      0.00000
  12832     253.2231      0.00000
  12833     253.2357      0.00000
  12834     253.2491      0.00000
  12835     253.2676      0.00000
  12836     253.2935      0.00000
  12837     253.3014      0.00000
  12838     253.3099      0.00000
  12839     253.3246      0.00000
  12840     253.3301      0.00000
  12841     253.3533      0.00000
  12842     253.3605      0.00000
  12843     253.3659      0.00000
  12844     253.4038      0.00000
  12845     253.4114      0.00000
  12846     253.4308      0.00000
  12847     253.4499      0.00000
  12848     253.4598      0.00000
  12849     253.4748      0.00000
  12850     253.4846      0.00000
  12851     253.5032      0.00000
  12852     253.5173      0.00000
  12853     253.5420      0.00000
  12854     253.5474      0.00000
  12855     253.5663      0.00000
  12856     253.5963      0.00000
  12857     253.6111      0.00000
  12858     253.6192      0.00000
  12859     253.6346      0.00000
  12860     253.6481      0.00000
  12861     253.6527      0.00000
  12862     253.6770      0.00000
  12863     253.6888      0.00000
  12864     253.7168      0.00000
  12865     253.7300      0.00000
  12866     253.7360      0.00000
  12867     253.7510      0.00000
  12868     253.7694      0.00000
  12869     253.7813      0.00000
  12870     253.7897      0.00000
  12871     253.7987      0.00000
  12872     253.8066      0.00000
  12873     253.8314      0.00000
  12874     253.8589      0.00000
  12875     253.8727      0.00000
  12876     253.8746      0.00000
  12877     253.8913      0.00000
  12878     253.9008      0.00000
  12879     253.9317      0.00000
  12880     253.9442      0.00000
  12881     253.9612      0.00000
  12882     253.9729      0.00000
  12883     253.9751      0.00000
  12884     254.0038      0.00000
  12885     254.0192      0.00000
  12886     254.0278      0.00000
  12887     254.0612      0.00000
  12888     254.0660      0.00000
  12889     254.0737      0.00000
  12890     254.0780      0.00000
  12891     254.1023      0.00000
  12892     254.1211      0.00000
  12893     254.1285      0.00000
  12894     254.1710      0.00000
  12895     254.1788      0.00000
  12896     254.2037      0.00000
  12897     254.2131      0.00000
  12898     254.2204      0.00000
  12899     254.2416      0.00000
  12900     254.2472      0.00000
  12901     254.2660      0.00000
  12902     254.2745      0.00000
  12903     254.2881      0.00000
  12904     254.2951      0.00000
  12905     254.3075      0.00000
  12906     254.3224      0.00000
  12907     254.3415      0.00000
  12908     254.3695      0.00000
  12909     254.3902      0.00000
  12910     254.4007      0.00000
  12911     254.4324      0.00000
  12912     254.4402      0.00000
  12913     254.4542      0.00000
  12914     254.4658      0.00000
  12915     254.4726      0.00000
  12916     254.4836      0.00000
  12917     254.5107      0.00000
  12918     254.5311      0.00000
  12919     254.5410      0.00000
  12920     254.5508      0.00000
  12921     254.5570      0.00000
  12922     254.5712      0.00000
  12923     254.5893      0.00000
  12924     254.6035      0.00000
  12925     254.6190      0.00000
  12926     254.6440      0.00000
  12927     254.6554      0.00000
  12928     254.6657      0.00000
  12929     254.6771      0.00000
  12930     254.6871      0.00000
  12931     254.6911      0.00000
  12932     254.7128      0.00000
  12933     254.7150      0.00000
  12934     254.7344      0.00000
  12935     254.7507      0.00000
  12936     254.7550      0.00000
  12937     254.7739      0.00000
  12938     254.7872      0.00000
  12939     254.8005      0.00000
  12940     254.8240      0.00000
  12941     254.8436      0.00000
  12942     254.8618      0.00000
  12943     254.8659      0.00000
  12944     254.8915      0.00000
  12945     254.9088      0.00000
  12946     254.9140      0.00000
  12947     254.9337      0.00000
  12948     254.9400      0.00000
  12949     254.9498      0.00000
  12950     254.9679      0.00000
  12951     254.9749      0.00000
  12952     255.0047      0.00000
  12953     255.0077      0.00000
  12954     255.0408      0.00000
  12955     255.0442      0.00000
  12956     255.0580      0.00000
  12957     255.0912      0.00000
  12958     255.0914      0.00000
  12959     255.1050      0.00000
  12960     255.1065      0.00000
  12961     255.1206      0.00000
  12962     255.1363      0.00000
  12963     255.1581      0.00000
  12964     255.1699      0.00000
  12965     255.1842      0.00000
  12966     255.1919      0.00000
  12967     255.2088      0.00000
  12968     255.2190      0.00000
  12969     255.2340      0.00000
  12970     255.2485      0.00000
  12971     255.2778      0.00000
  12972     255.2865      0.00000
  12973     255.3098      0.00000
  12974     255.3201      0.00000
  12975     255.3250      0.00000
  12976     255.3297      0.00000
  12977     255.3630      0.00000
  12978     255.3698      0.00000
  12979     255.3827      0.00000
  12980     255.3987      0.00000
  12981     255.4053      0.00000
  12982     255.4245      0.00000
  12983     255.4381      0.00000
  12984     255.4424      0.00000
  12985     255.4557      0.00000
  12986     255.4665      0.00000
  12987     255.4868      0.00000
  12988     255.5080      0.00000
  12989     255.5201      0.00000
  12990     255.5336      0.00000
  12991     255.5440      0.00000
  12992     255.5612      0.00000
  12993     255.5790      0.00000
  12994     255.5854      0.00000
  12995     255.6148      0.00000
  12996     255.6178      0.00000
  12997     255.6256      0.00000
  12998     255.6319      0.00000
  12999     255.6575      0.00000
  13000     255.6784      0.00000
  13001     255.6883      0.00000
  13002     255.7005      0.00000
  13003     255.7130      0.00000
  13004     255.7221      0.00000
  13005     255.7455      0.00000
  13006     255.7575      0.00000
  13007     255.7659      0.00000
  13008     255.7805      0.00000
  13009     255.7994      0.00000
  13010     255.8101      0.00000
  13011     255.8228      0.00000
  13012     255.8245      0.00000
  13013     255.8447      0.00000
  13014     255.8555      0.00000
  13015     255.8675      0.00000
  13016     255.8733      0.00000
  13017     255.8993      0.00000
  13018     255.9160      0.00000
  13019     255.9378      0.00000
  13020     255.9470      0.00000
  13021     255.9513      0.00000
  13022     255.9671      0.00000
  13023     255.9747      0.00000
  13024     256.0067      0.00000
  13025     256.0093      0.00000
  13026     256.0251      0.00000
  13027     256.0361      0.00000
  13028     256.0605      0.00000
  13029     256.0664      0.00000
  13030     256.0703      0.00000
  13031     256.0861      0.00000
  13032     256.1053      0.00000
  13033     256.1234      0.00000
  13034     256.1396      0.00000
  13035     256.1459      0.00000
  13036     256.1618      0.00000
  13037     256.1762      0.00000
  13038     256.2071      0.00000
  13039     256.2178      0.00000
  13040     256.2243      0.00000
  13041     256.2332      0.00000
  13042     256.2655      0.00000
  13043     256.2726      0.00000
  13044     256.2760      0.00000
  13045     256.2817      0.00000
  13046     256.3001      0.00000
  13047     256.3056      0.00000
  13048     256.3145      0.00000
  13049     256.3288      0.00000
  13050     256.3501      0.00000
  13051     256.3819      0.00000
  13052     256.3879      0.00000
  13053     256.3946      0.00000
  13054     256.4063      0.00000
  13055     256.4112      0.00000
  13056     256.4254      0.00000
  13057     256.4389      0.00000
  13058     256.4610      0.00000
  13059     256.4659      0.00000
  13060     256.4986      0.00000
  13061     256.5091      0.00000
  13062     256.5147      0.00000
  13063     256.5461      0.00000
  13064     256.5545      0.00000
  13065     256.5661      0.00000
  13066     256.5733      0.00000
  13067     256.5786      0.00000
  13068     256.5897      0.00000
  13069     256.6037      0.00000
  13070     256.6213      0.00000
  13071     256.6309      0.00000
  13072     256.6397      0.00000
  13073     256.6427      0.00000
  13074     256.6884      0.00000
  13075     256.6931      0.00000
  13076     256.6976      0.00000
  13077     256.7154      0.00000
  13078     256.7329      0.00000
  13079     256.7469      0.00000
  13080     256.7537      0.00000
  13081     256.7667      0.00000
  13082     256.7707      0.00000
  13083     256.7778      0.00000
  13084     256.8000      0.00000
  13085     256.8077      0.00000
  13086     256.8226      0.00000
  13087     256.8337      0.00000
  13088     256.8440      0.00000
  13089     256.8633      0.00000
  13090     256.8731      0.00000
  13091     256.8869      0.00000
  13092     256.9095      0.00000
  13093     256.9263      0.00000
  13094     256.9349      0.00000
  13095     256.9552      0.00000
  13096     256.9576      0.00000
  13097     256.9713      0.00000
  13098     256.9884      0.00000
  13099     256.9964      0.00000
  13100     257.0171      0.00000
  13101     257.0416      0.00000
  13102     257.0549      0.00000
  13103     257.0597      0.00000
  13104     257.0940      0.00000
  13105     257.0998      0.00000
  13106     257.1041      0.00000
  13107     257.1128      0.00000
  13108     257.1340      0.00000
  13109     257.1622      0.00000
  13110     257.1711      0.00000
  13111     257.1758      0.00000
  13112     257.1788      0.00000
  13113     257.1951      0.00000
  13114     257.2100      0.00000
  13115     257.2159      0.00000
  13116     257.2419      0.00000
  13117     257.2498      0.00000
  13118     257.2587      0.00000
  13119     257.2677      0.00000
  13120     257.2749      0.00000
  13121     257.2793      0.00000
  13122     257.3027      0.00000
  13123     257.3116      0.00000
  13124     257.3146      0.00000
  13125     257.3390      0.00000
  13126     257.3405      0.00000
  13127     257.3629      0.00000
  13128     257.3694      0.00000
  13129     257.3867      0.00000
  13130     257.4155      0.00000
  13131     257.4176      0.00000
  13132     257.4340      0.00000
  13133     257.4395      0.00000
  13134     257.4544      0.00000
  13135     257.4612      0.00000
  13136     257.4700      0.00000
  13137     257.4852      0.00000
  13138     257.5028      0.00000
  13139     257.5146      0.00000
  13140     257.5353      0.00000
  13141     257.5489      0.00000
  13142     257.5558      0.00000
  13143     257.5638      0.00000
  13144     257.5867      0.00000
  13145     257.5945      0.00000
  13146     257.6153      0.00000
  13147     257.6239      0.00000
  13148     257.6336      0.00000
  13149     257.6374      0.00000
  13150     257.6510      0.00000
  13151     257.6554      0.00000
  13152     257.6684      0.00000
  13153     257.6877      0.00000
  13154     257.7033      0.00000
  13155     257.7097      0.00000
  13156     257.7252      0.00000
  13157     257.7403      0.00000
  13158     257.7591      0.00000
  13159     257.7943      0.00000
  13160     257.7978      0.00000
  13161     257.8065      0.00000
  13162     257.8176      0.00000
  13163     257.8189      0.00000
  13164     257.8284      0.00000
  13165     257.8498      0.00000
  13166     257.8543      0.00000
  13167     257.8687      0.00000
  13168     257.8845      0.00000
  13169     257.8944      0.00000
  13170     257.9119      0.00000
  13171     257.9136      0.00000
  13172     257.9246      0.00000
  13173     257.9495      0.00000
  13174     257.9549      0.00000
  13175     257.9594      0.00000
  13176     257.9706      0.00000
  13177     257.9916      0.00000
  13178     257.9970      0.00000
  13179     257.9998      0.00000
  13180     258.0097      0.00000
  13181     258.0407      0.00000
  13182     258.0497      0.00000
  13183     258.0532      0.00000
  13184     258.0767      0.00000
  13185     258.0827      0.00000
  13186     258.0915      0.00000
  13187     258.1038      0.00000
  13188     258.1105      0.00000
  13189     258.1194      0.00000
  13190     258.1269      0.00000
  13191     258.1345      0.00000
  13192     258.1413      0.00000
  13193     258.1620      0.00000
  13194     258.1643      0.00000
  13195     258.1786      0.00000
  13196     258.1946      0.00000
  13197     258.2212      0.00000
  13198     258.2238      0.00000
  13199     258.2368      0.00000
  13200     258.2463      0.00000
  13201     258.2574      0.00000
  13202     258.2718      0.00000
  13203     258.2909      0.00000
  13204     258.2982      0.00000
  13205     258.3085      0.00000
  13206     258.3226      0.00000
  13207     258.3326      0.00000
  13208     258.3434      0.00000
  13209     258.3498      0.00000
  13210     258.3615      0.00000
  13211     258.3736      0.00000
  13212     258.3875      0.00000
  13213     258.4074      0.00000
  13214     258.4093      0.00000
  13215     258.4258      0.00000
  13216     258.4433      0.00000
  13217     258.4574      0.00000
  13218     258.4601      0.00000
  13219     258.4783      0.00000
  13220     258.4836      0.00000
  13221     258.4851      0.00000
  13222     258.4993      0.00000
  13223     258.5074      0.00000
  13224     258.5268      0.00000
  13225     258.5304      0.00000
  13226     258.5422      0.00000
  13227     258.5483      0.00000
  13228     258.5613      0.00000
  13229     258.5727      0.00000
  13230     258.5912      0.00000
  13231     258.5960      0.00000
  13232     258.6055      0.00000
  13233     258.6232      0.00000
  13234     258.6314      0.00000
  13235     258.6380      0.00000
  13236     258.6452      0.00000
  13237     258.6668      0.00000
  13238     258.6816      0.00000
  13239     258.6880      0.00000
  13240     258.6918      0.00000
  13241     258.7148      0.00000
  13242     258.7208      0.00000
  13243     258.7313      0.00000
  13244     258.7376      0.00000
  13245     258.7447      0.00000
  13246     258.7553      0.00000
  13247     258.7613      0.00000
  13248     258.7764      0.00000
  13249     258.7918      0.00000
  13250     258.8039      0.00000
  13251     258.8080      0.00000
  13252     258.8203      0.00000
  13253     258.8327      0.00000
  13254     258.8515      0.00000
  13255     258.8655      0.00000
  13256     258.8688      0.00000
  13257     258.8877      0.00000
  13258     258.8999      0.00000
  13259     258.9045      0.00000
  13260     258.9195      0.00000
  13261     258.9296      0.00000
  13262     258.9358      0.00000
  13263     258.9538      0.00000
  13264     258.9627      0.00000
  13265     258.9696      0.00000
  13266     258.9780      0.00000
  13267     258.9865      0.00000
  13268     258.9951      0.00000
  13269     259.0113      0.00000
  13270     259.0196      0.00000
  13271     259.0246      0.00000
  13272     259.0404      0.00000
  13273     259.0442      0.00000
  13274     259.0524      0.00000
  13275     259.0641      0.00000
  13276     259.0879      0.00000
  13277     259.1027      0.00000
  13278     259.1043      0.00000
  13279     259.1226      0.00000
  13280     259.1264      0.00000
  13281     259.1326      0.00000
  13282     259.1421      0.00000
  13283     259.1521      0.00000
  13284     259.1610      0.00000
  13285     259.1720      0.00000
  13286     259.1819      0.00000
  13287     259.1848      0.00000
  13288     259.2023      0.00000
  13289     259.2142      0.00000
  13290     259.2267      0.00000
  13291     259.2414      0.00000
  13292     259.2450      0.00000
  13293     259.2591      0.00000
  13294     259.2641      0.00000
  13295     259.2755      0.00000
  13296     259.2867      0.00000
  13297     259.2969      0.00000
  13298     259.3000      0.00000
  13299     259.3070      0.00000
  13300     259.3246      0.00000
  13301     259.3310      0.00000
  13302     259.3550      0.00000
  13303     259.3587      0.00000
  13304     259.3857      0.00000
  13305     259.3907      0.00000
  13306     259.4028      0.00000
  13307     259.4054      0.00000
  13308     259.4138      0.00000
  13309     259.4390      0.00000
  13310     259.4450      0.00000
  13311     259.4598      0.00000
  13312     259.4619      0.00000
  13313     259.4706      0.00000
  13314     259.4781      0.00000
  13315     259.4946      0.00000
  13316     259.5111      0.00000
  13317     259.5123      0.00000
  13318     259.5238      0.00000
  13319     259.5294      0.00000
  13320     259.5416      0.00000
  13321     259.5615      0.00000
  13322     259.5744      0.00000
  13323     259.5867      0.00000
  13324     259.6022      0.00000
  13325     259.6201      0.00000
  13326     259.6246      0.00000
  13327     259.6343      0.00000
  13328     259.6470      0.00000
  13329     259.6526      0.00000
  13330     259.6678      0.00000
  13331     259.6822      0.00000
  13332     259.6952      0.00000
  13333     259.6997      0.00000
  13334     259.7153      0.00000
  13335     259.7248      0.00000
  13336     259.7300      0.00000
  13337     259.7349      0.00000
  13338     259.7465      0.00000
  13339     259.7633      0.00000
  13340     259.7670      0.00000
  13341     259.7764      0.00000
  13342     259.7915      0.00000
  13343     259.8071      0.00000
  13344     259.8280      0.00000
  13345     259.8364      0.00000
  13346     259.8384      0.00000
  13347     259.8485      0.00000
  13348     259.8573      0.00000
  13349     259.8765      0.00000
  13350     259.8783      0.00000
  13351     259.8933      0.00000
  13352     259.8969      0.00000
  13353     259.9163      0.00000
  13354     259.9248      0.00000
  13355     259.9284      0.00000
  13356     259.9397      0.00000
  13357     259.9412      0.00000
  13358     259.9562      0.00000
  13359     259.9608      0.00000
  13360     259.9712      0.00000
  13361     259.9814      0.00000
  13362     259.9983      0.00000
  13363     260.0053      0.00000
  13364     260.0171      0.00000
  13365     260.0365      0.00000
  13366     260.0415      0.00000
  13367     260.0485      0.00000
  13368     260.0589      0.00000
  13369     260.0740      0.00000
  13370     260.0761      0.00000
  13371     260.0896      0.00000
  13372     260.1047      0.00000
  13373     260.1129      0.00000
  13374     260.1281      0.00000
  13375     260.1318      0.00000
  13376     260.1457      0.00000
  13377     260.1500      0.00000
  13378     260.1614      0.00000
  13379     260.1837      0.00000
  13380     260.2057      0.00000
  13381     260.2094      0.00000
  13382     260.2174      0.00000
  13383     260.2230      0.00000
  13384     260.2336      0.00000
  13385     260.2552      0.00000
  13386     260.2769      0.00000
  13387     260.2804      0.00000
  13388     260.2914      0.00000
  13389     260.3098      0.00000
  13390     260.3203      0.00000
  13391     260.3320      0.00000
  13392     260.3461      0.00000
  13393     260.3530      0.00000
  13394     260.3684      0.00000
  13395     260.3757      0.00000
  13396     260.3913      0.00000
  13397     260.3992      0.00000
  13398     260.4063      0.00000
  13399     260.4217      0.00000
  13400     260.4311      0.00000
  13401     260.4411      0.00000
  13402     260.4507      0.00000
  13403     260.4593      0.00000
  13404     260.4708      0.00000
  13405     260.4768      0.00000
  13406     260.4949      0.00000
  13407     260.5048      0.00000
  13408     260.5138      0.00000
  13409     260.5218      0.00000
  13410     260.5331      0.00000
  13411     260.5348      0.00000
  13412     260.5506      0.00000
  13413     260.5663      0.00000
  13414     260.5836      0.00000
  13415     260.5942      0.00000
  13416     260.6137      0.00000
  13417     260.6201      0.00000
  13418     260.6320      0.00000
  13419     260.6493      0.00000
  13420     260.6598      0.00000
  13421     260.6722      0.00000
  13422     260.6808      0.00000
  13423     260.6907      0.00000
  13424     260.6963      0.00000
  13425     260.7004      0.00000
  13426     260.7062      0.00000
  13427     260.7174      0.00000
  13428     260.7350      0.00000
  13429     260.7436      0.00000
  13430     260.7519      0.00000
  13431     260.7610      0.00000
  13432     260.7677      0.00000
  13433     260.7814      0.00000
  13434     260.7890      0.00000
  13435     260.8177      0.00000
  13436     260.8193      0.00000
  13437     260.8306      0.00000
  13438     260.8475      0.00000
  13439     260.8509      0.00000
  13440     260.8599      0.00000
  13441     260.8716      0.00000
  13442     260.8799      0.00000
  13443     260.8818      0.00000
  13444     260.9038      0.00000
  13445     260.9073      0.00000
  13446     260.9274      0.00000
  13447     260.9430      0.00000
  13448     260.9527      0.00000
  13449     260.9542      0.00000
  13450     260.9705      0.00000
  13451     260.9853      0.00000
  13452     260.9931      0.00000
  13453     261.0048      0.00000
  13454     261.0152      0.00000
  13455     261.0294      0.00000
  13456     261.0466      0.00000
  13457     261.0641      0.00000
  13458     261.0828      0.00000
  13459     261.0876      0.00000
  13460     261.1023      0.00000
  13461     261.1117      0.00000
  13462     261.1147      0.00000
  13463     261.1237      0.00000
  13464     261.1393      0.00000
  13465     261.1543      0.00000
  13466     261.1656      0.00000
  13467     261.1919      0.00000
  13468     261.1930      0.00000
  13469     261.2130      0.00000
  13470     261.2210      0.00000
  13471     261.2345      0.00000
  13472     261.2376      0.00000
  13473     261.2691      0.00000
  13474     261.2727      0.00000
  13475     261.2825      0.00000
  13476     261.2856      0.00000
  13477     261.2966      0.00000
  13478     261.3064      0.00000
  13479     261.3198      0.00000
  13480     261.3440      0.00000
  13481     261.3584      0.00000
  13482     261.3732      0.00000
  13483     261.3762      0.00000
  13484     261.4028      0.00000
  13485     261.4101      0.00000
  13486     261.4284      0.00000
  13487     261.4361      0.00000
  13488     261.4464      0.00000
  13489     261.4581      0.00000
  13490     261.4685      0.00000
  13491     261.4826      0.00000
  13492     261.4982      0.00000
  13493     261.5054      0.00000
  13494     261.5164      0.00000
  13495     261.5268      0.00000
  13496     261.5366      0.00000
  13497     261.5442      0.00000
  13498     261.5662      0.00000
  13499     261.5857      0.00000
  13500     261.5978      0.00000
  13501     261.6150      0.00000
  13502     261.6298      0.00000
  13503     261.6331      0.00000
  13504     261.6469      0.00000
  13505     261.6517      0.00000
  13506     261.6673      0.00000
  13507     261.6774      0.00000
  13508     261.6994      0.00000
  13509     261.7104      0.00000
  13510     261.7282      0.00000
  13511     261.7427      0.00000
  13512     261.7562      0.00000
  13513     261.7578      0.00000
  13514     261.7734      0.00000
  13515     261.7928      0.00000
  13516     261.8131      0.00000
  13517     261.8189      0.00000
  13518     261.8369      0.00000
  13519     261.8434      0.00000
  13520     261.8595      0.00000
  13521     261.8623      0.00000
  13522     261.8863      0.00000
  13523     261.8957      0.00000
  13524     261.9131      0.00000
  13525     261.9240      0.00000
  13526     261.9278      0.00000
  13527     261.9434      0.00000
  13528     261.9509      0.00000
  13529     261.9619      0.00000
  13530     261.9819      0.00000
  13531     261.9919      0.00000
  13532     261.9939      0.00000
  13533     262.0074      0.00000
  13534     262.0259      0.00000
  13535     262.0525      0.00000
  13536     262.0664      0.00000
  13537     262.0727      0.00000
  13538     262.0843      0.00000
  13539     262.1008      0.00000
  13540     262.1093      0.00000
  13541     262.1233      0.00000
  13542     262.1416      0.00000
  13543     262.1475      0.00000
  13544     262.1537      0.00000
  13545     262.1696      0.00000
  13546     262.1824      0.00000
  13547     262.1851      0.00000
  13548     262.2007      0.00000
  13549     262.2060      0.00000
  13550     262.2299      0.00000
  13551     262.2445      0.00000
  13552     262.2632      0.00000
  13553     262.2710      0.00000
  13554     262.2840      0.00000
  13555     262.2931      0.00000
  13556     262.2976      0.00000
  13557     262.3097      0.00000
  13558     262.3110      0.00000
  13559     262.3244      0.00000
  13560     262.3405      0.00000
  13561     262.3659      0.00000
  13562     262.3688      0.00000
  13563     262.3765      0.00000
  13564     262.4025      0.00000
  13565     262.4106      0.00000
  13566     262.4273      0.00000
  13567     262.4445      0.00000
  13568     262.4523      0.00000
  13569     262.4670      0.00000
  13570     262.4751      0.00000
  13571     262.4880      0.00000
  13572     262.4925      0.00000
  13573     262.5134      0.00000
  13574     262.5279      0.00000
  13575     262.5403      0.00000
  13576     262.5557      0.00000
  13577     262.5726      0.00000
  13578     262.5752      0.00000
  13579     262.5885      0.00000
  13580     262.5923      0.00000
  13581     262.6176      0.00000
  13582     262.6312      0.00000
  13583     262.6460      0.00000
  13584     262.6520      0.00000
  13585     262.6567      0.00000
  13586     262.6655      0.00000
  13587     262.6805      0.00000
  13588     262.6899      0.00000
  13589     262.7000      0.00000
  13590     262.7189      0.00000
  13591     262.7277      0.00000
  13592     262.7487      0.00000
  13593     262.7569      0.00000
  13594     262.7781      0.00000
  13595     262.7803      0.00000
  13596     262.7890      0.00000
  13597     262.7928      0.00000
  13598     262.8086      0.00000
  13599     262.8202      0.00000
  13600     262.8256      0.00000
  13601     262.8326      0.00000
  13602     262.8388      0.00000
  13603     262.8508      0.00000
  13604     262.8721      0.00000
  13605     262.8763      0.00000
  13606     262.8896      0.00000
  13607     262.9195      0.00000
  13608     262.9264      0.00000
  13609     262.9325      0.00000
  13610     262.9388      0.00000
  13611     262.9507      0.00000
  13612     262.9560      0.00000
  13613     262.9718      0.00000
  13614     262.9833      0.00000
  13615     262.9904      0.00000
  13616     263.0151      0.00000
  13617     263.0168      0.00000
  13618     263.0331      0.00000
  13619     263.0410      0.00000
  13620     263.0715      0.00000
  13621     263.0833      0.00000
  13622     263.1050      0.00000
  13623     263.1131      0.00000
  13624     263.1299      0.00000
  13625     263.1335      0.00000
  13626     263.1475      0.00000
  13627     263.1535      0.00000
  13628     263.1747      0.00000
  13629     263.1878      0.00000
  13630     263.1967      0.00000
  13631     263.2045      0.00000
  13632     263.2150      0.00000
  13633     263.2334      0.00000
  13634     263.2352      0.00000
  13635     263.2576      0.00000
  13636     263.2624      0.00000
  13637     263.2695      0.00000
  13638     263.2826      0.00000
  13639     263.2996      0.00000
  13640     263.3126      0.00000
  13641     263.3153      0.00000
  13642     263.3310      0.00000
  13643     263.3359      0.00000
  13644     263.3500      0.00000
  13645     263.3573      0.00000
  13646     263.3728      0.00000
  13647     263.3824      0.00000
  13648     263.3988      0.00000
  13649     263.4157      0.00000
  13650     263.4185      0.00000
  13651     263.4331      0.00000
  13652     263.4371      0.00000
  13653     263.4458      0.00000
  13654     263.4598      0.00000
  13655     263.4757      0.00000
  13656     263.4909      0.00000
  13657     263.4994      0.00000
  13658     263.5030      0.00000
  13659     263.5207      0.00000
  13660     263.5238      0.00000
  13661     263.5484      0.00000
  13662     263.5513      0.00000
  13663     263.5646      0.00000
  13664     263.5778      0.00000
  13665     263.5908      0.00000
  13666     263.6051      0.00000
  13667     263.6144      0.00000
  13668     263.6275      0.00000
  13669     263.6430      0.00000
  13670     263.6521      0.00000
  13671     263.6751      0.00000
  13672     263.6810      0.00000
  13673     263.6950      0.00000
  13674     263.6986      0.00000
  13675     263.7206      0.00000
  13676     263.7377      0.00000
  13677     263.7453      0.00000
  13678     263.7502      0.00000
  13679     263.7631      0.00000
  13680     263.7654      0.00000
  13681     263.7843      0.00000
  13682     263.7894      0.00000
  13683     263.8073      0.00000
  13684     263.8180      0.00000
  13685     263.8305      0.00000
  13686     263.8321      0.00000
  13687     263.8484      0.00000
  13688     263.8587      0.00000
  13689     263.8605      0.00000
  13690     263.8802      0.00000
  13691     263.8945      0.00000
  13692     263.9175      0.00000
  13693     263.9288      0.00000
  13694     263.9475      0.00000
  13695     263.9586      0.00000
  13696     263.9706      0.00000
  13697     263.9842      0.00000
  13698     263.9945      0.00000
  13699     263.9982      0.00000
  13700     264.0073      0.00000
  13701     264.0199      0.00000
  13702     264.0274      0.00000
  13703     264.0427      0.00000
  13704     264.0651      0.00000
  13705     264.0708      0.00000
  13706     264.0835      0.00000
  13707     264.1005      0.00000
  13708     264.1224      0.00000
  13709     264.1279      0.00000
  13710     264.1429      0.00000
  13711     264.1655      0.00000
  13712     264.1675      0.00000
  13713     264.1860      0.00000
  13714     264.2007      0.00000
  13715     264.2082      0.00000
  13716     264.2226      0.00000
  13717     264.2372      0.00000
  13718     264.2494      0.00000
  13719     264.2717      0.00000
  13720     264.2794      0.00000
  13721     264.2869      0.00000
  13722     264.2891      0.00000
  13723     264.3103      0.00000
  13724     264.3272      0.00000
  13725     264.3489      0.00000
  13726     264.3545      0.00000
  13727     264.3699      0.00000
  13728     264.3809      0.00000
  13729     264.3881      0.00000
  13730     264.4132      0.00000
  13731     264.4335      0.00000
  13732     264.4382      0.00000
  13733     264.4500      0.00000
  13734     264.4657      0.00000
  13735     264.4770      0.00000
  13736     264.4929      0.00000
  13737     264.5088      0.00000
  13738     264.5348      0.00000
  13739     264.5524      0.00000
  13740     264.5751      0.00000
  13741     264.5847      0.00000
  13742     264.6034      0.00000
  13743     264.6093      0.00000
  13744     264.6243      0.00000
  13745     264.6358      0.00000
  13746     264.6551      0.00000
  13747     264.6562      0.00000
  13748     264.6795      0.00000
  13749     264.6912      0.00000
  13750     264.7149      0.00000
  13751     264.7270      0.00000
  13752     264.7386      0.00000
  13753     264.7573      0.00000
  13754     264.7664      0.00000
  13755     264.7839      0.00000
  13756     264.7851      0.00000
  13757     264.7973      0.00000
  13758     264.7984      0.00000
  13759     264.8321      0.00000
  13760     264.8397      0.00000
  13761     264.8633      0.00000
  13762     264.8853      0.00000
  13763     264.8909      0.00000
  13764     264.9097      0.00000
  13765     264.9199      0.00000
  13766     264.9333      0.00000
  13767     264.9437      0.00000
  13768     264.9548      0.00000
  13769     264.9727      0.00000
  13770     264.9805      0.00000
  13771     264.9968      0.00000
  13772     265.0071      0.00000
  13773     265.0192      0.00000
  13774     265.0434      0.00000
  13775     265.0571      0.00000
  13776     265.0716      0.00000
  13777     265.0840      0.00000
  13778     265.1069      0.00000
  13779     265.1126      0.00000
  13780     265.1270      0.00000
  13781     265.1365      0.00000
  13782     265.1650      0.00000
  13783     265.1677      0.00000
  13784     265.1802      0.00000
  13785     265.1991      0.00000
  13786     265.2088      0.00000
  13787     265.2109      0.00000
  13788     265.2343      0.00000
  13789     265.2592      0.00000
  13790     265.2786      0.00000
  13791     265.2886      0.00000
  13792     265.2982      0.00000
  13793     265.3032      0.00000
  13794     265.3327      0.00000
  13795     265.3520      0.00000
  13796     265.3582      0.00000
  13797     265.3687      0.00000
  13798     265.3803      0.00000
  13799     265.4012      0.00000
  13800     265.4108      0.00000
  13801     265.4249      0.00000
  13802     265.4355      0.00000
  13803     265.4481      0.00000
  13804     265.4654      0.00000
  13805     265.4855      0.00000
  13806     265.5056      0.00000
  13807     265.5148      0.00000
  13808     265.5419      0.00000
  13809     265.5489      0.00000
  13810     265.5600      0.00000
  13811     265.5743      0.00000
  13812     265.5992      0.00000
  13813     265.6021      0.00000
  13814     265.6030      0.00000
  13815     265.6304      0.00000
  13816     265.6478      0.00000
  13817     265.6587      0.00000
  13818     265.6642      0.00000
  13819     265.7007      0.00000
  13820     265.7074      0.00000
  13821     265.7231      0.00000
  13822     265.7244      0.00000
  13823     265.7457      0.00000
  13824     265.7485      0.00000
  13825     265.7644      0.00000
  13826     265.7871      0.00000
  13827     265.8006      0.00000
  13828     265.8239      0.00000
  13829     265.8323      0.00000
  13830     265.8499      0.00000
  13831     265.8532      0.00000
  13832     265.8726      0.00000
  13833     265.8752      0.00000
  13834     265.8915      0.00000
  13835     265.9190      0.00000
  13836     265.9318      0.00000
  13837     265.9475      0.00000
  13838     265.9539      0.00000
  13839     265.9701      0.00000
  13840     265.9799      0.00000
  13841     265.9883      0.00000
  13842     265.9949      0.00000
  13843     266.0147      0.00000
  13844     266.0331      0.00000
  13845     266.0487      0.00000
  13846     266.0693      0.00000
  13847     266.0818      0.00000
  13848     266.0893      0.00000
  13849     266.1063      0.00000
  13850     266.1260      0.00000
  13851     266.1292      0.00000
  13852     266.1509      0.00000
  13853     266.1759      0.00000
  13854     266.1833      0.00000
  13855     266.1998      0.00000
  13856     266.2245      0.00000
  13857     266.2316      0.00000
  13858     266.2327      0.00000
  13859     266.2581      0.00000
  13860     266.2781      0.00000
  13861     266.2938      0.00000
  13862     266.2973      0.00000
  13863     266.3216      0.00000
  13864     266.3366      0.00000
  13865     266.3466      0.00000
  13866     266.3703      0.00000
  13867     266.3739      0.00000
  13868     266.3858      0.00000
  13869     266.3911      0.00000
  13870     266.4042      0.00000
  13871     266.4295      0.00000
  13872     266.4398      0.00000
  13873     266.4600      0.00000
  13874     266.4673      0.00000
  13875     266.4787      0.00000
  13876     266.4840      0.00000
  13877     266.5048      0.00000
  13878     266.5180      0.00000
  13879     266.5239      0.00000
  13880     266.5343      0.00000
  13881     266.5377      0.00000
  13882     266.5692      0.00000
  13883     266.5871      0.00000
  13884     266.6077      0.00000
  13885     266.6113      0.00000
  13886     266.6184      0.00000
  13887     266.6635      0.00000
  13888     266.6717      0.00000
  13889     266.6802      0.00000
  13890     266.7132      0.00000
  13891     266.7159      0.00000
  13892     266.7318      0.00000
  13893     266.7400      0.00000
  13894     266.7571      0.00000
  13895     266.7770      0.00000
  13896     266.7773      0.00000
  13897     266.7910      0.00000
  13898     266.8007      0.00000
  13899     266.8243      0.00000
  13900     266.8337      0.00000
  13901     266.8445      0.00000
  13902     266.8569      0.00000
  13903     266.8702      0.00000
  13904     266.8876      0.00000
  13905     266.8940      0.00000
  13906     266.9009      0.00000
  13907     266.9201      0.00000
  13908     266.9226      0.00000
  13909     266.9470      0.00000
  13910     266.9652      0.00000
  13911     266.9657      0.00000
  13912     266.9919      0.00000
  13913     267.0056      0.00000
  13914     267.0169      0.00000
  13915     267.0327      0.00000
  13916     267.0469      0.00000
  13917     267.0553      0.00000
  13918     267.0675      0.00000
  13919     267.0763      0.00000
  13920     267.0815      0.00000
  13921     267.0974      0.00000
  13922     267.1194      0.00000
  13923     267.1233      0.00000
  13924     267.1435      0.00000
  13925     267.1634      0.00000
  13926     267.1806      0.00000
  13927     267.1873      0.00000
  13928     267.1979      0.00000
  13929     267.2059      0.00000
  13930     267.2216      0.00000
  13931     267.2329      0.00000
  13932     267.2503      0.00000
  13933     267.2759      0.00000
  13934     267.2764      0.00000
  13935     267.2833      0.00000
  13936     267.3029      0.00000
  13937     267.3166      0.00000
  13938     267.3397      0.00000
  13939     267.3474      0.00000
  13940     267.3592      0.00000
  13941     267.3811      0.00000
  13942     267.4051      0.00000
  13943     267.4276      0.00000
  13944     267.4294      0.00000
  13945     267.4445      0.00000
  13946     267.4541      0.00000
  13947     267.4724      0.00000
  13948     267.4800      0.00000
  13949     267.4912      0.00000
  13950     267.5104      0.00000
  13951     267.5376      0.00000
  13952     267.5461      0.00000
  13953     267.5515      0.00000
  13954     267.5734      0.00000
  13955     267.5795      0.00000
  13956     267.5993      0.00000
  13957     267.6086      0.00000
  13958     267.6334      0.00000
  13959     267.6404      0.00000
  13960     267.6468      0.00000
  13961     267.6552      0.00000
  13962     267.6658      0.00000
  13963     267.6746      0.00000
  13964     267.6959      0.00000
  13965     267.7055      0.00000
  13966     267.7230      0.00000
  13967     267.7347      0.00000
  13968     267.7377      0.00000
  13969     267.7525      0.00000
  13970     267.7601      0.00000
  13971     267.7811      0.00000
  13972     267.8094      0.00000
  13973     267.8190      0.00000
  13974     267.8257      0.00000
  13975     267.8346      0.00000
  13976     267.8502      0.00000
  13977     267.8530      0.00000
  13978     267.8775      0.00000
  13979     267.8980      0.00000
  13980     267.9016      0.00000
  13981     267.9244      0.00000
  13982     267.9325      0.00000
  13983     267.9431      0.00000
  13984     267.9520      0.00000
  13985     267.9552      0.00000
  13986     267.9748      0.00000
  13987     267.9833      0.00000
  13988     267.9986      0.00000
  13989     268.0106      0.00000
  13990     268.0344      0.00000
  13991     268.0382      0.00000
  13992     268.0488      0.00000
  13993     268.0609      0.00000
  13994     268.0748      0.00000
  13995     268.0982      0.00000
  13996     268.1057      0.00000
  13997     268.1103      0.00000
  13998     268.1264      0.00000
  13999     268.1333      0.00000
  14000     268.1392      0.00000
  14001     268.1548      0.00000
  14002     268.1710      0.00000
  14003     268.1866      0.00000
  14004     268.1919      0.00000
  14005     268.2059      0.00000
  14006     268.2167      0.00000
  14007     268.2398      0.00000
  14008     268.2558      0.00000
  14009     268.2637      0.00000
  14010     268.2878      0.00000
  14011     268.2914      0.00000
  14012     268.2960      0.00000
  14013     268.3049      0.00000
  14014     268.3301      0.00000
  14015     268.3382      0.00000
  14016     268.3574      0.00000
  14017     268.3679      0.00000
  14018     268.3829      0.00000
  14019     268.3884      0.00000
  14020     268.3951      0.00000
  14021     268.4077      0.00000
  14022     268.4273      0.00000
  14023     268.4345      0.00000
  14024     268.4527      0.00000
  14025     268.4728      0.00000
  14026     268.4871      0.00000
  14027     268.4892      0.00000
  14028     268.4972      0.00000
  14029     268.5084      0.00000
  14030     268.5202      0.00000
  14031     268.5301      0.00000
  14032     268.5403      0.00000
  14033     268.5514      0.00000
  14034     268.5627      0.00000
  14035     268.5704      0.00000
  14036     268.5843      0.00000
  14037     268.5980      0.00000
  14038     268.6028      0.00000
  14039     268.6119      0.00000
  14040     268.6272      0.00000
  14041     268.6433      0.00000
  14042     268.6556      0.00000
  14043     268.6567      0.00000
  14044     268.6667      0.00000
  14045     268.6909      0.00000
  14046     268.7044      0.00000
  14047     268.7208      0.00000
  14048     268.7321      0.00000
  14049     268.7424      0.00000
  14050     268.7518      0.00000
  14051     268.7670      0.00000
  14052     268.7783      0.00000
  14053     268.7859      0.00000
  14054     268.7905      0.00000
  14055     268.8030      0.00000
  14056     268.8095      0.00000
  14057     268.8214      0.00000
  14058     268.8283      0.00000
  14059     268.8339      0.00000
  14060     268.8443      0.00000
  14061     268.8561      0.00000
  14062     268.8634      0.00000
  14063     268.8894      0.00000
  14064     268.9039      0.00000
  14065     268.9189      0.00000
  14066     268.9220      0.00000
  14067     268.9441      0.00000
  14068     268.9533      0.00000
  14069     268.9587      0.00000
  14070     268.9704      0.00000
  14071     268.9797      0.00000
  14072     269.0014      0.00000
  14073     269.0163      0.00000
  14074     269.0207      0.00000
  14075     269.0289      0.00000
  14076     269.0371      0.00000
  14077     269.0516      0.00000
  14078     269.0573      0.00000
  14079     269.0799      0.00000
  14080     269.0932      0.00000
  14081     269.0974      0.00000
  14082     269.1051      0.00000
  14083     269.1193      0.00000
  14084     269.1543      0.00000
  14085     269.1639      0.00000
  14086     269.1747      0.00000
  14087     269.1802      0.00000
  14088     269.1927      0.00000
  14089     269.1988      0.00000
  14090     269.2098      0.00000
  14091     269.2181      0.00000
  14092     269.2247      0.00000
  14093     269.2365      0.00000
  14094     269.2436      0.00000
  14095     269.2566      0.00000
  14096     269.2662      0.00000
  14097     269.2728      0.00000
  14098     269.2888      0.00000
  14099     269.2959      0.00000
  14100     269.3198      0.00000
  14101     269.3294      0.00000
  14102     269.3388      0.00000
  14103     269.3504      0.00000
  14104     269.3601      0.00000
  14105     269.3751      0.00000
  14106     269.3883      0.00000
  14107     269.4042      0.00000
  14108     269.4124      0.00000
  14109     269.4203      0.00000
  14110     269.4265      0.00000
  14111     269.4374      0.00000
  14112     269.4504      0.00000
  14113     269.4676      0.00000
  14114     269.4704      0.00000
  14115     269.4853      0.00000
  14116     269.4978      0.00000
  14117     269.5230      0.00000
  14118     269.5286      0.00000
  14119     269.5452      0.00000
  14120     269.5478      0.00000
  14121     269.5618      0.00000
  14122     269.5668      0.00000
  14123     269.5769      0.00000
  14124     269.5938      0.00000
  14125     269.5999      0.00000
  14126     269.6070      0.00000
  14127     269.6234      0.00000
  14128     269.6361      0.00000
  14129     269.6449      0.00000
  14130     269.6674      0.00000
  14131     269.6703      0.00000
  14132     269.6836      0.00000
  14133     269.6857      0.00000
  14134     269.7038      0.00000
  14135     269.7145      0.00000
  14136     269.7257      0.00000
  14137     269.7346      0.00000
  14138     269.7372      0.00000
  14139     269.7471      0.00000
  14140     269.7577      0.00000
  14141     269.7698      0.00000
  14142     269.7785      0.00000
  14143     269.7926      0.00000
  14144     269.7952      0.00000
  14145     269.7976      0.00000
  14146     269.8247      0.00000
  14147     269.8324      0.00000
  14148     269.8352      0.00000
  14149     269.8530      0.00000
  14150     269.8672      0.00000
  14151     269.8773      0.00000
  14152     269.8939      0.00000
  14153     269.8955      0.00000
  14154     269.9055      0.00000
  14155     269.9332      0.00000
  14156     269.9453      0.00000
  14157     269.9505      0.00000
  14158     269.9597      0.00000
  14159     269.9643      0.00000
  14160     269.9809      0.00000
  14161     269.9873      0.00000
  14162     270.0077      0.00000
  14163     270.0129      0.00000
  14164     270.0222      0.00000
  14165     270.0314      0.00000
  14166     270.0464      0.00000
  14167     270.0620      0.00000
  14168     270.0744      0.00000
  14169     270.0844      0.00000
  14170     270.0894      0.00000
  14171     270.1068      0.00000
  14172     270.1201      0.00000
  14173     270.1365      0.00000
  14174     270.1416      0.00000
  14175     270.1478      0.00000
  14176     270.1625      0.00000
  14177     270.1662      0.00000
  14178     270.1777      0.00000
  14179     270.1844      0.00000
  14180     270.2009      0.00000
  14181     270.2181      0.00000
  14182     270.2264      0.00000
  14183     270.2297      0.00000
  14184     270.2509      0.00000
  14185     270.2590      0.00000
  14186     270.2607      0.00000
  14187     270.2759      0.00000
  14188     270.2792      0.00000
  14189     270.3092      0.00000
  14190     270.3160      0.00000
  14191     270.3278      0.00000
  14192     270.3331      0.00000
  14193     270.3616      0.00000
  14194     270.3769      0.00000
  14195     270.3854      0.00000
  14196     270.4028      0.00000
  14197     270.4087      0.00000
  14198     270.4158      0.00000
  14199     270.4277      0.00000
  14200     270.4370      0.00000
  14201     270.4501      0.00000
  14202     270.4560      0.00000
  14203     270.4684      0.00000
  14204     270.4761      0.00000
  14205     270.4973      0.00000
  14206     270.5069      0.00000
  14207     270.5275      0.00000
  14208     270.5320      0.00000
  14209     270.5395      0.00000
  14210     270.5632      0.00000
  14211     270.5702      0.00000
  14212     270.5810      0.00000
  14213     270.5921      0.00000
  14214     270.5990      0.00000
  14215     270.6108      0.00000
  14216     270.6264      0.00000
  14217     270.6401      0.00000
  14218     270.6482      0.00000
  14219     270.6543      0.00000
  14220     270.6646      0.00000
  14221     270.6961      0.00000
  14222     270.7043      0.00000
  14223     270.7365      0.00000
  14224     270.7438      0.00000
  14225     270.7613      0.00000
  14226     270.7707      0.00000
  14227     270.7835      0.00000
  14228     270.7933      0.00000
  14229     270.8020      0.00000
  14230     270.8163      0.00000
  14231     270.8312      0.00000
  14232     270.8443      0.00000
  14233     270.8538      0.00000
  14234     270.8687      0.00000
  14235     270.8766      0.00000
  14236     270.8919      0.00000
  14237     270.9058      0.00000
  14238     270.9083      0.00000
  14239     270.9261      0.00000
  14240     270.9351      0.00000
  14241     270.9428      0.00000
  14242     270.9513      0.00000
  14243     270.9757      0.00000
  14244     270.9953      0.00000
  14245     271.0083      0.00000
  14246     271.0185      0.00000
  14247     271.0261      0.00000
  14248     271.0457      0.00000
  14249     271.0628      0.00000
  14250     271.0772      0.00000
  14251     271.0860      0.00000
  14252     271.1035      0.00000
  14253     271.1137      0.00000
  14254     271.1229      0.00000
  14255     271.1353      0.00000
  14256     271.1563      0.00000
  14257     271.1665      0.00000
  14258     271.1838      0.00000
  14259     271.1928      0.00000
  14260     271.2119      0.00000
  14261     271.2157      0.00000
  14262     271.2365      0.00000
  14263     271.2640      0.00000
  14264     271.2670      0.00000
  14265     271.2827      0.00000
  14266     271.3028      0.00000
  14267     271.3159      0.00000
  14268     271.3300      0.00000
  14269     271.3422      0.00000
  14270     271.3512      0.00000
  14271     271.3551      0.00000
  14272     271.3629      0.00000
  14273     271.3999      0.00000
  14274     271.4063      0.00000
  14275     271.4238      0.00000
  14276     271.4568      0.00000
  14277     271.4657      0.00000
  14278     271.4718      0.00000
  14279     271.4862      0.00000
  14280     271.5054      0.00000
  14281     271.5208      0.00000
  14282     271.5296      0.00000
  14283     271.5465      0.00000
  14284     271.5674      0.00000
  14285     271.5852      0.00000
  14286     271.5993      0.00000
  14287     271.6098      0.00000
  14288     271.6234      0.00000
  14289     271.6501      0.00000
  14290     271.6550      0.00000
  14291     271.6626      0.00000
  14292     271.6743      0.00000
  14293     271.6902      0.00000
  14294     271.7027      0.00000
  14295     271.7084      0.00000
  14296     271.7206      0.00000
  14297     271.7324      0.00000
  14298     271.7485      0.00000
  14299     271.7682      0.00000
  14300     271.7828      0.00000
  14301     271.7944      0.00000
  14302     271.8011      0.00000
  14303     271.8248      0.00000
  14304     271.8379      0.00000
  14305     271.8570      0.00000
  14306     271.8659      0.00000
  14307     271.8764      0.00000
  14308     271.8826      0.00000
  14309     271.9005      0.00000
  14310     271.9209      0.00000
  14311     271.9258      0.00000
  14312     271.9307      0.00000
  14313     271.9510      0.00000
  14314     271.9633      0.00000
  14315     271.9828      0.00000
  14316     272.0000      0.00000
  14317     272.0137      0.00000
  14318     272.0245      0.00000
  14319     272.0406      0.00000
  14320     272.0419      0.00000
  14321     272.0678      0.00000
  14322     272.0757      0.00000
  14323     272.0870      0.00000
  14324     272.1060      0.00000
  14325     272.1144      0.00000
  14326     272.1319      0.00000
  14327     272.1366      0.00000
  14328     272.1620      0.00000
  14329     272.1637      0.00000
  14330     272.1802      0.00000
  14331     272.1990      0.00000
  14332     272.2337      0.00000
  14333     272.2395      0.00000
  14334     272.2448      0.00000
  14335     272.2593      0.00000
  14336     272.2793      0.00000
  14337     272.2862      0.00000
  14338     272.3024      0.00000
  14339     272.3127      0.00000
  14340     272.3238      0.00000
  14341     272.3423      0.00000
  14342     272.3607      0.00000
  14343     272.3766      0.00000
  14344     272.3946      0.00000
  14345     272.4066      0.00000
  14346     272.4135      0.00000
  14347     272.4246      0.00000
  14348     272.4445      0.00000
  14349     272.4453      0.00000
  14350     272.4568      0.00000
  14351     272.4851      0.00000
  14352     272.4994      0.00000
  14353     272.5079      0.00000
  14354     272.5226      0.00000
  14355     272.5319      0.00000
  14356     272.5424      0.00000
  14357     272.5775      0.00000
  14358     272.5810      0.00000
  14359     272.6069      0.00000
  14360     272.6176      0.00000
  14361     272.6242      0.00000
  14362     272.6419      0.00000
  14363     272.6500      0.00000
  14364     272.6659      0.00000
  14365     272.6766      0.00000
  14366     272.7125      0.00000
  14367     272.7178      0.00000
  14368     272.7287      0.00000
  14369     272.7524      0.00000
  14370     272.7607      0.00000
  14371     272.7718      0.00000
  14372     272.7902      0.00000
  14373     272.7915      0.00000
  14374     272.8061      0.00000
  14375     272.8252      0.00000
  14376     272.8413      0.00000
  14377     272.8504      0.00000
  14378     272.8663      0.00000
  14379     272.8786      0.00000
  14380     272.8891      0.00000
  14381     272.9127      0.00000
  14382     272.9270      0.00000
  14383     272.9367      0.00000
  14384     272.9465      0.00000
  14385     272.9662      0.00000
  14386     272.9694      0.00000
  14387     272.9895      0.00000
  14388     273.0039      0.00000
  14389     273.0075      0.00000
  14390     273.0205      0.00000
  14391     273.0349      0.00000
  14392     273.0372      0.00000
  14393     273.0536      0.00000
  14394     273.0833      0.00000
  14395     273.0918      0.00000
  14396     273.1110      0.00000
  14397     273.1199      0.00000
  14398     273.1342      0.00000
  14399     273.1422      0.00000
  14400     273.1688      0.00000
  14401     273.1842      0.00000
  14402     273.2035      0.00000
  14403     273.2098      0.00000
  14404     273.2200      0.00000
  14405     273.2303      0.00000
  14406     273.2426      0.00000
  14407     273.2608      0.00000
  14408     273.2714      0.00000
  14409     273.2718      0.00000
  14410     273.3015      0.00000
  14411     273.3150      0.00000
  14412     273.3232      0.00000
  14413     273.3509      0.00000
  14414     273.3542      0.00000
  14415     273.3635      0.00000
  14416     273.3726      0.00000
  14417     273.3913      0.00000
  14418     273.4025      0.00000
  14419     273.4159      0.00000
  14420     273.4285      0.00000
  14421     273.4306      0.00000
  14422     273.4394      0.00000
  14423     273.4510      0.00000
  14424     273.4595      0.00000
  14425     273.4773      0.00000
  14426     273.4949      0.00000
  14427     273.5026      0.00000
  14428     273.5195      0.00000
  14429     273.5365      0.00000
  14430     273.5453      0.00000
  14431     273.5596      0.00000
  14432     273.5643      0.00000
  14433     273.5939      0.00000
  14434     273.6051      0.00000
  14435     273.6241      0.00000
  14436     273.6398      0.00000
  14437     273.6515      0.00000
  14438     273.6545      0.00000
  14439     273.6640      0.00000
  14440     273.6797      0.00000
  14441     273.6859      0.00000
  14442     273.7017      0.00000
  14443     273.7088      0.00000
  14444     273.7465      0.00000
  14445     273.7486      0.00000
  14446     273.7647      0.00000
  14447     273.7810      0.00000
  14448     273.8012      0.00000
  14449     273.8141      0.00000
  14450     273.8302      0.00000
  14451     273.8387      0.00000
  14452     273.8482      0.00000
  14453     273.8553      0.00000
  14454     273.8684      0.00000
  14455     273.8776      0.00000
  14456     273.8955      0.00000
  14457     273.8997      0.00000
  14458     273.9106      0.00000
  14459     273.9290      0.00000
  14460     273.9452      0.00000
  14461     273.9492      0.00000
  14462     273.9723      0.00000
  14463     273.9757      0.00000
  14464     273.9924      0.00000
  14465     274.0130      0.00000
  14466     274.0197      0.00000
  14467     274.0384      0.00000
  14468     274.0551      0.00000
  14469     274.0611      0.00000
  14470     274.0675      0.00000
  14471     274.0885      0.00000
  14472     274.1018      0.00000
  14473     274.1214      0.00000
  14474     274.1250      0.00000
  14475     274.1412      0.00000
  14476     274.1508      0.00000
  14477     274.1736      0.00000
  14478     274.1890      0.00000
  14479     274.1980      0.00000
  14480     274.2035      0.00000
  14481     274.2208      0.00000
  14482     274.2373      0.00000
  14483     274.2549      0.00000
  14484     274.2701      0.00000
  14485     274.2792      0.00000
  14486     274.3045      0.00000
  14487     274.3255      0.00000
  14488     274.3428      0.00000
  14489     274.3592      0.00000
  14490     274.3604      0.00000
  14491     274.3663      0.00000
  14492     274.3943      0.00000
  14493     274.4104      0.00000
  14494     274.4299      0.00000
  14495     274.4485      0.00000
  14496     274.4573      0.00000
  14497     274.4774      0.00000
  14498     274.4807      0.00000
  14499     274.4984      0.00000
  14500     274.5152      0.00000
  14501     274.5366      0.00000
  14502     274.5413      0.00000
  14503     274.5549      0.00000
  14504     274.5666      0.00000
  14505     274.5734      0.00000
  14506     274.5936      0.00000
  14507     274.6057      0.00000
  14508     274.6147      0.00000
  14509     274.6227      0.00000
  14510     274.6309      0.00000
  14511     274.6447      0.00000
  14512     274.6550      0.00000
  14513     274.6788      0.00000
  14514     274.7037      0.00000
  14515     274.7165      0.00000
  14516     274.7206      0.00000
  14517     274.7540      0.00000
  14518     274.7697      0.00000
  14519     274.7859      0.00000
  14520     274.7992      0.00000
  14521     274.8122      0.00000
  14522     274.8233      0.00000
  14523     274.8392      0.00000
  14524     274.8451      0.00000
  14525     274.8710      0.00000
  14526     274.8819      0.00000
  14527     274.8980      0.00000
  14528     274.9139      0.00000
  14529     274.9321      0.00000
  14530     274.9376      0.00000
  14531     274.9567      0.00000
  14532     274.9640      0.00000
  14533     274.9904      0.00000
  14534     274.9989      0.00000
  14535     275.0274      0.00000
  14536     275.0364      0.00000
  14537     275.0594      0.00000
  14538     275.0605      0.00000
  14539     275.0679      0.00000
  14540     275.0770      0.00000
  14541     275.0785      0.00000
  14542     275.1034      0.00000
  14543     275.1237      0.00000
  14544     275.1487      0.00000
  14545     275.1645      0.00000
  14546     275.1768      0.00000
  14547     275.1883      0.00000
  14548     275.1996      0.00000
  14549     275.2107      0.00000
  14550     275.2281      0.00000
  14551     275.2387      0.00000
  14552     275.2446      0.00000
  14553     275.2758      0.00000
  14554     275.2783      0.00000
  14555     275.2931      0.00000
  14556     275.3166      0.00000
  14557     275.3276      0.00000
  14558     275.3327      0.00000
  14559     275.3506      0.00000
  14560     275.3687      0.00000
  14561     275.3867      0.00000
  14562     275.3961      0.00000
  14563     275.4176      0.00000
  14564     275.4292      0.00000
  14565     275.4475      0.00000
  14566     275.4645      0.00000
  14567     275.4737      0.00000
  14568     275.4853      0.00000
  14569     275.5009      0.00000
  14570     275.5054      0.00000
  14571     275.5190      0.00000
  14572     275.5319      0.00000
  14573     275.5432      0.00000
  14574     275.5511      0.00000
  14575     275.5652      0.00000
  14576     275.5785      0.00000
  14577     275.6007      0.00000
  14578     275.6089      0.00000
  14579     275.6310      0.00000
  14580     275.6451      0.00000
  14581     275.6544      0.00000
  14582     275.6675      0.00000
  14583     275.6702      0.00000
  14584     275.6908      0.00000
  14585     275.7017      0.00000
  14586     275.7075      0.00000
  14587     275.7356      0.00000
  14588     275.7410      0.00000
  14589     275.7596      0.00000
  14590     275.7630      0.00000
  14591     275.7810      0.00000
  14592     275.7913      0.00000
  14593     275.8065      0.00000
  14594     275.8193      0.00000
  14595     275.8230      0.00000
  14596     275.8314      0.00000
  14597     275.8459      0.00000
  14598     275.8612      0.00000
  14599     275.8688      0.00000
  14600     275.8854      0.00000
  14601     275.9196      0.00000
  14602     275.9219      0.00000
  14603     275.9291      0.00000
  14604     275.9476      0.00000
  14605     275.9705      0.00000
  14606     275.9812      0.00000
  14607     275.9975      0.00000
  14608     276.0096      0.00000
  14609     276.0313      0.00000
  14610     276.0441      0.00000
  14611     276.0578      0.00000
  14612     276.0756      0.00000
  14613     276.0812      0.00000
  14614     276.0881      0.00000
  14615     276.0992      0.00000
  14616     276.1194      0.00000
  14617     276.1324      0.00000
  14618     276.1422      0.00000
  14619     276.1533      0.00000
  14620     276.1698      0.00000
  14621     276.1807      0.00000
  14622     276.2006      0.00000
  14623     276.2082      0.00000
  14624     276.2169      0.00000
  14625     276.2228      0.00000
  14626     276.2322      0.00000
  14627     276.2474      0.00000
  14628     276.2484      0.00000
  14629     276.2741      0.00000
  14630     276.2976      0.00000
  14631     276.3102      0.00000
  14632     276.3190      0.00000
  14633     276.3284      0.00000
  14634     276.3401      0.00000
  14635     276.3496      0.00000
  14636     276.3607      0.00000
  14637     276.3705      0.00000
  14638     276.3852      0.00000
  14639     276.3969      0.00000
  14640     276.3998      0.00000
  14641     276.4104      0.00000
  14642     276.4211      0.00000
  14643     276.4357      0.00000
  14644     276.4476      0.00000
  14645     276.4660      0.00000
  14646     276.4829      0.00000
  14647     276.4956      0.00000
  14648     276.5048      0.00000
  14649     276.5249      0.00000
  14650     276.5291      0.00000
  14651     276.5399      0.00000
  14652     276.5562      0.00000
  14653     276.5707      0.00000
  14654     276.5842      0.00000
  14655     276.5991      0.00000
  14656     276.6043      0.00000
  14657     276.6127      0.00000
  14658     276.6413      0.00000
  14659     276.6450      0.00000
  14660     276.6573      0.00000
  14661     276.6808      0.00000
  14662     276.6930      0.00000
  14663     276.7060      0.00000
  14664     276.7190      0.00000
  14665     276.7226      0.00000
  14666     276.7409      0.00000
  14667     276.7582      0.00000
  14668     276.7784      0.00000
  14669     276.8026      0.00000
  14670     276.8074      0.00000
  14671     276.8137      0.00000
  14672     276.8231      0.00000
  14673     276.8349      0.00000
  14674     276.8497      0.00000
  14675     276.8719      0.00000
  14676     276.8741      0.00000
  14677     276.8859      0.00000
  14678     276.8913      0.00000
  14679     276.9048      0.00000
  14680     276.9178      0.00000
  14681     276.9247      0.00000
  14682     276.9532      0.00000
  14683     276.9640      0.00000
  14684     276.9744      0.00000
  14685     276.9794      0.00000
  14686     277.0125      0.00000
  14687     277.0153      0.00000
  14688     277.0377      0.00000
  14689     277.0500      0.00000
  14690     277.0635      0.00000
  14691     277.0725      0.00000
  14692     277.0800      0.00000
  14693     277.0983      0.00000
  14694     277.1199      0.00000
  14695     277.1267      0.00000
  14696     277.1421      0.00000
  14697     277.1456      0.00000
  14698     277.1718      0.00000
  14699     277.1832      0.00000
  14700     277.1920      0.00000
  14701     277.2042      0.00000
  14702     277.2170      0.00000
  14703     277.2317      0.00000
  14704     277.2546      0.00000
  14705     277.2751      0.00000
  14706     277.2775      0.00000
  14707     277.2885      0.00000
  14708     277.3077      0.00000
  14709     277.3158      0.00000
  14710     277.3259      0.00000
  14711     277.3369      0.00000
  14712     277.3572      0.00000
  14713     277.3671      0.00000
  14714     277.3933      0.00000
  14715     277.3964      0.00000
  14716     277.4057      0.00000
  14717     277.4190      0.00000
  14718     277.4261      0.00000
  14719     277.4323      0.00000
  14720     277.4682      0.00000
  14721     277.4811      0.00000
  14722     277.4961      0.00000
  14723     277.5001      0.00000
  14724     277.5094      0.00000
  14725     277.5219      0.00000
  14726     277.5293      0.00000
  14727     277.5478      0.00000
  14728     277.5541      0.00000
  14729     277.5652      0.00000
  14730     277.5947      0.00000
  14731     277.6047      0.00000
  14732     277.6168      0.00000
  14733     277.6316      0.00000
  14734     277.6407      0.00000
  14735     277.6465      0.00000
  14736     277.6626      0.00000
  14737     277.6701      0.00000
  14738     277.6995      0.00000
  14739     277.7001      0.00000
  14740     277.7189      0.00000
  14741     277.7247      0.00000
  14742     277.7293      0.00000
  14743     277.7616      0.00000
  14744     277.7761      0.00000
  14745     277.7844      0.00000
  14746     277.7871      0.00000
  14747     277.8085      0.00000
  14748     277.8143      0.00000
  14749     277.8248      0.00000
  14750     277.8278      0.00000
  14751     277.8539      0.00000
  14752     277.8572      0.00000
  14753     277.8617      0.00000
  14754     277.8733      0.00000
  14755     277.9053      0.00000
  14756     277.9180      0.00000
  14757     277.9342      0.00000
  14758     277.9398      0.00000
  14759     277.9468      0.00000
  14760     277.9651      0.00000
  14761     277.9711      0.00000
  14762     277.9943      0.00000
  14763     278.0017      0.00000
  14764     278.0136      0.00000
  14765     278.0284      0.00000
  14766     278.0390      0.00000
  14767     278.0506      0.00000
  14768     278.0628      0.00000
  14769     278.0763      0.00000
  14770     278.0952      0.00000
  14771     278.1069      0.00000
  14772     278.1088      0.00000
  14773     278.1287      0.00000
  14774     278.1302      0.00000
  14775     278.1513      0.00000
  14776     278.1626      0.00000
  14777     278.1704      0.00000
  14778     278.1750      0.00000
  14779     278.1924      0.00000
  14780     278.2065      0.00000
  14781     278.2175      0.00000
  14782     278.2291      0.00000
  14783     278.2354      0.00000
  14784     278.2603      0.00000
  14785     278.2686      0.00000
  14786     278.2801      0.00000
  14787     278.2977      0.00000
  14788     278.3030      0.00000
  14789     278.3188      0.00000
  14790     278.3245      0.00000
  14791     278.3379      0.00000
  14792     278.3569      0.00000
  14793     278.3685      0.00000
  14794     278.3687      0.00000
  14795     278.3863      0.00000
  14796     278.3899      0.00000
  14797     278.3973      0.00000
  14798     278.4104      0.00000
  14799     278.4351      0.00000
  14800     278.4395      0.00000
  14801     278.4573      0.00000
  14802     278.4679      0.00000
  14803     278.4959      0.00000
  14804     278.5032      0.00000
  14805     278.5075      0.00000
  14806     278.5173      0.00000
  14807     278.5295      0.00000
  14808     278.5533      0.00000
  14809     278.5560      0.00000
  14810     278.5755      0.00000
  14811     278.5786      0.00000
  14812     278.5856      0.00000
  14813     278.5952      0.00000
  14814     278.6089      0.00000
  14815     278.6212      0.00000
  14816     278.6413      0.00000
  14817     278.6503      0.00000
  14818     278.6581      0.00000
  14819     278.6712      0.00000
  14820     278.6917      0.00000
  14821     278.6960      0.00000
  14822     278.7016      0.00000
  14823     278.7169      0.00000
  14824     278.7203      0.00000
  14825     278.7273      0.00000
  14826     278.7334      0.00000
  14827     278.7450      0.00000
  14828     278.7683      0.00000
  14829     278.7820      0.00000
  14830     278.7950      0.00000
  14831     278.7974      0.00000
  14832     278.8213      0.00000
  14833     278.8240      0.00000
  14834     278.8382      0.00000
  14835     278.8440      0.00000
  14836     278.8671      0.00000
  14837     278.8820      0.00000
  14838     278.8838      0.00000
  14839     278.8990      0.00000
  14840     278.9098      0.00000
  14841     278.9198      0.00000
  14842     278.9299      0.00000
  14843     278.9442      0.00000
  14844     278.9525      0.00000
  14845     278.9651      0.00000
  14846     278.9755      0.00000
  14847     278.9919      0.00000
  14848     279.0046      0.00000
  14849     279.0048      0.00000
  14850     279.0295      0.00000
  14851     279.0337      0.00000
  14852     279.0632      0.00000
  14853     279.0728      0.00000
  14854     279.0872      0.00000
  14855     279.0951      0.00000
  14856     279.1070      0.00000
  14857     279.1180      0.00000
  14858     279.1260      0.00000
  14859     279.1383      0.00000
  14860     279.1407      0.00000
  14861     279.1622      0.00000
  14862     279.1743      0.00000
  14863     279.1753      0.00000
  14864     279.1816      0.00000
  14865     279.2001      0.00000
  14866     279.2209      0.00000
  14867     279.2250      0.00000
  14868     279.2389      0.00000
  14869     279.2481      0.00000
  14870     279.2607      0.00000
  14871     279.2673      0.00000
  14872     279.2806      0.00000
  14873     279.2866      0.00000
  14874     279.2919      0.00000
  14875     279.3013      0.00000
  14876     279.3210      0.00000
  14877     279.3408      0.00000
  14878     279.3535      0.00000
  14879     279.3574      0.00000
  14880     279.3592      0.00000
  14881     279.3669      0.00000
  14882     279.4013      0.00000
  14883     279.4115      0.00000
  14884     279.4187      0.00000
  14885     279.4220      0.00000
  14886     279.4408      0.00000
  14887     279.4481      0.00000
  14888     279.4624      0.00000
  14889     279.4638      0.00000
  14890     279.4824      0.00000
  14891     279.4976      0.00000
  14892     279.5043      0.00000
  14893     279.5238      0.00000
  14894     279.5337      0.00000
  14895     279.5478      0.00000
  14896     279.5554      0.00000
  14897     279.5665      0.00000
  14898     279.5823      0.00000
  14899     279.5899      0.00000
  14900     279.6139      0.00000
  14901     279.6199      0.00000
  14902     279.6405      0.00000
  14903     279.6532      0.00000
  14904     279.6637      0.00000
  14905     279.6693      0.00000
  14906     279.6969      0.00000
  14907     279.7103      0.00000
  14908     279.7132      0.00000
  14909     279.7170      0.00000
  14910     279.7407      0.00000
  14911     279.7522      0.00000
  14912     279.7572      0.00000
  14913     279.7642      0.00000
  14914     279.7676      0.00000
  14915     279.7866      0.00000
  14916     279.7879      0.00000
  14917     279.8047      0.00000
  14918     279.8152      0.00000
  14919     279.8350      0.00000
  14920     279.8434      0.00000
  14921     279.8594      0.00000
  14922     279.8670      0.00000
  14923     279.8736      0.00000
  14924     279.8962      0.00000
  14925     279.9059      0.00000
  14926     279.9181      0.00000
  14927     279.9358      0.00000
  14928     279.9486      0.00000
  14929     279.9521      0.00000
  14930     279.9565      0.00000
  14931     279.9800      0.00000
  14932     279.9843      0.00000
  14933     279.9961      0.00000
  14934     280.0016      0.00000
  14935     280.0179      0.00000
  14936     280.0243      0.00000
  14937     280.0385      0.00000
  14938     280.0682      0.00000
  14939     280.0742      0.00000
  14940     280.0785      0.00000
  14941     280.0918      0.00000
  14942     280.1082      0.00000
  14943     280.1197      0.00000
  14944     280.1264      0.00000
  14945     280.1360      0.00000
  14946     280.1461      0.00000
  14947     280.1686      0.00000
  14948     280.1767      0.00000
  14949     280.1916      0.00000
  14950     280.1967      0.00000
  14951     280.2104      0.00000
  14952     280.2184      0.00000
  14953     280.2268      0.00000
  14954     280.2427      0.00000
  14955     280.2684      0.00000
  14956     280.2803      0.00000
  14957     280.2968      0.00000
  14958     280.3105      0.00000
  14959     280.3251      0.00000
  14960     280.3392      0.00000
  14961     280.3479      0.00000
  14962     280.3684      0.00000
  14963     280.3797      0.00000
  14964     280.3913      0.00000
  14965     280.4145      0.00000
  14966     280.4155      0.00000
  14967     280.4260      0.00000
  14968     280.4342      0.00000
  14969     280.4416      0.00000
  14970     280.4633      0.00000
  14971     280.4679      0.00000
  14972     280.4747      0.00000
  14973     280.4833      0.00000
  14974     280.5005      0.00000
  14975     280.5177      0.00000
  14976     280.5206      0.00000
  14977     280.5299      0.00000
  14978     280.5442      0.00000
  14979     280.5601      0.00000
  14980     280.5698      0.00000
  14981     280.5790      0.00000
  14982     280.5853      0.00000
  14983     280.6126      0.00000
  14984     280.6183      0.00000
  14985     280.6305      0.00000
  14986     280.6356      0.00000
  14987     280.6536      0.00000
  14988     280.6664      0.00000
  14989     280.6703      0.00000
  14990     280.6769      0.00000
  14991     280.6800      0.00000
  14992     280.7013      0.00000
  14993     280.7149      0.00000
  14994     280.7204      0.00000
  14995     280.7423      0.00000
  14996     280.7509      0.00000
  14997     280.7585      0.00000
  14998     280.7729      0.00000
  14999     280.7787      0.00000
  15000     280.7961      0.00000
  15001     280.7996      0.00000
  15002     280.8230      0.00000
  15003     280.8283      0.00000
  15004     280.8393      0.00000
  15005     280.8541      0.00000
  15006     280.8665      0.00000
  15007     280.8766      0.00000
  15008     280.8920      0.00000
  15009     280.9022      0.00000
  15010     280.9125      0.00000
  15011     280.9244      0.00000
  15012     280.9314      0.00000
  15013     280.9538      0.00000
  15014     280.9572      0.00000
  15015     280.9753      0.00000
  15016     280.9880      0.00000
  15017     281.0101      0.00000
  15018     281.0282      0.00000
  15019     281.0371      0.00000
  15020     281.0403      0.00000
  15021     281.0426      0.00000
  15022     281.0607      0.00000
  15023     281.0901      0.00000
  15024     281.0938      0.00000
  15025     281.0970      0.00000
  15026     281.1230      0.00000
  15027     281.1336      0.00000
  15028     281.1444      0.00000
  15029     281.1540      0.00000
  15030     281.1640      0.00000
  15031     281.1800      0.00000
  15032     281.1995      0.00000
  15033     281.2089      0.00000
  15034     281.2098      0.00000
  15035     281.2215      0.00000
  15036     281.2363      0.00000
  15037     281.2480      0.00000
  15038     281.2604      0.00000
  15039     281.2758      0.00000
  15040     281.2810      0.00000
  15041     281.2852      0.00000
  15042     281.3267      0.00000
  15043     281.3312      0.00000
  15044     281.3411      0.00000
  15045     281.3509      0.00000
  15046     281.3732      0.00000
  15047     281.3783      0.00000
  15048     281.3951      0.00000
  15049     281.4211      0.00000
  15050     281.4284      0.00000
  15051     281.4485      0.00000
  15052     281.4624      0.00000
  15053     281.4769      0.00000
  15054     281.4972      0.00000
  15055     281.5053      0.00000
  15056     281.5111      0.00000
  15057     281.5200      0.00000
  15058     281.5327      0.00000
  15059     281.5438      0.00000
  15060     281.5517      0.00000
  15061     281.5803      0.00000
  15062     281.5827      0.00000
  15063     281.6011      0.00000
  15064     281.6153      0.00000
  15065     281.6285      0.00000
  15066     281.6490      0.00000
  15067     281.6663      0.00000
  15068     281.6913      0.00000
  15069     281.6961      0.00000
  15070     281.7100      0.00000
  15071     281.7220      0.00000
  15072     281.7267      0.00000
  15073     281.7405      0.00000
  15074     281.7549      0.00000
  15075     281.7596      0.00000
  15076     281.7841      0.00000
  15077     281.8077      0.00000
  15078     281.8217      0.00000
  15079     281.8381      0.00000
  15080     281.8466      0.00000
  15081     281.8637      0.00000
  15082     281.8752      0.00000
  15083     281.8820      0.00000
  15084     281.8976      0.00000
  15085     281.9193      0.00000
  15086     281.9314      0.00000
  15087     281.9373      0.00000
  15088     281.9542      0.00000
  15089     281.9592      0.00000
  15090     281.9775      0.00000
  15091     281.9927      0.00000
  15092     282.0078      0.00000
  15093     282.0151      0.00000
  15094     282.0201      0.00000
  15095     282.0350      0.00000
  15096     282.0496      0.00000
  15097     282.0615      0.00000
  15098     282.0781      0.00000
  15099     282.0878      0.00000
  15100     282.1096      0.00000
  15101     282.1256      0.00000
  15102     282.1302      0.00000
  15103     282.1494      0.00000
  15104     282.1638      0.00000
  15105     282.1899      0.00000
  15106     282.1940      0.00000
  15107     282.2089      0.00000
  15108     282.2174      0.00000
  15109     282.2250      0.00000
  15110     282.2328      0.00000
  15111     282.2532      0.00000
  15112     282.2696      0.00000
  15113     282.2736      0.00000
  15114     282.2966      0.00000
  15115     282.3121      0.00000
  15116     282.3291      0.00000
  15117     282.3350      0.00000
  15118     282.3397      0.00000
  15119     282.3663      0.00000
  15120     282.3777      0.00000
  15121     282.3944      0.00000
  15122     282.4024      0.00000
  15123     282.4192      0.00000
  15124     282.4366      0.00000
  15125     282.4452      0.00000
  15126     282.4771      0.00000
  15127     282.4852      0.00000
  15128     282.4994      0.00000
  15129     282.5043      0.00000
  15130     282.5175      0.00000
  15131     282.5437      0.00000
  15132     282.5518      0.00000
  15133     282.5608      0.00000
  15134     282.5743      0.00000
  15135     282.5799      0.00000
  15136     282.6000      0.00000
  15137     282.6091      0.00000
  15138     282.6293      0.00000
  15139     282.6419      0.00000
  15140     282.6533      0.00000
  15141     282.6705      0.00000
  15142     282.6819      0.00000
  15143     282.6999      0.00000
  15144     282.7130      0.00000
  15145     282.7287      0.00000
  15146     282.7360      0.00000
  15147     282.7488      0.00000
  15148     282.7668      0.00000
  15149     282.7889      0.00000
  15150     282.8051      0.00000
  15151     282.8142      0.00000
  15152     282.8292      0.00000
  15153     282.8507      0.00000
  15154     282.8552      0.00000
  15155     282.8617      0.00000
  15156     282.8714      0.00000
  15157     282.8856      0.00000
  15158     282.8972      0.00000
  15159     282.9153      0.00000
  15160     282.9278      0.00000
  15161     282.9492      0.00000
  15162     282.9611      0.00000
  15163     282.9707      0.00000
  15164     282.9801      0.00000
  15165     282.9927      0.00000
  15166     283.0251      0.00000
  15167     283.0296      0.00000
  15168     283.0463      0.00000
  15169     283.0504      0.00000
  15170     283.0548      0.00000
  15171     283.0697      0.00000
  15172     283.0721      0.00000
  15173     283.0992      0.00000
  15174     283.1162      0.00000
  15175     283.1312      0.00000
  15176     283.1339      0.00000
  15177     283.1476      0.00000
  15178     283.1598      0.00000
  15179     283.1666      0.00000
  15180     283.1835      0.00000
  15181     283.2023      0.00000
  15182     283.2048      0.00000
  15183     283.2227      0.00000
  15184     283.2279      0.00000
  15185     283.2441      0.00000
  15186     283.2606      0.00000
  15187     283.2783      0.00000
  15188     283.2950      0.00000
  15189     283.3024      0.00000
  15190     283.3147      0.00000
  15191     283.3319      0.00000
  15192     283.3503      0.00000
  15193     283.3548      0.00000
  15194     283.3631      0.00000
  15195     283.3731      0.00000
  15196     283.3851      0.00000
  15197     283.3935      0.00000
  15198     283.4140      0.00000
  15199     283.4456      0.00000
  15200     283.4482      0.00000
  15201     283.4559      0.00000
  15202     283.4649      0.00000
  15203     283.4822      0.00000
  15204     283.5100      0.00000
  15205     283.5202      0.00000
  15206     283.5290      0.00000
  15207     283.5335      0.00000
  15208     283.5471      0.00000
  15209     283.5635      0.00000
  15210     283.5741      0.00000
  15211     283.5835      0.00000
  15212     283.5901      0.00000
  15213     283.6035      0.00000
  15214     283.6208      0.00000
  15215     283.6290      0.00000
  15216     283.6447      0.00000
  15217     283.6555      0.00000
  15218     283.6734      0.00000
  15219     283.6829      0.00000
  15220     283.6847      0.00000
  15221     283.7105      0.00000
  15222     283.7341      0.00000
  15223     283.7385      0.00000
  15224     283.7457      0.00000
  15225     283.7572      0.00000
  15226     283.7730      0.00000
  15227     283.7863      0.00000
  15228     283.8035      0.00000
  15229     283.8069      0.00000
  15230     283.8222      0.00000
  15231     283.8443      0.00000
  15232     283.8608      0.00000
  15233     283.8676      0.00000
  15234     283.8865      0.00000
  15235     283.8952      0.00000
  15236     283.9046      0.00000
  15237     283.9268      0.00000
  15238     283.9396      0.00000
  15239     283.9534      0.00000
  15240     283.9624      0.00000
  15241     283.9891      0.00000
  15242     283.9915      0.00000
  15243     284.0107      0.00000
  15244     284.0310      0.00000
  15245     284.0511      0.00000
  15246     284.0583      0.00000
  15247     284.0648      0.00000
  15248     284.0701      0.00000
  15249     284.0998      0.00000
  15250     284.1111      0.00000
  15251     284.1216      0.00000
  15252     284.1329      0.00000
  15253     284.1445      0.00000
  15254     284.1603      0.00000
  15255     284.1712      0.00000
  15256     284.1841      0.00000
  15257     284.1889      0.00000
  15258     284.1991      0.00000
  15259     284.2239      0.00000
  15260     284.2313      0.00000
  15261     284.2372      0.00000
  15262     284.2525      0.00000
  15263     284.2593      0.00000
  15264     284.2785      0.00000
  15265     284.2943      0.00000
  15266     284.3121      0.00000
  15267     284.3230      0.00000
  15268     284.3325      0.00000
  15269     284.3385      0.00000
  15270     284.3506      0.00000
  15271     284.3657      0.00000
  15272     284.3788      0.00000
  15273     284.4043      0.00000
  15274     284.4127      0.00000
  15275     284.4140      0.00000
  15276     284.4207      0.00000
  15277     284.4331      0.00000
  15278     284.4410      0.00000
  15279     284.4586      0.00000
  15280     284.4684      0.00000
  15281     284.4714      0.00000
  15282     284.5059      0.00000
  15283     284.5111      0.00000
  15284     284.5178      0.00000
  15285     284.5308      0.00000
  15286     284.5461      0.00000
  15287     284.5607      0.00000
  15288     284.5644      0.00000
  15289     284.5821      0.00000
  15290     284.5927      0.00000
  15291     284.6053      0.00000
  15292     284.6208      0.00000
  15293     284.6408      0.00000
  15294     284.6449      0.00000
  15295     284.6550      0.00000
  15296     284.6669      0.00000
  15297     284.6762      0.00000
  15298     284.6813      0.00000
  15299     284.7091      0.00000
  15300     284.7216      0.00000
  15301     284.7275      0.00000
  15302     284.7323      0.00000
  15303     284.7448      0.00000
  15304     284.7528      0.00000
  15305     284.7623      0.00000
  15306     284.7769      0.00000
  15307     284.8001      0.00000
  15308     284.8082      0.00000
  15309     284.8213      0.00000
  15310     284.8357      0.00000
  15311     284.8410      0.00000
  15312     284.8502      0.00000
  15313     284.8683      0.00000
  15314     284.8717      0.00000
  15315     284.8814      0.00000
  15316     284.8838      0.00000
  15317     284.9121      0.00000
  15318     284.9159      0.00000
  15319     284.9318      0.00000
  15320     284.9528      0.00000
  15321     284.9706      0.00000
  15322     284.9823      0.00000
  15323     284.9941      0.00000
  15324     285.0065      0.00000
  15325     285.0126      0.00000
  15326     285.0243      0.00000
  15327     285.0313      0.00000
  15328     285.0506      0.00000
  15329     285.0544      0.00000
  15330     285.0619      0.00000
  15331     285.0795      0.00000
  15332     285.0998      0.00000
  15333     285.1072      0.00000
  15334     285.1271      0.00000
  15335     285.1289      0.00000
  15336     285.1357      0.00000
  15337     285.1466      0.00000
  15338     285.1548      0.00000
  15339     285.1703      0.00000
  15340     285.1750      0.00000
  15341     285.1874      0.00000
  15342     285.2052      0.00000
  15343     285.2077      0.00000
  15344     285.2180      0.00000
  15345     285.2412      0.00000
  15346     285.2462      0.00000
  15347     285.2611      0.00000
  15348     285.2737      0.00000
  15349     285.2798      0.00000
  15350     285.2976      0.00000
  15351     285.3235      0.00000
  15352     285.3299      0.00000
  15353     285.3341      0.00000
  15354     285.3538      0.00000
  15355     285.3638      0.00000
  15356     285.3765      0.00000
  15357     285.3881      0.00000
  15358     285.4011      0.00000
  15359     285.4228      0.00000
  15360     285.4318      0.00000
  15361     285.4365      0.00000
  15362     285.4394      0.00000
  15363     285.4516      0.00000
  15364     285.4621      0.00000
  15365     285.4786      0.00000
  15366     285.4873      0.00000
  15367     285.5081      0.00000
  15368     285.5134      0.00000
  15369     285.5237      0.00000
  15370     285.5403      0.00000
  15371     285.5504      0.00000
  15372     285.5579      0.00000
  15373     285.5637      0.00000
  15374     285.5837      0.00000
  15375     285.6031      0.00000
  15376     285.6119      0.00000
  15377     285.6210      0.00000
  15378     285.6375      0.00000
  15379     285.6446      0.00000
  15380     285.6559      0.00000
  15381     285.6752      0.00000
  15382     285.6808      0.00000
  15383     285.7000      0.00000
  15384     285.7064      0.00000
  15385     285.7141      0.00000
  15386     285.7342      0.00000
  15387     285.7477      0.00000
  15388     285.7603      0.00000
  15389     285.7706      0.00000
  15390     285.7774      0.00000
  15391     285.7972      0.00000
  15392     285.8053      0.00000
  15393     285.8191      0.00000
  15394     285.8201      0.00000
  15395     285.8465      0.00000
  15396     285.8610      0.00000
  15397     285.8694      0.00000
  15398     285.8814      0.00000
  15399     285.8880      0.00000
  15400     285.9064      0.00000
  15401     285.9185      0.00000
  15402     285.9282      0.00000
  15403     285.9372      0.00000
  15404     285.9478      0.00000
  15405     285.9570      0.00000
  15406     285.9742      0.00000
  15407     285.9803      0.00000
  15408     285.9958      0.00000
  15409     286.0059      0.00000
  15410     286.0148      0.00000
  15411     286.0379      0.00000
  15412     286.0451      0.00000
  15413     286.0599      0.00000
  15414     286.0795      0.00000
  15415     286.0840      0.00000
  15416     286.0881      0.00000
  15417     286.1051      0.00000
  15418     286.1265      0.00000
  15419     286.1329      0.00000
  15420     286.1486      0.00000
  15421     286.1596      0.00000
  15422     286.1657      0.00000
  15423     286.1839      0.00000
  15424     286.2013      0.00000
  15425     286.2038      0.00000
  15426     286.2184      0.00000
  15427     286.2226      0.00000
  15428     286.2387      0.00000
  15429     286.2505      0.00000
  15430     286.2701      0.00000
  15431     286.2794      0.00000
  15432     286.2873      0.00000
  15433     286.3002      0.00000
  15434     286.3087      0.00000
  15435     286.3179      0.00000
  15436     286.3293      0.00000
  15437     286.3492      0.00000
  15438     286.3591      0.00000
  15439     286.3844      0.00000
  15440     286.3919      0.00000
  15441     286.3979      0.00000
  15442     286.4044      0.00000
  15443     286.4161      0.00000
  15444     286.4233      0.00000
  15445     286.4474      0.00000
  15446     286.4602      0.00000
  15447     286.4700      0.00000
  15448     286.4759      0.00000
  15449     286.4876      0.00000
  15450     286.5057      0.00000
  15451     286.5147      0.00000
  15452     286.5183      0.00000
  15453     286.5316      0.00000
  15454     286.5472      0.00000
  15455     286.5559      0.00000
  15456     286.5773      0.00000
  15457     286.5907      0.00000
  15458     286.5995      0.00000
  15459     286.6081      0.00000
  15460     286.6229      0.00000
  15461     286.6284      0.00000
  15462     286.6492      0.00000
  15463     286.6688      0.00000
  15464     286.6771      0.00000
  15465     286.6830      0.00000
  15466     286.7000      0.00000
  15467     286.7112      0.00000
  15468     286.7203      0.00000
  15469     286.7300      0.00000
  15470     286.7453      0.00000
  15471     286.7620      0.00000
  15472     286.7723      0.00000
  15473     286.7806      0.00000
  15474     286.7871      0.00000
  15475     286.8069      0.00000
  15476     286.8175      0.00000
  15477     286.8192      0.00000
  15478     286.8473      0.00000
  15479     286.8515      0.00000
  15480     286.8765      0.00000
  15481     286.8819      0.00000
  15482     286.8944      0.00000
  15483     286.8970      0.00000
  15484     286.9078      0.00000
  15485     286.9226      0.00000
  15486     286.9350      0.00000
  15487     286.9457      0.00000
  15488     286.9841      0.00000
  15489     286.9862      0.00000
  15490     286.9947      0.00000
  15491     287.0133      0.00000
  15492     287.0163      0.00000
  15493     287.0273      0.00000
  15494     287.0333      0.00000
  15495     287.0424      0.00000
  15496     287.0627      0.00000
  15497     287.0766      0.00000
  15498     287.0795      0.00000
  15499     287.0884      0.00000
  15500     287.1018      0.00000
  15501     287.1088      0.00000
  15502     287.1373      0.00000
  15503     287.1462      0.00000
  15504     287.1694      0.00000
  15505     287.1809      0.00000
  15506     287.1982      0.00000
  15507     287.2127      0.00000
  15508     287.2171      0.00000
  15509     287.2414      0.00000
  15510     287.2606      0.00000
  15511     287.2709      0.00000
  15512     287.2777      0.00000
  15513     287.2893      0.00000
  15514     287.3008      0.00000
  15515     287.3041      0.00000
  15516     287.3248      0.00000
  15517     287.3343      0.00000
  15518     287.3437      0.00000
  15519     287.3555      0.00000
  15520     287.3637      0.00000
  15521     287.3774      0.00000
  15522     287.3901      0.00000
  15523     287.4176      0.00000
  15524     287.4184      0.00000
  15525     287.4389      0.00000
  15526     287.4458      0.00000
  15527     287.4691      0.00000
  15528     287.4818      0.00000
  15529     287.4885      0.00000
  15530     287.4964      0.00000
  15531     287.5054      0.00000
  15532     287.5110      0.00000
  15533     287.5281      0.00000
  15534     287.5340      0.00000
  15535     287.5520      0.00000
  15536     287.5644      0.00000
  15537     287.5736      0.00000
  15538     287.5965      0.00000
  15539     287.6019      0.00000
  15540     287.6149      0.00000
  15541     287.6194      0.00000
  15542     287.6309      0.00000
  15543     287.6507      0.00000
  15544     287.6635      0.00000
  15545     287.6755      0.00000
  15546     287.6954      0.00000
  15547     287.7051      0.00000
  15548     287.7167      0.00000
  15549     287.7216      0.00000
  15550     287.7404      0.00000
  15551     287.7501      0.00000
  15552     287.7739      0.00000
  15553     287.7937      0.00000
  15554     287.8004      0.00000
  15555     287.8129      0.00000
  15556     287.8360      0.00000
  15557     287.8458      0.00000
  15558     287.8513      0.00000
  15559     287.8553      0.00000
  15560     287.8640      0.00000
  15561     287.8806      0.00000
  15562     287.8853      0.00000
  15563     287.9062      0.00000
  15564     287.9213      0.00000
  15565     287.9332      0.00000
  15566     287.9372      0.00000
  15567     287.9518      0.00000
  15568     287.9628      0.00000
  15569     287.9772      0.00000
  15570     288.0007      0.00000
  15571     288.0115      0.00000
  15572     288.0247      0.00000
  15573     288.0417      0.00000
  15574     288.0574      0.00000
  15575     288.0656      0.00000
  15576     288.0709      0.00000
  15577     288.0826      0.00000
  15578     288.0925      0.00000
  15579     288.0987      0.00000
  15580     288.1191      0.00000
  15581     288.1314      0.00000
  15582     288.1465      0.00000
  15583     288.1525      0.00000
  15584     288.1593      0.00000
  15585     288.1717      0.00000
  15586     288.1825      0.00000
  15587     288.1906      0.00000
  15588     288.2063      0.00000
  15589     288.2251      0.00000
  15590     288.2489      0.00000
  15591     288.2611      0.00000
  15592     288.2762      0.00000
  15593     288.2892      0.00000
  15594     288.2979      0.00000
  15595     288.3149      0.00000
  15596     288.3175      0.00000
  15597     288.3314      0.00000
  15598     288.3417      0.00000
  15599     288.3584      0.00000
  15600     288.3780      0.00000
  15601     288.3789      0.00000
  15602     288.3814      0.00000
  15603     288.3922      0.00000
  15604     288.4095      0.00000
  15605     288.4305      0.00000
  15606     288.4340      0.00000
  15607     288.4509      0.00000
  15608     288.4616      0.00000
  15609     288.4683      0.00000
  15610     288.4780      0.00000
  15611     288.4884      0.00000
  15612     288.5026      0.00000
  15613     288.5164      0.00000
  15614     288.5241      0.00000
  15615     288.5363      0.00000
  15616     288.5486      0.00000
  15617     288.5634      0.00000
  15618     288.5745      0.00000
  15619     288.5896      0.00000
  15620     288.5988      0.00000
  15621     288.6014      0.00000
  15622     288.6186      0.00000
  15623     288.6303      0.00000
  15624     288.6438      0.00000
  15625     288.6458      0.00000
  15626     288.6555      0.00000
  15627     288.6781      0.00000
  15628     288.6952      0.00000
  15629     288.6990      0.00000
  15630     288.7093      0.00000
  15631     288.7310      0.00000
  15632     288.7477      0.00000
  15633     288.7657      0.00000
  15634     288.7684      0.00000
  15635     288.7776      0.00000
  15636     288.7905      0.00000
  15637     288.7958      0.00000
  15638     288.8104      0.00000
  15639     288.8232      0.00000
  15640     288.8408      0.00000
  15641     288.8475      0.00000
  15642     288.8506      0.00000
  15643     288.8609      0.00000
  15644     288.8656      0.00000
  15645     288.8834      0.00000
  15646     288.8870      0.00000
  15647     288.9072      0.00000
  15648     288.9142      0.00000
  15649     288.9282      0.00000
  15650     288.9385      0.00000
  15651     288.9582      0.00000
  15652     288.9670      0.00000
  15653     288.9755      0.00000
  15654     288.9969      0.00000
  15655     288.9992      0.00000
  15656     289.0094      0.00000
  15657     289.0341      0.00000
  15658     289.0353      0.00000
  15659     289.0449      0.00000
  15660     289.0741      0.00000
  15661     289.0772      0.00000
  15662     289.0904      0.00000
  15663     289.0998      0.00000
  15664     289.1075      0.00000
  15665     289.1268      0.00000
  15666     289.1334      0.00000
  15667     289.1404      0.00000
  15668     289.1635      0.00000
  15669     289.1724      0.00000
  15670     289.1868      0.00000
  15671     289.1938      0.00000
  15672     289.2048      0.00000
  15673     289.2109      0.00000
  15674     289.2186      0.00000
  15675     289.2356      0.00000
  15676     289.2394      0.00000
  15677     289.2500      0.00000
  15678     289.2589      0.00000
  15679     289.2685      0.00000
  15680     289.2843      0.00000
  15681     289.2884      0.00000
  15682     289.2985      0.00000
  15683     289.3141      0.00000
  15684     289.3342      0.00000
  15685     289.3584      0.00000
  15686     289.3700      0.00000
  15687     289.3828      0.00000
  15688     289.3848      0.00000
  15689     289.3923      0.00000
  15690     289.4180      0.00000
  15691     289.4218      0.00000
  15692     289.4427      0.00000
  15693     289.4442      0.00000
  15694     289.4585      0.00000
  15695     289.4692      0.00000
  15696     289.4783      0.00000
  15697     289.5036      0.00000
  15698     289.5231      0.00000
  15699     289.5235      0.00000
  15700     289.5402      0.00000
  15701     289.5591      0.00000
  15702     289.5845      0.00000
  15703     289.5934      0.00000
  15704     289.6116      0.00000
  15705     289.6270      0.00000
  15706     289.6398      0.00000
  15707     289.6429      0.00000
  15708     289.6554      0.00000
  15709     289.6753      0.00000
  15710     289.6816      0.00000
  15711     289.6932      0.00000
  15712     289.7047      0.00000
  15713     289.7151      0.00000
  15714     289.7265      0.00000
  15715     289.7441      0.00000
  15716     289.7571      0.00000
  15717     289.7683      0.00000
  15718     289.7790      0.00000
  15719     289.8054      0.00000
  15720     289.8175      0.00000
  15721     289.8321      0.00000
  15722     289.8436      0.00000
  15723     289.8447      0.00000
  15724     289.8539      0.00000
  15725     289.8690      0.00000
  15726     289.8728      0.00000
  15727     289.8953      0.00000
  15728     289.9003      0.00000
  15729     289.9041      0.00000
  15730     289.9215      0.00000
  15731     289.9530      0.00000
  15732     289.9587      0.00000
  15733     289.9829      0.00000
  15734     289.9868      0.00000
  15735     290.0059      0.00000
  15736     290.0070      0.00000
  15737     290.0332      0.00000
  15738     290.0377      0.00000
  15739     290.0553      0.00000
  15740     290.0672      0.00000
  15741     290.0807      0.00000
  15742     290.1019      0.00000
  15743     290.1074      0.00000
  15744     290.1245      0.00000
  15745     290.1352      0.00000
  15746     290.1430      0.00000
  15747     290.1549      0.00000
  15748     290.1788      0.00000
  15749     290.1907      0.00000
  15750     290.2061      0.00000
  15751     290.2096      0.00000
  15752     290.2232      0.00000
  15753     290.2288      0.00000
  15754     290.2348      0.00000
  15755     290.2452      0.00000
  15756     290.2719      0.00000
  15757     290.2775      0.00000
  15758     290.2822      0.00000
  15759     290.2872      0.00000
  15760     290.3026      0.00000
  15761     290.3250      0.00000
  15762     290.3418      0.00000
  15763     290.3641      0.00000
  15764     290.3696      0.00000
  15765     290.3801      0.00000
  15766     290.3929      0.00000
  15767     290.4031      0.00000
  15768     290.4101      0.00000
  15769     290.4263      0.00000
  15770     290.4350      0.00000
  15771     290.4445      0.00000
  15772     290.4597      0.00000
  15773     290.4701      0.00000
  15774     290.4818      0.00000
  15775     290.4885      0.00000
  15776     290.5029      0.00000
  15777     290.5148      0.00000
  15778     290.5213      0.00000
  15779     290.5357      0.00000
  15780     290.5751      0.00000
  15781     290.5838      0.00000
  15782     290.5998      0.00000
  15783     290.6093      0.00000
  15784     290.6129      0.00000
  15785     290.6333      0.00000
  15786     290.6362      0.00000
  15787     290.6474      0.00000
  15788     290.6565      0.00000
  15789     290.6882      0.00000
  15790     290.6912      0.00000
  15791     290.7027      0.00000
  15792     290.7188      0.00000
  15793     290.7309      0.00000
  15794     290.7488      0.00000
  15795     290.7686      0.00000
  15796     290.7817      0.00000
  15797     290.7889      0.00000
  15798     290.7990      0.00000
  15799     290.8207      0.00000
  15800     290.8313      0.00000
  15801     290.8413      0.00000
  15802     290.8497      0.00000
  15803     290.8620      0.00000
  15804     290.8827      0.00000
  15805     290.8900      0.00000
  15806     290.9002      0.00000
  15807     290.9071      0.00000
  15808     290.9224      0.00000
  15809     290.9351      0.00000
  15810     290.9454      0.00000
  15811     290.9599      0.00000
  15812     290.9635      0.00000
  15813     290.9825      0.00000
  15814     291.0029      0.00000
  15815     291.0082      0.00000
  15816     291.0251      0.00000
  15817     291.0333      0.00000
  15818     291.0409      0.00000
  15819     291.0661      0.00000
  15820     291.0755      0.00000
  15821     291.0900      0.00000
  15822     291.0988      0.00000
  15823     291.1203      0.00000
  15824     291.1332      0.00000
  15825     291.1493      0.00000
  15826     291.1586      0.00000
  15827     291.1785      0.00000
  15828     291.1911      0.00000
  15829     291.2082      0.00000
  15830     291.2126      0.00000
  15831     291.2300      0.00000
  15832     291.2500      0.00000
  15833     291.2639      0.00000
  15834     291.2706      0.00000
  15835     291.2828      0.00000
  15836     291.3010      0.00000
  15837     291.3092      0.00000
  15838     291.3213      0.00000
  15839     291.3387      0.00000
  15840     291.3542      0.00000
  15841     291.3607      0.00000
  15842     291.3836      0.00000
  15843     291.3957      0.00000
  15844     291.4115      0.00000
  15845     291.4205      0.00000
  15846     291.4313      0.00000
  15847     291.4456      0.00000
  15848     291.4653      0.00000
  15849     291.4732      0.00000
  15850     291.4842      0.00000
  15851     291.4946      0.00000
  15852     291.5056      0.00000
  15853     291.5240      0.00000
  15854     291.5276      0.00000
  15855     291.5451      0.00000
  15856     291.5509      0.00000
  15857     291.5705      0.00000
  15858     291.5821      0.00000
  15859     291.5984      0.00000
  15860     291.6158      0.00000
  15861     291.6217      0.00000
  15862     291.6329      0.00000
  15863     291.6442      0.00000
  15864     291.6646      0.00000
  15865     291.6695      0.00000
  15866     291.6950      0.00000
  15867     291.7145      0.00000
  15868     291.7300      0.00000
  15869     291.7460      0.00000
  15870     291.7546      0.00000
  15871     291.7614      0.00000
  15872     291.7680      0.00000
  15873     291.7852      0.00000
  15874     291.8048      0.00000
  15875     291.8179      0.00000
  15876     291.8302      0.00000
  15877     291.8419      0.00000
  15878     291.8633      0.00000
  15879     291.8706      0.00000
  15880     291.8851      0.00000
  15881     291.8966      0.00000
  15882     291.8984      0.00000
  15883     291.9157      0.00000
  15884     291.9372      0.00000
  15885     291.9496      0.00000
  15886     291.9533      0.00000
  15887     291.9749      0.00000
  15888     291.9789      0.00000
  15889     292.0102      0.00000
  15890     292.0257      0.00000
  15891     292.0369      0.00000
  15892     292.0475      0.00000
  15893     292.0721      0.00000
  15894     292.0787      0.00000
  15895     292.1039      0.00000
  15896     292.1075      0.00000
  15897     292.1234      0.00000
  15898     292.1469      0.00000
  15899     292.1613      0.00000
  15900     292.1649      0.00000
  15901     292.1774      0.00000
  15902     292.2055      0.00000
  15903     292.2216      0.00000
  15904     292.2240      0.00000
  15905     292.2374      0.00000
  15906     292.2517      0.00000
  15907     292.2744      0.00000
  15908     292.2894      0.00000
  15909     292.3098      0.00000
  15910     292.3266      0.00000
  15911     292.3386      0.00000
  15912     292.3521      0.00000
  15913     292.3789      0.00000
  15914     292.3824      0.00000
  15915     292.3996      0.00000
  15916     292.4172      0.00000
  15917     292.4257      0.00000
  15918     292.4344      0.00000
  15919     292.4406      0.00000
  15920     292.4578      0.00000
  15921     292.4721      0.00000
  15922     292.5144      0.00000
  15923     292.5277      0.00000
  15924     292.5300      0.00000
  15925     292.5466      0.00000
  15926     292.5583      0.00000
  15927     292.5770      0.00000
  15928     292.5857      0.00000
  15929     292.6114      0.00000
  15930     292.6151      0.00000
  15931     292.6292      0.00000
  15932     292.6509      0.00000
  15933     292.6621      0.00000
  15934     292.6694      0.00000
  15935     292.6867      0.00000
  15936     292.7138      0.00000
  15937     292.7160      0.00000
  15938     292.7215      0.00000
  15939     292.7329      0.00000
  15940     292.7517      0.00000
  15941     292.7733      0.00000
  15942     292.7775      0.00000
  15943     292.7986      0.00000
  15944     292.8133      0.00000
  15945     292.8403      0.00000
  15946     292.8524      0.00000
  15947     292.8605      0.00000
  15948     292.8681      0.00000
  15949     292.8862      0.00000
  15950     292.9074      0.00000
  15951     292.9195      0.00000
  15952     292.9341      0.00000
  15953     292.9479      0.00000
  15954     292.9712      0.00000
  15955     292.9826      0.00000
  15956     292.9903      0.00000
  15957     293.0103      0.00000
  15958     293.0228      0.00000
  15959     293.0339      0.00000
  15960     293.0494      0.00000
  15961     293.0633      0.00000
  15962     293.0816      0.00000
  15963     293.0867      0.00000
  15964     293.1111      0.00000
  15965     293.1181      0.00000
  15966     293.1239      0.00000
  15967     293.1434      0.00000
  15968     293.1631      0.00000
  15969     293.1811      0.00000
  15970     293.1909      0.00000
  15971     293.2131      0.00000
  15972     293.2266      0.00000
  15973     293.2367      0.00000
  15974     293.2424      0.00000
  15975     293.2582      0.00000
  15976     293.2749      0.00000
  15977     293.2908      0.00000
  15978     293.3161      0.00000
  15979     293.3184      0.00000
  15980     293.3221      0.00000
  15981     293.3483      0.00000
  15982     293.3488      0.00000
  15983     293.3627      0.00000
  15984     293.3801      0.00000
  15985     293.4031      0.00000
  15986     293.4262      0.00000
  15987     293.4383      0.00000
  15988     293.4518      0.00000
  15989     293.4579      0.00000
  15990     293.4655      0.00000
  15991     293.4879      0.00000
  15992     293.4948      0.00000
  15993     293.5108      0.00000
  15994     293.5201      0.00000
  15995     293.5319      0.00000
  15996     293.5466      0.00000
  15997     293.5567      0.00000
  15998     293.5710      0.00000
  15999     293.5878      0.00000
  16000     293.5956      0.00000
  16001     293.6066      0.00000
  16002     293.6157      0.00000
  16003     293.6307      0.00000
  16004     293.6451      0.00000
  16005     293.6524      0.00000
  16006     293.6737      0.00000
  16007     293.6861      0.00000
  16008     293.6907      0.00000
  16009     293.7032      0.00000
  16010     293.7249      0.00000
  16011     293.7352      0.00000
  16012     293.7630      0.00000
  16013     293.7714      0.00000
  16014     293.7864      0.00000
  16015     293.7902      0.00000
  16016     293.7971      0.00000
  16017     293.8165      0.00000
  16018     293.8344      0.00000
  16019     293.8443      0.00000
  16020     293.8526      0.00000
  16021     293.8596      0.00000
  16022     293.8705      0.00000
  16023     293.8807      0.00000
  16024     293.8874      0.00000
  16025     293.8925      0.00000
  16026     293.9113      0.00000
  16027     293.9186      0.00000
  16028     293.9259      0.00000
  16029     293.9536      0.00000
  16030     293.9591      0.00000
  16031     293.9706      0.00000
  16032     293.9729      0.00000
  16033     293.9936      0.00000
  16034     294.0172      0.00000
  16035     294.0236      0.00000
  16036     294.0386      0.00000
  16037     294.0646      0.00000
  16038     294.0758      0.00000
  16039     294.0916      0.00000
  16040     294.0958      0.00000
  16041     294.1013      0.00000
  16042     294.1183      0.00000
  16043     294.1265      0.00000
  16044     294.1387      0.00000
  16045     294.1445      0.00000
  16046     294.1558      0.00000
  16047     294.1721      0.00000
  16048     294.1920      0.00000
  16049     294.1981      0.00000
  16050     294.2114      0.00000
  16051     294.2205      0.00000
  16052     294.2359      0.00000
  16053     294.2477      0.00000
  16054     294.2712      0.00000
  16055     294.2823      0.00000
  16056     294.2990      0.00000
  16057     294.3167      0.00000
  16058     294.3228      0.00000
  16059     294.3244      0.00000
  16060     294.3489      0.00000
  16061     294.3687      0.00000
  16062     294.3758      0.00000
  16063     294.3777      0.00000
  16064     294.4005      0.00000
  16065     294.4112      0.00000
  16066     294.4260      0.00000
  16067     294.4418      0.00000
  16068     294.4508      0.00000
  16069     294.4617      0.00000
  16070     294.4750      0.00000
  16071     294.4773      0.00000
  16072     294.4917      0.00000
  16073     294.5036      0.00000
  16074     294.5108      0.00000
  16075     294.5234      0.00000
  16076     294.5348      0.00000
  16077     294.5399      0.00000
  16078     294.5564      0.00000
  16079     294.5765      0.00000
  16080     294.5913      0.00000
  16081     294.6017      0.00000
  16082     294.6123      0.00000
  16083     294.6307      0.00000
  16084     294.6398      0.00000
  16085     294.6681      0.00000
  16086     294.6716      0.00000
  16087     294.6993      0.00000
  16088     294.7076      0.00000
  16089     294.7221      0.00000
  16090     294.7238      0.00000
  16091     294.7386      0.00000
  16092     294.7454      0.00000
  16093     294.7587      0.00000
  16094     294.7748      0.00000
  16095     294.7985      0.00000
  16096     294.8197      0.00000
  16097     294.8285      0.00000
  16098     294.8353      0.00000
  16099     294.8566      0.00000
  16100     294.8631      0.00000
  16101     294.8859      0.00000
  16102     294.8873      0.00000
  16103     294.8969      0.00000
  16104     294.9169      0.00000
  16105     294.9295      0.00000
  16106     294.9438      0.00000
  16107     294.9575      0.00000
  16108     294.9771      0.00000
  16109     294.9977      0.00000
  16110     295.0039      0.00000
  16111     295.0208      0.00000
  16112     295.0221      0.00000
  16113     295.0523      0.00000
  16114     295.0568      0.00000
  16115     295.0585      0.00000
  16116     295.0763      0.00000
  16117     295.0784      0.00000
  16118     295.0950      0.00000
  16119     295.1128      0.00000
  16120     295.1256      0.00000
  16121     295.1348      0.00000
  16122     295.1596      0.00000
  16123     295.1657      0.00000
  16124     295.1865      0.00000
  16125     295.1985      0.00000
  16126     295.2033      0.00000
  16127     295.2456      0.00000
  16128     295.2507      0.00000
  16129     295.2625      0.00000
  16130     295.2743      0.00000
  16131     295.2826      0.00000
  16132     295.2957      0.00000
  16133     295.3214      0.00000
  16134     295.3285      0.00000
  16135     295.3372      0.00000
  16136     295.3501      0.00000
  16137     295.3619      0.00000
  16138     295.3851      0.00000
  16139     295.3996      0.00000
  16140     295.4231      0.00000
  16141     295.4291      0.00000
  16142     295.4560      0.00000
  16143     295.4625      0.00000
  16144     295.4742      0.00000
  16145     295.4788      0.00000
  16146     295.4856      0.00000
  16147     295.4948      0.00000
  16148     295.5206      0.00000
  16149     295.5304      0.00000
  16150     295.5417      0.00000
  16151     295.5521      0.00000
  16152     295.5643      0.00000
  16153     295.5842      0.00000
  16154     295.5902      0.00000
  16155     295.5995      0.00000
  16156     295.6346      0.00000
  16157     295.6455      0.00000
  16158     295.6474      0.00000
  16159     295.6655      0.00000
  16160     295.6765      0.00000
  16161     295.6895      0.00000
  16162     295.7094      0.00000
  16163     295.7238      0.00000
  16164     295.7400      0.00000
  16165     295.7542      0.00000
  16166     295.7644      0.00000
  16167     295.7762      0.00000
  16168     295.7785      0.00000
  16169     295.7934      0.00000
  16170     295.8062      0.00000
  16171     295.8217      0.00000
  16172     295.8306      0.00000
  16173     295.8536      0.00000
  16174     295.8584      0.00000
  16175     295.8798      0.00000
  16176     295.8987      0.00000
  16177     295.9149      0.00000
  16178     295.9285      0.00000
  16179     295.9472      0.00000
  16180     295.9566      0.00000
  16181     295.9624      0.00000
  16182     295.9763      0.00000
  16183     296.0015      0.00000
  16184     296.0061      0.00000
  16185     296.0125      0.00000
  16186     296.0276      0.00000
  16187     296.0443      0.00000
  16188     296.0603      0.00000
  16189     296.0631      0.00000
  16190     296.0695      0.00000
  16191     296.0869      0.00000
  16192     296.0946      0.00000
  16193     296.1108      0.00000
  16194     296.1342      0.00000
  16195     296.1468      0.00000
  16196     296.1608      0.00000
  16197     296.1841      0.00000
  16198     296.1977      0.00000
  16199     296.2002      0.00000
  16200     296.2062      0.00000
  16201     296.2275      0.00000
  16202     296.2377      0.00000
  16203     296.2441      0.00000
  16204     296.2571      0.00000
  16205     296.2773      0.00000
  16206     296.2797      0.00000
  16207     296.2940      0.00000
  16208     296.2949      0.00000
  16209     296.3238      0.00000
  16210     296.3349      0.00000
  16211     296.3419      0.00000
  16212     296.3490      0.00000
  16213     296.3517      0.00000
  16214     296.3769      0.00000
  16215     296.3911      0.00000
  16216     296.4006      0.00000
  16217     296.4173      0.00000
  16218     296.4305      0.00000
  16219     296.4430      0.00000
  16220     296.4598      0.00000
  16221     296.4755      0.00000
  16222     296.4840      0.00000
  16223     296.4977      0.00000
  16224     296.5033      0.00000
  16225     296.5141      0.00000
  16226     296.5203      0.00000
  16227     296.5499      0.00000
  16228     296.5585      0.00000
  16229     296.5733      0.00000
  16230     296.5799      0.00000
  16231     296.5993      0.00000
  16232     296.6128      0.00000
  16233     296.6176      0.00000
  16234     296.6300      0.00000
  16235     296.6314      0.00000
  16236     296.6528      0.00000
  16237     296.6646      0.00000
  16238     296.6693      0.00000
  16239     296.6966      0.00000
  16240     296.7114      0.00000
  16241     296.7289      0.00000
  16242     296.7511      0.00000
  16243     296.7546      0.00000
  16244     296.7602      0.00000
  16245     296.7652      0.00000
  16246     296.7922      0.00000
  16247     296.8158      0.00000
  16248     296.8176      0.00000
  16249     296.8323      0.00000
  16250     296.8364      0.00000
  16251     296.8431      0.00000
  16252     296.8635      0.00000
  16253     296.8853      0.00000
  16254     296.8909      0.00000
  16255     296.9024      0.00000
  16256     296.9075      0.00000
  16257     296.9120      0.00000
  16258     296.9262      0.00000
  16259     296.9392      0.00000
  16260     296.9541      0.00000
  16261     296.9786      0.00000
  16262     296.9830      0.00000
  16263     296.9893      0.00000
  16264     297.0047      0.00000
  16265     297.0168      0.00000
  16266     297.0289      0.00000
  16267     297.0406      0.00000
  16268     297.0504      0.00000
  16269     297.0611      0.00000
  16270     297.0791      0.00000
  16271     297.0862      0.00000
  16272     297.1043      0.00000
  16273     297.1094      0.00000
  16274     297.1211      0.00000
  16275     297.1451      0.00000
  16276     297.1509      0.00000
  16277     297.1856      0.00000
  16278     297.1938      0.00000
  16279     297.2136      0.00000
  16280     297.2203      0.00000
  16281     297.2293      0.00000
  16282     297.2454      0.00000
  16283     297.2561      0.00000
  16284     297.2689      0.00000
  16285     297.2813      0.00000
  16286     297.2937      0.00000
  16287     297.3014      0.00000
  16288     297.3019      0.00000
  16289     297.3097      0.00000
  16290     297.3265      0.00000
  16291     297.3466      0.00000
  16292     297.3545      0.00000
  16293     297.3710      0.00000
  16294     297.3756      0.00000
  16295     297.4013      0.00000
  16296     297.4173      0.00000
  16297     297.4257      0.00000
  16298     297.4322      0.00000
  16299     297.4378      0.00000
  16300     297.4557      0.00000
  16301     297.4722      0.00000
  16302     297.4900      0.00000
  16303     297.4988      0.00000
  16304     297.5067      0.00000
  16305     297.5354      0.00000
  16306     297.5481      0.00000
  16307     297.5600      0.00000
  16308     297.5679      0.00000
  16309     297.5982      0.00000
  16310     297.6024      0.00000
  16311     297.6056      0.00000
  16312     297.6294      0.00000
  16313     297.6347      0.00000
  16314     297.6437      0.00000
  16315     297.6586      0.00000
  16316     297.6667      0.00000
  16317     297.6764      0.00000
  16318     297.6937      0.00000
  16319     297.7111      0.00000
  16320     297.7160      0.00000
  16321     297.7280      0.00000
  16322     297.7361      0.00000
  16323     297.7580      0.00000
  16324     297.7706      0.00000
  16325     297.7777      0.00000
  16326     297.7983      0.00000
  16327     297.8131      0.00000
  16328     297.8207      0.00000
  16329     297.8302      0.00000
  16330     297.8400      0.00000
  16331     297.8659      0.00000
  16332     297.8678      0.00000
  16333     297.8775      0.00000
  16334     297.9086      0.00000
  16335     297.9293      0.00000
  16336     297.9371      0.00000
  16337     297.9537      0.00000
  16338     297.9611      0.00000
  16339     297.9785      0.00000
  16340     297.9934      0.00000
  16341     297.9978      0.00000
  16342     298.0127      0.00000
  16343     298.0237      0.00000
  16344     298.0321      0.00000
  16345     298.0522      0.00000
  16346     298.0797      0.00000
  16347     298.0917      0.00000
  16348     298.0989      0.00000
  16349     298.1146      0.00000
  16350     298.1312      0.00000
  16351     298.1363      0.00000
  16352     298.1569      0.00000
  16353     298.1717      0.00000
  16354     298.1855      0.00000
  16355     298.1949      0.00000
  16356     298.2122      0.00000
  16357     298.2267      0.00000
  16358     298.2318      0.00000
  16359     298.2493      0.00000
  16360     298.2717      0.00000
  16361     298.2735      0.00000
  16362     298.2974      0.00000
  16363     298.3125      0.00000
  16364     298.3246      0.00000
  16365     298.3310      0.00000
  16366     298.3398      0.00000
  16367     298.3607      0.00000
  16368     298.3652      0.00000
  16369     298.3751      0.00000
  16370     298.3968      0.00000
  16371     298.4019      0.00000
  16372     298.4269      0.00000
  16373     298.4385      0.00000
  16374     298.4516      0.00000
  16375     298.4547      0.00000
  16376     298.4713      0.00000
  16377     298.4863      0.00000
  16378     298.4947      0.00000
  16379     298.5052      0.00000
  16380     298.5171      0.00000
  16381     298.5203      0.00000
  16382     298.5412      0.00000
  16383     298.5543      0.00000
  16384     298.5684      0.00000
  16385     298.5752      0.00000
  16386     298.5894      0.00000
  16387     298.6030      0.00000
  16388     298.6134      0.00000
  16389     298.6201      0.00000
  16390     298.6376      0.00000
  16391     298.6504      0.00000
  16392     298.6705      0.00000
  16393     298.6732      0.00000
  16394     298.6851      0.00000
  16395     298.6928      0.00000
  16396     298.7050      0.00000
  16397     298.7183      0.00000
  16398     298.7290      0.00000
  16399     298.7362      0.00000
  16400     298.7533      0.00000
  16401     298.7592      0.00000
  16402     298.7750      0.00000
  16403     298.7940      0.00000
  16404     298.8062      0.00000
  16405     298.8225      0.00000
  16406     298.8325      0.00000
  16407     298.8556      0.00000
  16408     298.8610      0.00000
  16409     298.8727      0.00000
  16410     298.8792      0.00000
  16411     298.8899      0.00000
  16412     298.9096      0.00000
  16413     298.9106      0.00000
  16414     298.9235      0.00000
  16415     298.9272      0.00000
  16416     298.9512      0.00000
  16417     298.9608      0.00000
  16418     298.9659      0.00000
  16419     298.9831      0.00000
  16420     298.9935      0.00000
  16421     299.0123      0.00000
  16422     299.0245      0.00000
  16423     299.0303      0.00000
  16424     299.0399      0.00000
  16425     299.0631      0.00000
  16426     299.0725      0.00000
  16427     299.0794      0.00000
  16428     299.0993      0.00000
  16429     299.1053      0.00000
  16430     299.1209      0.00000
  16431     299.1385      0.00000
  16432     299.1520      0.00000
  16433     299.1622      0.00000
  16434     299.1649      0.00000
  16435     299.1781      0.00000
  16436     299.1903      0.00000
  16437     299.1972      0.00000
  16438     299.2175      0.00000
  16439     299.2211      0.00000
  16440     299.2413      0.00000
  16441     299.2575      0.00000
  16442     299.2655      0.00000
  16443     299.2848      0.00000
  16444     299.2914      0.00000
  16445     299.3009      0.00000
  16446     299.3149      0.00000
  16447     299.3158      0.00000
  16448     299.3212      0.00000
  16449     299.3292      0.00000
  16450     299.3443      0.00000
  16451     299.3492      0.00000
  16452     299.3814      0.00000
  16453     299.3867      0.00000
  16454     299.3933      0.00000
  16455     299.4179      0.00000
  16456     299.4252      0.00000
  16457     299.4280      0.00000
  16458     299.4367      0.00000
  16459     299.4558      0.00000
  16460     299.4672      0.00000
  16461     299.4749      0.00000
  16462     299.4839      0.00000
  16463     299.5010      0.00000
  16464     299.5109      0.00000
  16465     299.5206      0.00000
  16466     299.5238      0.00000
  16467     299.5354      0.00000
  16468     299.5552      0.00000
  16469     299.5665      0.00000
  16470     299.5737      0.00000
  16471     299.5909      0.00000
  16472     299.6173      0.00000
  16473     299.6259      0.00000
  16474     299.6393      0.00000
  16475     299.6469      0.00000
  16476     299.6562      0.00000
  16477     299.6676      0.00000
  16478     299.6777      0.00000
  16479     299.6959      0.00000
  16480     299.6982      0.00000
  16481     299.7144      0.00000
  16482     299.7245      0.00000
  16483     299.7407      0.00000
  16484     299.7576      0.00000
  16485     299.7593      0.00000
  16486     299.7712      0.00000
  16487     299.7842      0.00000
  16488     299.7985      0.00000
  16489     299.8085      0.00000
  16490     299.8293      0.00000
  16491     299.8357      0.00000
  16492     299.8477      0.00000
  16493     299.8604      0.00000
  16494     299.8766      0.00000
  16495     299.8928      0.00000
  16496     299.9004      0.00000
  16497     299.9144      0.00000
  16498     299.9251      0.00000
  16499     299.9415      0.00000
  16500     299.9464      0.00000
  16501     299.9670      0.00000
  16502     299.9726      0.00000
  16503     299.9806      0.00000
  16504     299.9921      0.00000
  16505     300.0077      0.00000
  16506     300.0189      0.00000
  16507     300.0317      0.00000
  16508     300.0428      0.00000
  16509     300.0512      0.00000
  16510     300.0595      0.00000
  16511     300.0815      0.00000
  16512     300.0902      0.00000
  16513     300.1084      0.00000
  16514     300.1201      0.00000
  16515     300.1252      0.00000
  16516     300.1444      0.00000
  16517     300.1611      0.00000
  16518     300.1669      0.00000
  16519     300.1830      0.00000
  16520     300.2009      0.00000
  16521     300.2079      0.00000
  16522     300.2227      0.00000
  16523     300.2260      0.00000
  16524     300.2439      0.00000
  16525     300.2543      0.00000
  16526     300.2595      0.00000
  16527     300.2709      0.00000
  16528     300.2889      0.00000
  16529     300.2915      0.00000
  16530     300.2951      0.00000
  16531     300.3179      0.00000
  16532     300.3255      0.00000
  16533     300.3421      0.00000
  16534     300.3480      0.00000
  16535     300.3562      0.00000
  16536     300.3752      0.00000
  16537     300.3813      0.00000
  16538     300.4009      0.00000
  16539     300.4129      0.00000
  16540     300.4177      0.00000
  16541     300.4462      0.00000
  16542     300.4503      0.00000
  16543     300.4620      0.00000
  16544     300.4688      0.00000
  16545     300.4765      0.00000
  16546     300.4907      0.00000
  16547     300.5033      0.00000
  16548     300.5095      0.00000
  16549     300.5237      0.00000
  16550     300.5394      0.00000
  16551     300.5561      0.00000
  16552     300.5569      0.00000
  16553     300.5769      0.00000
  16554     300.5926      0.00000
  16555     300.5980      0.00000
  16556     300.6038      0.00000
  16557     300.6270      0.00000
  16558     300.6297      0.00000
  16559     300.6384      0.00000
  16560     300.6512      0.00000
  16561     300.6593      0.00000
  16562     300.6658      0.00000
  16563     300.6900      0.00000
  16564     300.6929      0.00000
  16565     300.7065      0.00000
  16566     300.7128      0.00000
  16567     300.7229      0.00000
  16568     300.7400      0.00000
  16569     300.7456      0.00000
  16570     300.7628      0.00000
  16571     300.7695      0.00000
  16572     300.7813      0.00000
  16573     300.7880      0.00000
  16574     300.8045      0.00000
  16575     300.8107      0.00000
  16576     300.8293      0.00000
  16577     300.8322      0.00000
  16578     300.8404      0.00000
  16579     300.8539      0.00000
  16580     300.8677      0.00000
  16581     300.8780      0.00000
  16582     300.8894      0.00000
  16583     300.8965      0.00000
  16584     300.9144      0.00000
  16585     300.9174      0.00000
  16586     300.9208      0.00000
  16587     300.9432      0.00000
  16588     300.9471      0.00000
  16589     300.9629      0.00000
  16590     300.9741      0.00000
  16591     300.9830      0.00000
  16592     300.9946      0.00000
  16593     301.0102      0.00000
  16594     301.0189      0.00000
  16595     301.0291      0.00000
  16596     301.0343      0.00000
  16597     301.0577      0.00000
  16598     301.0647      0.00000
  16599     301.0676      0.00000
  16600     301.0846      0.00000
  16601     301.0867      0.00000
  16602     301.1011      0.00000
  16603     301.1077      0.00000
  16604     301.1240      0.00000
  16605     301.1322      0.00000
  16606     301.1492      0.00000
  16607     301.1626      0.00000
  16608     301.1737      0.00000
  16609     301.1835      0.00000
  16610     301.1848      0.00000
  16611     301.2060      0.00000
  16612     301.2063      0.00000
  16613     301.2281      0.00000
  16614     301.2335      0.00000
  16615     301.2452      0.00000
  16616     301.2543      0.00000
  16617     301.2674      0.00000
  16618     301.2737      0.00000
  16619     301.2857      0.00000
  16620     301.2994      0.00000
  16621     301.3062      0.00000
  16622     301.3178      0.00000
  16623     301.3321      0.00000
  16624     301.3425      0.00000
  16625     301.3488      0.00000
  16626     301.3532      0.00000
  16627     301.3730      0.00000
  16628     301.3757      0.00000
  16629     301.3877      0.00000
  16630     301.3924      0.00000
  16631     301.4156      0.00000
  16632     301.4245      0.00000
  16633     301.4446      0.00000
  16634     301.4627      0.00000
  16635     301.4715      0.00000
  16636     301.4826      0.00000
  16637     301.4852      0.00000
  16638     301.4921      0.00000
  16639     301.5104      0.00000
  16640     301.5382      0.00000
  16641     301.5437      0.00000
  16642     301.5498      0.00000
  16643     301.5571      0.00000
  16644     301.5731      0.00000
  16645     301.5888      0.00000
  16646     301.6009      0.00000
  16647     301.6119      0.00000
  16648     301.6284      0.00000
  16649     301.6357      0.00000
  16650     301.6409      0.00000
  16651     301.6498      0.00000
  16652     301.6658      0.00000
  16653     301.6750      0.00000
  16654     301.6926      0.00000
  16655     301.7002      0.00000
  16656     301.7081      0.00000
  16657     301.7099      0.00000
  16658     301.7272      0.00000
  16659     301.7346      0.00000
  16660     301.7620      0.00000
  16661     301.7656      0.00000
  16662     301.7939      0.00000
  16663     301.8039      0.00000
  16664     301.8171      0.00000
  16665     301.8377      0.00000
  16666     301.8445      0.00000
  16667     301.8765      0.00000
  16668     301.8790      0.00000
  16669     301.8911      0.00000
  16670     301.9050      0.00000
  16671     301.9142      0.00000
  16672     301.9314      0.00000
  16673     301.9436      0.00000
  16674     301.9603      0.00000
  16675     301.9728      0.00000
  16676     301.9856      0.00000
  16677     301.9873      0.00000
  16678     302.0240      0.00000
  16679     302.0294      0.00000
  16680     302.0402      0.00000
  16681     302.0513      0.00000
  16682     302.0636      0.00000
  16683     302.0799      0.00000
  16684     302.0976      0.00000
  16685     302.1049      0.00000
  16686     302.1235      0.00000
  16687     302.1378      0.00000
  16688     302.1499      0.00000
  16689     302.1625      0.00000
  16690     302.1688      0.00000
  16691     302.1801      0.00000
  16692     302.1851      0.00000
  16693     302.2042      0.00000
  16694     302.2197      0.00000
  16695     302.2399      0.00000
  16696     302.2408      0.00000
  16697     302.2503      0.00000
  16698     302.2686      0.00000
  16699     302.3000      0.00000
  16700     302.3116      0.00000
  16701     302.3151      0.00000
  16702     302.3255      0.00000
  16703     302.3350      0.00000
  16704     302.3538      0.00000
  16705     302.3678      0.00000
  16706     302.3748      0.00000
  16707     302.3865      0.00000
  16708     302.4111      0.00000
  16709     302.4369      0.00000
  16710     302.4503      0.00000
  16711     302.4647      0.00000
  16712     302.4789      0.00000
  16713     302.4838      0.00000
  16714     302.4992      0.00000
  16715     302.5062      0.00000
  16716     302.5224      0.00000
  16717     302.5303      0.00000
  16718     302.5460      0.00000
  16719     302.5604      0.00000
  16720     302.5754      0.00000
  16721     302.6000      0.00000
  16722     302.6165      0.00000
  16723     302.6258      0.00000
  16724     302.6339      0.00000
  16725     302.6463      0.00000
  16726     302.6670      0.00000
  16727     302.6737      0.00000
  16728     302.6854      0.00000
  16729     302.6985      0.00000
  16730     302.7018      0.00000
  16731     302.7288      0.00000
  16732     302.7410      0.00000
  16733     302.7589      0.00000
  16734     302.7613      0.00000
  16735     302.7822      0.00000
  16736     302.7945      0.00000
  16737     302.8025      0.00000
  16738     302.8142      0.00000
  16739     302.8356      0.00000
  16740     302.8553      0.00000
  16741     302.8585      0.00000
  16742     302.8928      0.00000
  16743     302.9021      0.00000
  16744     302.9165      0.00000
  16745     302.9256      0.00000
  16746     302.9372      0.00000
  16747     302.9546      0.00000
  16748     302.9764      0.00000
  16749     303.0059      0.00000
  16750     303.0121      0.00000
  16751     303.0231      0.00000
  16752     303.0371      0.00000
  16753     303.0552      0.00000
  16754     303.0652      0.00000
  16755     303.0689      0.00000
  16756     303.0744      0.00000
  16757     303.0951      0.00000
  16758     303.1040      0.00000
  16759     303.1436      0.00000
  16760     303.1470      0.00000
  16761     303.1571      0.00000
  16762     303.1852      0.00000
  16763     303.1998      0.00000
  16764     303.2299      0.00000
  16765     303.2346      0.00000
  16766     303.2409      0.00000
  16767     303.2665      0.00000
  16768     303.2757      0.00000
  16769     303.2870      0.00000
  16770     303.2924      0.00000
  16771     303.3176      0.00000
  16772     303.3283      0.00000
  16773     303.3347      0.00000
  16774     303.3442      0.00000
  16775     303.3535      0.00000
  16776     303.3760      0.00000
  16777     303.3853      0.00000
  16778     303.3970      0.00000
  16779     303.4179      0.00000
  16780     303.4377      0.00000
  16781     303.4420      0.00000
  16782     303.4535      0.00000
  16783     303.4866      0.00000
  16784     303.4974      0.00000
  16785     303.5137      0.00000
  16786     303.5298      0.00000
  16787     303.5426      0.00000
  16788     303.5563      0.00000
  16789     303.5750      0.00000
  16790     303.5887      0.00000
  16791     303.5925      0.00000
  16792     303.6093      0.00000
  16793     303.6260      0.00000
  16794     303.6427      0.00000
  16795     303.6505      0.00000
  16796     303.6524      0.00000
  16797     303.6974      0.00000
  16798     303.7176      0.00000
  16799     303.7228      0.00000
  16800     303.7340      0.00000
  16801     303.7362      0.00000
  16802     303.7571      0.00000
  16803     303.7726      0.00000
  16804     303.7830      0.00000
  16805     303.7883      0.00000
  16806     303.7965      0.00000
  16807     303.8171      0.00000
  16808     303.8444      0.00000
  16809     303.8673      0.00000
  16810     303.8725      0.00000
  16811     303.8805      0.00000
  16812     303.9016      0.00000
  16813     303.9049      0.00000
  16814     303.9129      0.00000
  16815     303.9339      0.00000
  16816     303.9451      0.00000
  16817     303.9564      0.00000
  16818     303.9744      0.00000
  16819     303.9840      0.00000
  16820     303.9937      0.00000
  16821     304.0045      0.00000
  16822     304.0166      0.00000
  16823     304.0356      0.00000
  16824     304.0507      0.00000
  16825     304.0614      0.00000
  16826     304.0714      0.00000
  16827     304.1025      0.00000
  16828     304.1094      0.00000
  16829     304.1192      0.00000
  16830     304.1317      0.00000
  16831     304.1517      0.00000
  16832     304.1615      0.00000
  16833     304.1773      0.00000
  16834     304.2049      0.00000
  16835     304.2235      0.00000
  16836     304.2380      0.00000
  16837     304.2489      0.00000
  16838     304.2629      0.00000
  16839     304.2704      0.00000
  16840     304.2855      0.00000
  16841     304.2901      0.00000
  16842     304.3131      0.00000
  16843     304.3181      0.00000
  16844     304.3379      0.00000
  16845     304.3405      0.00000
  16846     304.3479      0.00000
  16847     304.3810      0.00000
  16848     304.3931      0.00000
  16849     304.4020      0.00000
  16850     304.4081      0.00000
  16851     304.4179      0.00000
  16852     304.4332      0.00000
  16853     304.4447      0.00000
  16854     304.4659      0.00000
  16855     304.4735      0.00000
  16856     304.4928      0.00000
  16857     304.5096      0.00000
  16858     304.5137      0.00000
  16859     304.5218      0.00000
  16860     304.5520      0.00000
  16861     304.5676      0.00000
  16862     304.5759      0.00000
  16863     304.5920      0.00000
  16864     304.5960      0.00000
  16865     304.6087      0.00000
  16866     304.6289      0.00000
  16867     304.6462      0.00000
  16868     304.6561      0.00000
  16869     304.6772      0.00000
  16870     304.6882      0.00000
  16871     304.6972      0.00000
  16872     304.7114      0.00000
  16873     304.7431      0.00000
  16874     304.7535      0.00000
  16875     304.7623      0.00000
  16876     304.7634      0.00000
  16877     304.7957      0.00000
  16878     304.7984      0.00000
  16879     304.8136      0.00000
  16880     304.8225      0.00000
  16881     304.8363      0.00000
  16882     304.8493      0.00000
  16883     304.8628      0.00000
  16884     304.8715      0.00000
  16885     304.8921      0.00000
  16886     304.8953      0.00000
  16887     304.9031      0.00000
  16888     304.9223      0.00000
  16889     304.9234      0.00000
  16890     304.9502      0.00000
  16891     304.9606      0.00000
  16892     304.9710      0.00000
  16893     304.9735      0.00000
  16894     304.9864      0.00000
  16895     305.0107      0.00000
  16896     305.0220      0.00000
  16897     305.0282      0.00000
  16898     305.0422      0.00000
  16899     305.0504      0.00000
  16900     305.0595      0.00000
  16901     305.0803      0.00000
  16902     305.0934      0.00000
  16903     305.1079      0.00000
  16904     305.1135      0.00000
  16905     305.1247      0.00000
  16906     305.1379      0.00000
  16907     305.1450      0.00000
  16908     305.1546      0.00000
  16909     305.1672      0.00000
  16910     305.1777      0.00000
  16911     305.1864      0.00000
  16912     305.1956      0.00000
  16913     305.2112      0.00000
  16914     305.2335      0.00000
  16915     305.2391      0.00000
  16916     305.2487      0.00000
  16917     305.2626      0.00000
  16918     305.2686      0.00000
  16919     305.2927      0.00000
  16920     305.3196      0.00000
  16921     305.3264      0.00000
  16922     305.3320      0.00000
  16923     305.3376      0.00000
  16924     305.3536      0.00000
  16925     305.3657      0.00000
  16926     305.3768      0.00000
  16927     305.3969      0.00000
  16928     305.3991      0.00000
  16929     305.4095      0.00000
  16930     305.4209      0.00000
  16931     305.4304      0.00000
  16932     305.4336      0.00000
  16933     305.4614      0.00000
  16934     305.4715      0.00000
  16935     305.4848      0.00000
  16936     305.4866      0.00000
  16937     305.4996      0.00000
  16938     305.5119      0.00000
  16939     305.5287      0.00000
  16940     305.5347      0.00000
  16941     305.5565      0.00000
  16942     305.5785      0.00000
  16943     305.5858      0.00000
  16944     305.5934      0.00000
  16945     305.6133      0.00000
  16946     305.6292      0.00000
  16947     305.6406      0.00000
  16948     305.6557      0.00000
  16949     305.6604      0.00000
  16950     305.6707      0.00000
  16951     305.6821      0.00000
  16952     305.6932      0.00000
  16953     305.6964      0.00000
  16954     305.7134      0.00000
  16955     305.7267      0.00000
  16956     305.7437      0.00000
  16957     305.7560      0.00000
  16958     305.7603      0.00000
  16959     305.7723      0.00000
  16960     305.7889      0.00000
  16961     305.8009      0.00000
  16962     305.8109      0.00000
  16963     305.8332      0.00000
  16964     305.8424      0.00000
  16965     305.8481      0.00000
  16966     305.8612      0.00000
  16967     305.8837      0.00000
  16968     305.8966      0.00000
  16969     305.9021      0.00000
  16970     305.9077      0.00000
  16971     305.9266      0.00000
  16972     305.9399      0.00000
  16973     305.9416      0.00000
  16974     305.9615      0.00000
  16975     305.9772      0.00000
  16976     305.9863      0.00000
  16977     305.9972      0.00000
  16978     306.0033      0.00000
  16979     306.0096      0.00000
  16980     306.0192      0.00000
  16981     306.0276      0.00000
  16982     306.0578      0.00000
  16983     306.0727      0.00000
  16984     306.0773      0.00000
  16985     306.0869      0.00000
  16986     306.0932      0.00000
  16987     306.1236      0.00000
  16988     306.1297      0.00000
  16989     306.1380      0.00000
  16990     306.1450      0.00000
  16991     306.1537      0.00000
  16992     306.1720      0.00000
  16993     306.1850      0.00000
  16994     306.1917      0.00000
  16995     306.2081      0.00000
  16996     306.2171      0.00000
  16997     306.2283      0.00000
  16998     306.2542      0.00000
  16999     306.2723      0.00000
  17000     306.2814      0.00000
  17001     306.2929      0.00000
  17002     306.3025      0.00000
  17003     306.3065      0.00000
  17004     306.3221      0.00000
  17005     306.3295      0.00000
  17006     306.3418      0.00000
  17007     306.3491      0.00000
  17008     306.3700      0.00000
  17009     306.3831      0.00000
  17010     306.3976      0.00000
  17011     306.4031      0.00000
  17012     306.4055      0.00000
  17013     306.4306      0.00000
  17014     306.4379      0.00000
  17015     306.4435      0.00000
  17016     306.4567      0.00000
  17017     306.4655      0.00000
  17018     306.4879      0.00000
  17019     306.4977      0.00000
  17020     306.5107      0.00000
  17021     306.5280      0.00000
  17022     306.5371      0.00000
  17023     306.5594      0.00000
  17024     306.5777      0.00000
  17025     306.5813      0.00000
  17026     306.5916      0.00000
  17027     306.5957      0.00000
  17028     306.6184      0.00000
  17029     306.6254      0.00000
  17030     306.6586      0.00000
  17031     306.6659      0.00000
  17032     306.6741      0.00000
  17033     306.6936      0.00000
  17034     306.7106      0.00000
  17035     306.7204      0.00000
  17036     306.7284      0.00000
  17037     306.7451      0.00000
  17038     306.7597      0.00000
  17039     306.7722      0.00000
  17040     306.7840      0.00000
  17041     306.7944      0.00000
  17042     306.7989      0.00000
  17043     306.8106      0.00000
  17044     306.8283      0.00000
  17045     306.8378      0.00000
  17046     306.8569      0.00000
  17047     306.8629      0.00000
  17048     306.8917      0.00000
  17049     306.9095      0.00000
  17050     306.9293      0.00000
  17051     306.9343      0.00000
  17052     306.9461      0.00000
  17053     306.9530      0.00000
  17054     306.9763      0.00000
  17055     306.9829      0.00000
  17056     306.9899      0.00000
  17057     307.0141      0.00000
  17058     307.0209      0.00000
  17059     307.0365      0.00000
  17060     307.0447      0.00000
  17061     307.0581      0.00000
  17062     307.0861      0.00000
  17063     307.0913      0.00000
  17064     307.0936      0.00000
  17065     307.1195      0.00000
  17066     307.1270      0.00000
  17067     307.1445      0.00000
  17068     307.1541      0.00000
  17069     307.1653      0.00000
  17070     307.1800      0.00000
  17071     307.1869      0.00000
  17072     307.2034      0.00000
  17073     307.2244      0.00000
  17074     307.2322      0.00000
  17075     307.2531      0.00000
  17076     307.2645      0.00000
  17077     307.2754      0.00000
  17078     307.2950      0.00000
  17079     307.3061      0.00000
  17080     307.3183      0.00000
  17081     307.3488      0.00000
  17082     307.3600      0.00000
  17083     307.3648      0.00000
  17084     307.3865      0.00000
  17085     307.3947      0.00000
  17086     307.4067      0.00000
  17087     307.4288      0.00000
  17088     307.4344      0.00000
  17089     307.4515      0.00000
  17090     307.4695      0.00000
  17091     307.4906      0.00000
  17092     307.5023      0.00000
  17093     307.5081      0.00000
  17094     307.5183      0.00000
  17095     307.5226      0.00000
  17096     307.5568      0.00000
  17097     307.5696      0.00000
  17098     307.5784      0.00000
  17099     307.5941      0.00000
  17100     307.5978      0.00000
  17101     307.6208      0.00000
  17102     307.6303      0.00000
  17103     307.6515      0.00000
  17104     307.6746      0.00000
  17105     307.6834      0.00000
  17106     307.6875      0.00000
  17107     307.6998      0.00000
  17108     307.7115      0.00000
  17109     307.7256      0.00000
  17110     307.7413      0.00000
  17111     307.7576      0.00000
  17112     307.7609      0.00000
  17113     307.7758      0.00000
  17114     307.8122      0.00000
  17115     307.8237      0.00000
  17116     307.8332      0.00000
  17117     307.8585      0.00000
  17118     307.8650      0.00000
  17119     307.8737      0.00000
  17120     307.8771      0.00000
  17121     307.8865      0.00000
  17122     307.9183      0.00000
  17123     307.9329      0.00000
  17124     307.9461      0.00000
  17125     307.9657      0.00000
  17126     307.9713      0.00000
  17127     307.9848      0.00000
  17128     308.0056      0.00000
  17129     308.0317      0.00000
  17130     308.0357      0.00000
  17131     308.0683      0.00000
  17132     308.0797      0.00000
  17133     308.0901      0.00000
  17134     308.1020      0.00000
  17135     308.1139      0.00000
  17136     308.1316      0.00000
  17137     308.1427      0.00000
  17138     308.1524      0.00000
  17139     308.1644      0.00000
  17140     308.1688      0.00000
  17141     308.1886      0.00000
  17142     308.2072      0.00000
  17143     308.2157      0.00000
  17144     308.2389      0.00000
  17145     308.2425      0.00000
  17146     308.2643      0.00000
  17147     308.2751      0.00000
  17148     308.2861      0.00000
  17149     308.3087      0.00000
  17150     308.3123      0.00000
  17151     308.3270      0.00000
  17152     308.3486      0.00000
  17153     308.3676      0.00000
  17154     308.3869      0.00000
  17155     308.3933      0.00000
  17156     308.4046      0.00000
  17157     308.4189      0.00000
  17158     308.4304      0.00000
  17159     308.4399      0.00000
  17160     308.4500      0.00000
  17161     308.4701      0.00000
  17162     308.4752      0.00000
  17163     308.5080      0.00000
  17164     308.5170      0.00000
  17165     308.5336      0.00000
  17166     308.5509      0.00000
  17167     308.5560      0.00000
  17168     308.5619      0.00000
  17169     308.5862      0.00000
  17170     308.5942      0.00000
  17171     308.6030      0.00000
  17172     308.6089      0.00000
  17173     308.6383      0.00000
  17174     308.6458      0.00000
  17175     308.6634      0.00000
  17176     308.6688      0.00000
  17177     308.6717      0.00000
  17178     308.7031      0.00000
  17179     308.7140      0.00000
  17180     308.7289      0.00000
  17181     308.7439      0.00000
  17182     308.7491      0.00000
  17183     308.7605      0.00000
  17184     308.7656      0.00000
  17185     308.7756      0.00000
  17186     308.8129      0.00000
  17187     308.8213      0.00000
  17188     308.8271      0.00000
  17189     308.8364      0.00000
  17190     308.8496      0.00000
  17191     308.8599      0.00000
  17192     308.8755      0.00000
  17193     308.8848      0.00000
  17194     308.8880      0.00000
  17195     308.9070      0.00000
  17196     308.9299      0.00000
  17197     308.9360      0.00000
  17198     308.9430      0.00000
  17199     308.9780      0.00000
  17200     308.9858      0.00000
  17201     309.0132      0.00000
  17202     309.0143      0.00000
  17203     309.0223      0.00000
  17204     309.0412      0.00000
  17205     309.0423      0.00000
  17206     309.0706      0.00000
  17207     309.0787      0.00000
  17208     309.0882      0.00000
  17209     309.0952      0.00000
  17210     309.1084      0.00000
  17211     309.1252      0.00000
  17212     309.1359      0.00000
  17213     309.1459      0.00000
  17214     309.1630      0.00000
  17215     309.1728      0.00000
  17216     309.1743      0.00000
  17217     309.1848      0.00000
  17218     309.1928      0.00000
  17219     309.2109      0.00000
  17220     309.2272      0.00000
  17221     309.2403      0.00000
  17222     309.2498      0.00000
  17223     309.2569      0.00000
  17224     309.2632      0.00000
  17225     309.2671      0.00000
  17226     309.2967      0.00000
  17227     309.3205      0.00000
  17228     309.3247      0.00000
  17229     309.3352      0.00000
  17230     309.3537      0.00000
  17231     309.3628      0.00000
  17232     309.3718      0.00000
  17233     309.3834      0.00000
  17234     309.4028      0.00000
  17235     309.4076      0.00000
  17236     309.4230      0.00000
  17237     309.4272      0.00000
  17238     309.4520      0.00000
  17239     309.4685      0.00000
  17240     309.4798      0.00000
  17241     309.4813      0.00000
  17242     309.5031      0.00000
  17243     309.5112      0.00000
  17244     309.5200      0.00000
  17245     309.5307      0.00000
  17246     309.5419      0.00000
  17247     309.5680      0.00000
  17248     309.5834      0.00000
  17249     309.5887      0.00000
  17250     309.6149      0.00000
  17251     309.6230      0.00000
  17252     309.6413      0.00000
  17253     309.6618      0.00000
  17254     309.6634      0.00000
  17255     309.6684      0.00000
  17256     309.6870      0.00000
  17257     309.7002      0.00000
  17258     309.7106      0.00000
  17259     309.7151      0.00000
  17260     309.7255      0.00000
  17261     309.7439      0.00000
  17262     309.7536      0.00000
  17263     309.7638      0.00000
  17264     309.7744      0.00000
  17265     309.7906      0.00000
  17266     309.7984      0.00000
  17267     309.8156      0.00000
  17268     309.8188      0.00000
  17269     309.8275      0.00000
  17270     309.8333      0.00000
  17271     309.8429      0.00000
  17272     309.8637      0.00000
  17273     309.8801      0.00000
  17274     309.8949      0.00000
  17275     309.9027      0.00000
  17276     309.9082      0.00000
  17277     309.9333      0.00000
  17278     309.9448      0.00000
  17279     309.9505      0.00000
  17280     309.9639      0.00000
  17281     309.9839      0.00000
  17282     309.9907      0.00000
  17283     309.9987      0.00000
  17284     310.0000      0.00000
  17285     310.0183      0.00000
  17286     310.0342      0.00000
  17287     310.0551      0.00000
  17288     310.0662      0.00000
  17289     310.0827      0.00000
  17290     310.0918      0.00000
  17291     310.1045      0.00000
  17292     310.1070      0.00000
  17293     310.1286      0.00000
  17294     310.1379      0.00000
  17295     310.1416      0.00000
  17296     310.1693      0.00000
  17297     310.1756      0.00000
  17298     310.1828      0.00000
  17299     310.2019      0.00000
  17300     310.2029      0.00000
  17301     310.2177      0.00000
  17302     310.2248      0.00000
  17303     310.2442      0.00000
  17304     310.2526      0.00000
  17305     310.2816      0.00000
  17306     310.2942      0.00000
  17307     310.3074      0.00000
  17308     310.3191      0.00000
  17309     310.3393      0.00000
  17310     310.3539      0.00000
  17311     310.3602      0.00000
  17312     310.3714      0.00000
  17313     310.3884      0.00000
  17314     310.3994      0.00000
  17315     310.4243      0.00000
  17316     310.4287      0.00000
  17317     310.4385      0.00000
  17318     310.4536      0.00000
  17319     310.4604      0.00000
  17320     310.4783      0.00000
  17321     310.4838      0.00000
  17322     310.4980      0.00000
  17323     310.5104      0.00000
  17324     310.5153      0.00000
  17325     310.5291      0.00000
  17326     310.5439      0.00000
  17327     310.5498      0.00000
  17328     310.5614      0.00000
  17329     310.5845      0.00000
  17330     310.5900      0.00000
  17331     310.6094      0.00000
  17332     310.6116      0.00000
  17333     310.6152      0.00000
  17334     310.6339      0.00000
  17335     310.6391      0.00000
  17336     310.6540      0.00000
  17337     310.6639      0.00000
  17338     310.6753      0.00000
  17339     310.6865      0.00000
  17340     310.6894      0.00000
  17341     310.6995      0.00000
  17342     310.7214      0.00000
  17343     310.7398      0.00000
  17344     310.7509      0.00000
  17345     310.7575      0.00000
  17346     310.7849      0.00000
  17347     310.7920      0.00000
  17348     310.8110      0.00000
  17349     310.8198      0.00000
  17350     310.8308      0.00000
  17351     310.8415      0.00000
  17352     310.8457      0.00000
  17353     310.8659      0.00000
  17354     310.8734      0.00000
  17355     310.8877      0.00000
  17356     310.8974      0.00000
  17357     310.9203      0.00000
  17358     310.9465      0.00000
  17359     310.9508      0.00000
  17360     310.9583      0.00000
  17361     310.9740      0.00000
  17362     310.9846      0.00000
  17363     310.9909      0.00000
  17364     310.9975      0.00000
  17365     311.0232      0.00000
  17366     311.0301      0.00000
  17367     311.0457      0.00000
  17368     311.0495      0.00000
  17369     311.0785      0.00000
  17370     311.0807      0.00000
  17371     311.0986      0.00000
  17372     311.1101      0.00000
  17373     311.1348      0.00000
  17374     311.1380      0.00000
  17375     311.1488      0.00000
  17376     311.1675      0.00000
  17377     311.1696      0.00000
  17378     311.1886      0.00000
  17379     311.1948      0.00000
  17380     311.2013      0.00000
  17381     311.2270      0.00000
  17382     311.2409      0.00000
  17383     311.2475      0.00000
  17384     311.2584      0.00000
  17385     311.2675      0.00000
  17386     311.2727      0.00000
  17387     311.2816      0.00000
  17388     311.3075      0.00000
  17389     311.3130      0.00000
  17390     311.3211      0.00000
  17391     311.3357      0.00000
  17392     311.3506      0.00000
  17393     311.3617      0.00000
  17394     311.3702      0.00000
  17395     311.3916      0.00000
  17396     311.3971      0.00000
  17397     311.4031      0.00000
  17398     311.4199      0.00000
  17399     311.4489      0.00000
  17400     311.4556      0.00000
  17401     311.4709      0.00000
  17402     311.4925      0.00000
  17403     311.5020      0.00000
  17404     311.5158      0.00000
  17405     311.5207      0.00000
  17406     311.5251      0.00000
  17407     311.5378      0.00000
  17408     311.5512      0.00000
  17409     311.5692      0.00000
  17410     311.5788      0.00000
  17411     311.5984      0.00000
  17412     311.6051      0.00000
  17413     311.6205      0.00000
  17414     311.6400      0.00000
  17415     311.6441      0.00000
  17416     311.6540      0.00000
  17417     311.6585      0.00000
  17418     311.6772      0.00000
  17419     311.7011      0.00000
  17420     311.7083      0.00000
  17421     311.7139      0.00000
  17422     311.7242      0.00000
  17423     311.7530      0.00000
  17424     311.7622      0.00000
  17425     311.7714      0.00000
  17426     311.7786      0.00000
  17427     311.8038      0.00000
  17428     311.8186      0.00000
  17429     311.8299      0.00000
  17430     311.8361      0.00000
  17431     311.8605      0.00000
  17432     311.8733      0.00000
  17433     311.8816      0.00000
  17434     311.8948      0.00000
  17435     311.8984      0.00000
  17436     311.9064      0.00000
  17437     311.9332      0.00000
  17438     311.9448      0.00000
  17439     311.9512      0.00000
  17440     311.9630      0.00000
  17441     311.9853      0.00000
  17442     311.9979      0.00000
  17443     312.0114      0.00000
  17444     312.0245      0.00000
  17445     312.0271      0.00000
  17446     312.0400      0.00000
  17447     312.0542      0.00000
  17448     312.0594      0.00000
  17449     312.0788      0.00000
  17450     312.0930      0.00000
  17451     312.1080      0.00000
  17452     312.1139      0.00000
  17453     312.1383      0.00000
  17454     312.1496      0.00000
  17455     312.1510      0.00000
  17456     312.1653      0.00000
  17457     312.1860      0.00000
  17458     312.1956      0.00000
  17459     312.2059      0.00000
  17460     312.2239      0.00000
  17461     312.2340      0.00000
  17462     312.2442      0.00000
  17463     312.2585      0.00000
  17464     312.2617      0.00000
  17465     312.2762      0.00000
  17466     312.2859      0.00000
  17467     312.2951      0.00000
  17468     312.2997      0.00000
  17469     312.3071      0.00000
  17470     312.3347      0.00000
  17471     312.3492      0.00000
  17472     312.3729      0.00000
  17473     312.3905      0.00000
  17474     312.3921      0.00000
  17475     312.4057      0.00000
  17476     312.4195      0.00000
  17477     312.4301      0.00000
  17478     312.4491      0.00000
  17479     312.4699      0.00000
  17480     312.4914      0.00000
  17481     312.4993      0.00000
  17482     312.5055      0.00000
  17483     312.5216      0.00000
  17484     312.5365      0.00000
  17485     312.5473      0.00000
  17486     312.5609      0.00000
  17487     312.5702      0.00000
  17488     312.5829      0.00000
  17489     312.6009      0.00000
  17490     312.6223      0.00000
  17491     312.6299      0.00000
  17492     312.6354      0.00000
  17493     312.6530      0.00000
  17494     312.6611      0.00000
  17495     312.6681      0.00000
  17496     312.6767      0.00000
  17497     312.6866      0.00000
  17498     312.7159      0.00000
  17499     312.7183      0.00000
  17500     312.7364      0.00000
  17501     312.7470      0.00000
  17502     312.7549      0.00000
  17503     312.7642      0.00000
  17504     312.7892      0.00000
  17505     312.8012      0.00000
  17506     312.8157      0.00000
  17507     312.8300      0.00000
  17508     312.8403      0.00000
  17509     312.8618      0.00000
  17510     312.8816      0.00000
  17511     312.9035      0.00000
  17512     312.9060      0.00000
  17513     312.9227      0.00000
  17514     312.9348      0.00000
  17515     312.9432      0.00000
  17516     312.9552      0.00000
  17517     312.9684      0.00000
  17518     312.9882      0.00000
  17519     312.9995      0.00000
  17520     313.0085      0.00000
  17521     313.0181      0.00000
  17522     313.0387      0.00000
  17523     313.0517      0.00000
  17524     313.0711      0.00000
  17525     313.0760      0.00000
  17526     313.1062      0.00000
  17527     313.1086      0.00000
  17528     313.1241      0.00000
  17529     313.1378      0.00000
  17530     313.1484      0.00000
  17531     313.1509      0.00000
  17532     313.1850      0.00000
  17533     313.1987      0.00000
  17534     313.2160      0.00000
  17535     313.2187      0.00000
  17536     313.2246      0.00000
  17537     313.2345      0.00000
  17538     313.2453      0.00000
  17539     313.2623      0.00000
  17540     313.2803      0.00000
  17541     313.3032      0.00000
  17542     313.3138      0.00000
  17543     313.3319      0.00000
  17544     313.3358      0.00000
  17545     313.3456      0.00000
  17546     313.3617      0.00000
  17547     313.3847      0.00000
  17548     313.3919      0.00000
  17549     313.4109      0.00000
  17550     313.4187      0.00000
  17551     313.4375      0.00000
  17552     313.4633      0.00000
  17553     313.4809      0.00000
  17554     313.5035      0.00000
  17555     313.5149      0.00000
  17556     313.5217      0.00000
  17557     313.5323      0.00000
  17558     313.5635      0.00000
  17559     313.5661      0.00000
  17560     313.5813      0.00000
  17561     313.5966      0.00000
  17562     313.6048      0.00000
  17563     313.6103      0.00000
  17564     313.6269      0.00000
  17565     313.6337      0.00000
  17566     313.6511      0.00000
  17567     313.6670      0.00000
  17568     313.6753      0.00000
  17569     313.6828      0.00000
  17570     313.6960      0.00000
  17571     313.7162      0.00000
  17572     313.7189      0.00000
  17573     313.7438      0.00000
  17574     313.7505      0.00000
  17575     313.7533      0.00000
  17576     313.7590      0.00000
  17577     313.7858      0.00000
  17578     313.7977      0.00000
  17579     313.8179      0.00000
  17580     313.8343      0.00000
  17581     313.8380      0.00000
  17582     313.8761      0.00000
  17583     313.8826      0.00000
  17584     313.8875      0.00000
  17585     313.8919      0.00000
  17586     313.8986      0.00000
  17587     313.9072      0.00000
  17588     313.9191      0.00000
  17589     313.9484      0.00000
  17590     313.9609      0.00000
  17591     313.9715      0.00000
  17592     313.9806      0.00000
  17593     313.9959      0.00000
  17594     314.0000      0.00000
  17595     314.0339      0.00000
  17596     314.0476      0.00000
  17597     314.0563      0.00000
  17598     314.0749      0.00000
  17599     314.0840      0.00000
  17600     314.0918      0.00000
  17601     314.1188      0.00000
  17602     314.1272      0.00000
  17603     314.1399      0.00000
  17604     314.1437      0.00000
  17605     314.1565      0.00000
  17606     314.1700      0.00000
  17607     314.1724      0.00000
  17608     314.1943      0.00000
  17609     314.2030      0.00000
  17610     314.2135      0.00000
  17611     314.2324      0.00000
  17612     314.2468      0.00000
  17613     314.2498      0.00000
  17614     314.2640      0.00000
  17615     314.2841      0.00000
  17616     314.2926      0.00000
  17617     314.3031      0.00000
  17618     314.3151      0.00000
  17619     314.3198      0.00000
  17620     314.3429      0.00000
  17621     314.3439      0.00000
  17622     314.3479      0.00000
  17623     314.3953      0.00000
  17624     314.4004      0.00000
  17625     314.4063      0.00000
  17626     314.4206      0.00000
  17627     314.4263      0.00000
  17628     314.4347      0.00000
  17629     314.4630      0.00000
  17630     314.4752      0.00000
  17631     314.4868      0.00000
  17632     314.4903      0.00000
  17633     314.5031      0.00000
  17634     314.5204      0.00000
  17635     314.5297      0.00000
  17636     314.5438      0.00000
  17637     314.5536      0.00000
  17638     314.5628      0.00000
  17639     314.5702      0.00000
  17640     314.5759      0.00000
  17641     314.5990      0.00000
  17642     314.6105      0.00000
  17643     314.6259      0.00000
  17644     314.6299      0.00000
  17645     314.6481      0.00000
  17646     314.6603      0.00000
  17647     314.6832      0.00000
  17648     314.7003      0.00000
  17649     314.7139      0.00000
  17650     314.7283      0.00000
  17651     314.7446      0.00000
  17652     314.7505      0.00000
  17653     314.7566      0.00000
  17654     314.7780      0.00000
  17655     314.7905      0.00000
  17656     314.7915      0.00000
  17657     314.8079      0.00000
  17658     314.8125      0.00000
  17659     314.8328      0.00000
  17660     314.8461      0.00000
  17661     314.8527      0.00000
  17662     314.8640      0.00000
  17663     314.8733      0.00000
  17664     314.8843      0.00000
  17665     314.8908      0.00000
  17666     314.9153      0.00000
  17667     314.9199      0.00000
  17668     314.9332      0.00000
  17669     314.9470      0.00000
  17670     314.9509      0.00000
  17671     314.9661      0.00000
  17672     314.9746      0.00000
  17673     314.9861      0.00000
  17674     314.9923      0.00000
  17675     315.0015      0.00000
  17676     315.0080      0.00000
  17677     315.0244      0.00000
  17678     315.0383      0.00000
  17679     315.0477      0.00000
  17680     315.0536      0.00000
  17681     315.0659      0.00000
  17682     315.0871      0.00000
  17683     315.0967      0.00000
  17684     315.1027      0.00000
  17685     315.1212      0.00000
  17686     315.1324      0.00000
  17687     315.1443      0.00000
  17688     315.1584      0.00000
  17689     315.1721      0.00000
  17690     315.1915      0.00000
  17691     315.1994      0.00000
  17692     315.2037      0.00000
  17693     315.2188      0.00000
  17694     315.2242      0.00000
  17695     315.2447      0.00000
  17696     315.2523      0.00000
  17697     315.2623      0.00000
  17698     315.2790      0.00000
  17699     315.2808      0.00000
  17700     315.2941      0.00000
  17701     315.3036      0.00000
  17702     315.3083      0.00000
  17703     315.3212      0.00000
  17704     315.3252      0.00000
  17705     315.3424      0.00000
  17706     315.3436      0.00000
  17707     315.3695      0.00000
  17708     315.3806      0.00000
  17709     315.3978      0.00000
  17710     315.4101      0.00000
  17711     315.4150      0.00000
  17712     315.4216      0.00000
  17713     315.4304      0.00000
  17714     315.4464      0.00000
  17715     315.4647      0.00000
  17716     315.4820      0.00000
  17717     315.4920      0.00000
  17718     315.5039      0.00000
  17719     315.5114      0.00000
  17720     315.5323      0.00000
  17721     315.5388      0.00000
  17722     315.5506      0.00000
  17723     315.5768      0.00000
  17724     315.5825      0.00000
  17725     315.5999      0.00000
  17726     315.6172      0.00000
  17727     315.6222      0.00000
  17728     315.6274      0.00000
  17729     315.6348      0.00000
  17730     315.6456      0.00000
  17731     315.6465      0.00000
  17732     315.6575      0.00000
  17733     315.6705      0.00000
  17734     315.6932      0.00000
  17735     315.6966      0.00000
  17736     315.7046      0.00000
  17737     315.7284      0.00000
  17738     315.7348      0.00000
  17739     315.7476      0.00000
  17740     315.7689      0.00000
  17741     315.7747      0.00000
  17742     315.7865      0.00000
  17743     315.7881      0.00000
  17744     315.8036      0.00000
  17745     315.8147      0.00000
  17746     315.8348      0.00000
  17747     315.8421      0.00000
  17748     315.8549      0.00000
  17749     315.8720      0.00000
  17750     315.8799      0.00000
  17751     315.8828      0.00000
  17752     315.8961      0.00000
  17753     315.9058      0.00000
  17754     315.9099      0.00000
  17755     315.9275      0.00000
  17756     315.9353      0.00000
  17757     315.9547      0.00000
  17758     315.9642      0.00000
  17759     315.9700      0.00000
  17760     315.9821      0.00000
  17761     315.9934      0.00000
  17762     315.9980      0.00000
  17763     316.0072      0.00000
  17764     316.0206      0.00000
  17765     316.0334      0.00000
  17766     316.0557      0.00000
  17767     316.0625      0.00000
  17768     316.0711      0.00000
  17769     316.0823      0.00000
  17770     316.0947      0.00000
  17771     316.1047      0.00000
  17772     316.1146      0.00000
  17773     316.1310      0.00000
  17774     316.1373      0.00000
  17775     316.1468      0.00000
  17776     316.1570      0.00000
  17777     316.1681      0.00000
  17778     316.1840      0.00000
  17779     316.1948      0.00000
  17780     316.2022      0.00000
  17781     316.2107      0.00000
  17782     316.2291      0.00000
  17783     316.2402      0.00000
  17784     316.2442      0.00000
  17785     316.2564      0.00000
  17786     316.2603      0.00000
  17787     316.2714      0.00000
  17788     316.2910      0.00000
  17789     316.3021      0.00000
  17790     316.3043      0.00000
  17791     316.3170      0.00000
  17792     316.3410      0.00000
  17793     316.3481      0.00000
  17794     316.3698      0.00000
  17795     316.3721      0.00000
  17796     316.3797      0.00000
  17797     316.3862      0.00000
  17798     316.4121      0.00000
  17799     316.4251      0.00000
  17800     316.4297      0.00000
  17801     316.4395      0.00000
  17802     316.4478      0.00000
  17803     316.4616      0.00000
  17804     316.4707      0.00000
  17805     316.4832      0.00000
  17806     316.4942      0.00000
  17807     316.5020      0.00000
  17808     316.5073      0.00000
  17809     316.5439      0.00000
  17810     316.5532      0.00000
  17811     316.5568      0.00000
  17812     316.5609      0.00000
  17813     316.5756      0.00000
  17814     316.5915      0.00000
  17815     316.5919      0.00000
  17816     316.6031      0.00000
  17817     316.6218      0.00000
  17818     316.6301      0.00000
  17819     316.6371      0.00000
  17820     316.6511      0.00000
  17821     316.6578      0.00000
  17822     316.6727      0.00000
  17823     316.6754      0.00000
  17824     316.6870      0.00000
  17825     316.6988      0.00000
  17826     316.7041      0.00000
  17827     316.7242      0.00000
  17828     316.7252      0.00000
  17829     316.7402      0.00000
  17830     316.7481      0.00000
  17831     316.7620      0.00000
  17832     316.7775      0.00000
  17833     316.7804      0.00000
  17834     316.7899      0.00000
  17835     316.8053      0.00000
  17836     316.8121      0.00000
  17837     316.8260      0.00000
  17838     316.8374      0.00000
  17839     316.8471      0.00000
  17840     316.8578      0.00000
  17841     316.8695      0.00000
  17842     316.8848      0.00000
  17843     316.8895      0.00000
  17844     316.9003      0.00000
  17845     316.9144      0.00000
  17846     316.9231      0.00000
  17847     316.9407      0.00000
  17848     316.9497      0.00000
  17849     316.9555      0.00000
  17850     316.9613      0.00000
  17851     316.9660      0.00000
  17852     316.9810      0.00000
  17853     316.9970      0.00000
  17854     317.0102      0.00000
  17855     317.0200      0.00000
  17856     317.0301      0.00000
  17857     317.0372      0.00000
  17858     317.0599      0.00000
  17859     317.0707      0.00000
  17860     317.0780      0.00000
  17861     317.0916      0.00000
  17862     317.0991      0.00000
  17863     317.1174      0.00000
  17864     317.1328      0.00000
  17865     317.1351      0.00000
  17866     317.1494      0.00000
  17867     317.1512      0.00000
  17868     317.1618      0.00000
  17869     317.1683      0.00000
  17870     317.1854      0.00000
  17871     317.1924      0.00000
  17872     317.1999      0.00000
  17873     317.2126      0.00000
  17874     317.2199      0.00000
  17875     317.2306      0.00000
  17876     317.2485      0.00000
  17877     317.2522      0.00000
  17878     317.2657      0.00000
  17879     317.2708      0.00000
  17880     317.2882      0.00000
  17881     317.3010      0.00000
  17882     317.3232      0.00000
  17883     317.3292      0.00000
  17884     317.3473      0.00000
  17885     317.3530      0.00000
  17886     317.3610      0.00000
  17887     317.3667      0.00000
  17888     317.3743      0.00000
  17889     317.3851      0.00000
  17890     317.3977      0.00000
  17891     317.4059      0.00000
  17892     317.4244      0.00000
  17893     317.4285      0.00000
  17894     317.4452      0.00000
  17895     317.4548      0.00000
  17896     317.4626      0.00000
  17897     317.4697      0.00000
  17898     317.4978      0.00000
  17899     317.5004      0.00000
  17900     317.5127      0.00000
  17901     317.5198      0.00000
  17902     317.5260      0.00000
  17903     317.5380      0.00000
  17904     317.5617      0.00000
  17905     317.5682      0.00000
  17906     317.5769      0.00000
  17907     317.5800      0.00000
  17908     317.5910      0.00000
  17909     317.6029      0.00000
  17910     317.6131      0.00000
  17911     317.6248      0.00000
  17912     317.6446      0.00000
  17913     317.6502      0.00000
  17914     317.6583      0.00000
  17915     317.6776      0.00000
  17916     317.6794      0.00000
  17917     317.6861      0.00000
  17918     317.7002      0.00000
  17919     317.7137      0.00000
  17920     317.7228      0.00000
  17921     317.7247      0.00000
  17922     317.7447      0.00000
  17923     317.7569      0.00000
  17924     317.7626      0.00000
  17925     317.7702      0.00000
  17926     317.7795      0.00000
  17927     317.7881      0.00000
  17928     317.7960      0.00000
  17929     317.8169      0.00000
  17930     317.8254      0.00000
  17931     317.8338      0.00000
  17932     317.8500      0.00000
  17933     317.8537      0.00000
  17934     317.8624      0.00000
  17935     317.8817      0.00000
  17936     317.8968      0.00000
  17937     317.9028      0.00000
  17938     317.9071      0.00000
  17939     317.9276      0.00000
  17940     317.9297      0.00000
  17941     317.9452      0.00000
  17942     317.9631      0.00000
  17943     317.9731      0.00000
  17944     317.9807      0.00000
  17945     317.9892      0.00000
  17946     317.9991      0.00000
  17947     318.0144      0.00000
  17948     318.0263      0.00000
  17949     318.0399      0.00000
  17950     318.0509      0.00000
  17951     318.0605      0.00000
  17952     318.0772      0.00000
  17953     318.0862      0.00000
  17954     318.0921      0.00000
  17955     318.0991      0.00000
  17956     318.1213      0.00000
  17957     318.1294      0.00000
  17958     318.1375      0.00000
  17959     318.1468      0.00000
  17960     318.1575      0.00000
  17961     318.1657      0.00000
  17962     318.1843      0.00000
  17963     318.1996      0.00000
  17964     318.2076      0.00000
  17965     318.2113      0.00000
  17966     318.2318      0.00000
  17967     318.2392      0.00000
  17968     318.2595      0.00000
  17969     318.2649      0.00000
  17970     318.2709      0.00000
  17971     318.2780      0.00000
  17972     318.3055      0.00000
  17973     318.3148      0.00000
  17974     318.3329      0.00000
  17975     318.3439      0.00000
  17976     318.3508      0.00000
  17977     318.3746      0.00000
  17978     318.3869      0.00000
  17979     318.3951      0.00000
  17980     318.3978      0.00000
  17981     318.4118      0.00000
  17982     318.4405      0.00000
  17983     318.4459      0.00000
  17984     318.4575      0.00000
  17985     318.4649      0.00000
  17986     318.4700      0.00000
  17987     318.4792      0.00000
  17988     318.5048      0.00000
  17989     318.5284      0.00000
  17990     318.5444      0.00000
  17991     318.5621      0.00000
  17992     318.5800      0.00000
  17993     318.5820      0.00000
  17994     318.6104      0.00000
  17995     318.6167      0.00000
  17996     318.6325      0.00000
  17997     318.6412      0.00000
  17998     318.6538      0.00000
  17999     318.6693      0.00000
  18000     318.6724      0.00000
  18001     318.7034      0.00000
  18002     318.7214      0.00000
  18003     318.7360      0.00000
  18004     318.7476      0.00000
  18005     318.7551      0.00000
  18006     318.7783      0.00000
  18007     318.7874      0.00000
  18008     318.7989      0.00000
  18009     318.8089      0.00000
  18010     318.8097      0.00000
  18011     318.8278      0.00000
  18012     318.8334      0.00000
  18013     318.8412      0.00000
  18014     318.8662      0.00000
  18015     318.8764      0.00000
  18016     318.8816      0.00000
  18017     318.9020      0.00000
  18018     318.9134      0.00000
  18019     318.9235      0.00000
  18020     318.9403      0.00000
  18021     318.9558      0.00000
  18022     318.9690      0.00000
  18023     318.9802      0.00000
  18024     318.9866      0.00000
  18025     318.9905      0.00000
  18026     319.0117      0.00000
  18027     319.0214      0.00000
  18028     319.0308      0.00000
  18029     319.0416      0.00000
  18030     319.0556      0.00000
  18031     319.0695      0.00000
  18032     319.0797      0.00000
  18033     319.0860      0.00000
  18034     319.1296      0.00000
  18035     319.1404      0.00000
  18036     319.1547      0.00000
  18037     319.1686      0.00000
  18038     319.1864      0.00000
  18039     319.1876      0.00000
  18040     319.2023      0.00000
  18041     319.2357      0.00000
  18042     319.2520      0.00000
  18043     319.2638      0.00000
  18044     319.2742      0.00000
  18045     319.2803      0.00000
  18046     319.2875      0.00000
  18047     319.2966      0.00000
  18048     319.3180      0.00000
  18049     319.3387      0.00000
  18050     319.3456      0.00000
  18051     319.3592      0.00000
  18052     319.3633      0.00000
  18053     319.3696      0.00000
  18054     319.3776      0.00000
  18055     319.4006      0.00000
  18056     319.4110      0.00000
  18057     319.4230      0.00000
  18058     319.4500      0.00000
  18059     319.4560      0.00000
  18060     319.4730      0.00000
  18061     319.4857      0.00000
  18062     319.4900      0.00000
  18063     319.5015      0.00000
  18064     319.5174      0.00000
  18065     319.5322      0.00000
  18066     319.5454      0.00000
  18067     319.5585      0.00000
  18068     319.5804      0.00000
  18069     319.5836      0.00000
  18070     319.5956      0.00000
  18071     319.6169      0.00000
  18072     319.6422      0.00000
  18073     319.6460      0.00000
  18074     319.6582      0.00000
  18075     319.6764      0.00000
  18076     319.6852      0.00000
  18077     319.6995      0.00000
  18078     319.7119      0.00000
  18079     319.7312      0.00000
  18080     319.7391      0.00000
  18081     319.7531      0.00000
  18082     319.7611      0.00000
  18083     319.7909      0.00000
  18084     319.8034      0.00000
  18085     319.8070      0.00000
  18086     319.8130      0.00000
  18087     319.8375      0.00000
  18088     319.8427      0.00000
  18089     319.8644      0.00000
  18090     319.8795      0.00000
  18091     319.8855      0.00000
  18092     319.8915      0.00000
  18093     319.9161      0.00000
  18094     319.9196      0.00000
  18095     319.9374      0.00000
  18096     319.9427      0.00000
  18097     319.9498      0.00000
  18098     319.9573      0.00000
  18099     319.9927      0.00000
  18100     320.0020      0.00000
  18101     320.0183      0.00000
  18102     320.0224      0.00000
  18103     320.0400      0.00000
  18104     320.0575      0.00000
  18105     320.0647      0.00000
  18106     320.0741      0.00000
  18107     320.0759      0.00000
  18108     320.0994      0.00000
  18109     320.1132      0.00000
  18110     320.1214      0.00000
  18111     320.1261      0.00000
  18112     320.1448      0.00000
  18113     320.1598      0.00000
  18114     320.1799      0.00000
  18115     320.1992      0.00000
  18116     320.2184      0.00000
  18117     320.2217      0.00000
  18118     320.2327      0.00000
  18119     320.2500      0.00000
  18120     320.2644      0.00000
  18121     320.2960      0.00000
  18122     320.3030      0.00000
  18123     320.3084      0.00000
  18124     320.3188      0.00000
  18125     320.3504      0.00000
  18126     320.3601      0.00000
  18127     320.3806      0.00000
  18128     320.4006      0.00000
  18129     320.4029      0.00000
  18130     320.4153      0.00000
  18131     320.4378      0.00000
  18132     320.4654      0.00000
  18133     320.4946      0.00000
  18134     320.5187      0.00000
  18135     320.5332      0.00000
  18136     320.5444      0.00000
  18137     320.5600      0.00000
  18138     320.6025      0.00000
  18139     320.6336      0.00000
  18140     320.6627      0.00000
  18141     320.6701      0.00000
  18142     320.7042      0.00000
  18143     320.7344      0.00000
  18144     320.7429      0.00000
  18145     320.7769      0.00000
  18146     320.7884      0.00000
  18147     320.8011      0.00000
  18148     320.9161      0.00000
  18149     320.9863      0.00000
  18150     321.0053      0.00000
  18151     321.0733      0.00000
  18152     321.2545      0.00000
  18153     321.3454      0.00000
  18154     321.4106      0.00000
  18155     321.5191      0.00000
  18156     321.7247      0.00000
  18157     321.7785      0.00000
  18158     321.8570      0.00000
  18159     322.0053      0.00000
  18160     322.0917      0.00000
  18161     322.1558      0.00000
  18162     322.3221      0.00000
  18163     322.3541      0.00000
  18164     322.4745      0.00000
  18165     322.5643      0.00000
  18166     322.7088      0.00000
  18167     322.7627      0.00000
  18168     322.9738      0.00000
  18169     323.0970      0.00000
  18170     323.1117      0.00000
  18171     323.2114      0.00000
  18172     323.3122      0.00000
  18173     323.3239      0.00000
  18174     323.5786      0.00000
  18175     323.6588      0.00000
  18176     323.9006      0.00000


--------------------------------------------------------------------------------------------------------


 soft charge-density along one line, spin component           1
         0         1         2         3         4         5         6         7         8         9
 total charge-density along one line
 
 pseudopotential strength for first ion, spin component:           1
  9.417 -14.514   0.000  -0.001   0.001   0.002  -0.004   0.005
-14.514  25.269  -0.000   0.001  -0.001  -0.003   0.007  -0.010
  0.000  -0.000  -3.738  -0.002   0.004  -0.036   0.010  -0.017
 -0.001   0.001  -0.002  -3.732  -0.010   0.010  -0.058   0.039
  0.001  -0.001   0.004  -0.010  -3.725  -0.017   0.039  -0.087
  0.002  -0.003  -0.036   0.010  -0.017  50.196  -0.033   0.053
 -0.004   0.007   0.010  -0.058   0.039  -0.033  50.266  -0.125
  0.005  -0.010  -0.017   0.039  -0.087   0.053  -0.125  50.360
 total augmentation occupancy for first ion, spin component:           1
  1.726   0.050  -0.002   0.007  -0.016   0.000   0.000  -0.002
  0.050   0.003   0.000   0.000  -0.001   0.000   0.000  -0.000
 -0.002   0.000   0.898  -0.134   0.200   0.061  -0.015   0.022
  0.007   0.000  -0.134   1.171  -0.477  -0.015   0.093  -0.053
 -0.016  -0.001   0.200  -0.477   1.520   0.022  -0.053   0.131
  0.000   0.000   0.061  -0.015   0.022   0.004  -0.002   0.003
  0.000   0.000  -0.015   0.093  -0.053  -0.002   0.008  -0.006
 -0.002  -0.000   0.022  -0.053   0.131   0.003  -0.006   0.013


------------------------ aborting loop because EDIFF is reached ----------------------------------------





 total charge

# of ion       s       p       d       f       tot
--------------------------------------------------
    1        0.892   1.645   0.000   0.000   2.537
    2        0.816   1.649   0.000   0.000   2.465
    3        0.829   1.752   0.000   0.000   2.581
    4        0.816   1.648   0.000   0.000   2.464
    5        0.829   1.753   0.000   0.000   2.581
    6        0.826   1.572   0.000   0.000   2.398
    7        0.839   1.745   0.000   0.000   2.584
    8        0.839   1.749   0.000   0.000   2.588
    9        0.826   1.571   0.000   0.000   2.397
   10        0.839   1.745   0.000   0.000   2.584
   11        0.826   1.572   0.000   0.000   2.397
   12        0.829   1.752   0.000   0.000   2.581
   13        0.816   1.650   0.000   0.000   2.465
   14        0.816   1.648   0.000   0.000   2.464
   15        0.829   1.753   0.000   0.000   2.582
   16        0.826   1.572   0.000   0.000   2.398
   17        0.839   1.745   0.000   0.000   2.584
   18        0.826   1.572   0.000   0.000   2.397
   19        0.839   1.744   0.000   0.000   2.584
   20        0.839   1.745   0.000   0.000   2.584
   21        0.826   1.572   0.000   0.000   2.398
   22        0.829   1.753   0.000   0.000   2.581
   23        0.816   1.649   0.000   0.000   2.465
   24        0.829   1.754   0.000   0.000   2.583
   25        0.816   1.649   0.000   0.000   2.465
   26        0.675   0.048   0.001   0.000   0.723
   27        0.675   0.048   0.001   0.000   0.723
   28        0.675   0.048   0.001   0.000   0.723
   29        0.675   0.048   0.001   0.000   0.723
   30        0.675   0.048   0.001   0.000   0.723
   31        0.675   0.048   0.001   0.000   0.723
   32        1.627   3.642   0.000   0.000   5.269
   33        1.618   3.668   0.000   0.000   5.286
   34        1.576   3.755   0.000   0.000   5.332
   35        1.561   3.732   0.000   0.000   5.293
   36        1.589   3.704   0.000   0.000   5.293
   37        1.561   3.731   0.000   0.000   5.292
   38        1.576   3.756   0.000   0.000   5.332
   39        1.576   3.756   0.000   0.000   5.331
   40        1.561   3.732   0.000   0.000   5.293
   41        1.589   3.704   0.000   0.000   5.293
   42        1.589   3.704   0.000   0.000   5.293
   43        1.589   3.703   0.000   0.000   5.293
   44        1.589   3.710   0.000   0.000   5.299
   45        1.561   3.732   0.000   0.000   5.293
   46        1.576   3.755   0.000   0.000   5.331
   47        1.576   3.756   0.000   0.000   5.332
   48        1.561   3.730   0.000   0.000   5.292
   49        1.589   3.704   0.000   0.000   5.293
   50        1.561   3.732   0.000   0.000   5.293
   51        1.577   3.754   0.000   0.000   5.331
   52        2.067   6.229   5.728   0.017  14.040
   53        2.067   6.229   5.727   0.017  14.039
   54        2.067   6.230   5.727   0.017  14.040
   55        2.067   6.230   5.727   0.017  14.040
   56        2.066   6.230   5.727   0.017  14.039
   57        2.067   6.229   5.728   0.017  14.040
--------------------------------------------------
tot         68.797 154.084  34.368   0.100 257.349
 
    CHARGE:  cpu time      0.0642: real time      0.0645
    FORLOC:  cpu time      0.0110: real time      0.0110
    FORHF :  cpu time      9.1362: real time      9.1609
    FORNL :  cpu time      5.6254: real time      5.6406
    FORCOR:  cpu time      0.4212: real time      0.4222
    FORHAR:  cpu time      0.0199: real time      0.0200
    MIXING:  cpu time      0.0006: real time      0.0006
    OFIELD:  cpu time      0.0000: real time      0.0000

 VOLUME and BASIS-vectors are now :
 -----------------------------------------------------------------------------
  energy-cutoff  :      320.00
  volume of cell :     1403.01
      direct lattice vectors                 reciprocal lattice vectors
    15.439217752  0.004465832 -0.038376892     0.065085042  0.034326685  0.130688713
    -7.186282924 13.630928377 -0.001416099     0.000303919  0.073536393  0.130825479
    -7.182834812-11.890639092  6.700359279     0.000372844  0.000212151  0.150021909

  length of vectors
    15.439266094 15.409246337 15.423204220     0.149979744  0.150076646  0.150022522


 FORCES acting on ions
    electron-ion (+dipol)            ewald-force                    non-local-force                 convergence-correction
 -----------------------------------------------------------------------------------------------
   0.273E+03 -.251E+03 0.275E+02   -.274E+03 0.251E+03 -.270E+02   -.185E+00 0.157E+00 -.129E+00   -.124E-03 -.252E-04 0.827E-04
   -.193E+03 0.755E+02 0.238E+02   0.196E+03 -.789E+02 -.251E+02   -.376E+01 0.373E+01 0.142E+01   0.163E-04 -.196E-04 0.565E-05
   -.119E+03 0.121E+02 -.426E+01   0.120E+03 -.116E+02 0.199E+01   -.884E+00 -.195E+00 0.901E+00   0.184E-04 0.147E-04 -.582E-05
   0.118E+03 0.192E+03 -.366E+02   -.122E+03 -.194E+03 0.362E+02   0.410E+01 0.163E+01 0.309E+00   0.528E-04 -.261E-04 -.295E-04
   0.103E+03 -.851E+02 -.274E+02   -.105E+03 0.857E+02 0.257E+02   0.103E+01 -.500E+00 0.717E+00   0.106E-04 -.378E-05 -.349E-06
   -.249E+03 -.339E+02 0.988E+02   0.252E+03 0.354E+02 -.101E+03   -.411E+01 -.228E+01 0.541E+01   0.115E-04 0.139E-04 0.815E-06
   -.694E+02 -.761E+02 -.697E+02   0.697E+02 0.780E+02 0.716E+02   -.429E+00 -.175E+01 -.197E+01   0.130E-04 -.950E-05 0.189E-05
   -.548E+02 0.130E+03 -.113E+03   0.565E+02 -.130E+03 0.115E+03   -.139E+01 0.150E+00 -.226E+01   0.285E-04 -.126E-06 -.196E-04
   -.878E+02 -.292E+03 0.494E+02   0.880E+02 0.297E+03 -.487E+02   0.215E+00 -.594E+01 -.302E+01   0.383E-04 0.223E-04 -.350E-04
   -.836E+02 0.368E+02 0.106E+03   0.844E+02 -.367E+02 -.108E+03   -.679E+00 0.158E+00 0.256E+01   0.818E-05 0.429E-04 0.674E-05
   0.241E+03 -.164E+03 0.502E+02   -.245E+03 0.166E+03 -.518E+02   0.607E+01 -.152E+01 0.362E+01   0.107E-04 0.514E-06 -.216E-05
   -.470E+02 -.130E+03 0.759E+02   0.472E+02 0.133E+03 -.747E+02   -.169E+00 -.122E+01 -.406E+00   0.205E-04 0.103E-03 0.609E-04
   -.539E+02 0.184E+03 -.523E+02   0.534E+02 -.188E+03 0.551E+02   0.570E+00 0.455E+01 -.307E+01   0.463E-05 0.117E-04 0.317E-05
   0.758E+01 -.212E+03 0.625E+02   -.713E+01 0.216E+03 -.653E+02   -.444E+00 -.374E+01 0.246E+01   0.153E-04 -.864E-05 0.930E-04
   0.492E+01 0.103E+03 -.613E+02   -.516E+01 -.105E+03 0.601E+02   0.228E+00 0.132E+01 0.378E+00   0.552E-05 0.209E-05 -.163E-05
   -.241E+03 0.181E+03 -.564E+02   0.245E+03 -.183E+03 0.580E+02   -.604E+01 0.151E+01 -.361E+01   0.208E-04 -.348E-04 -.996E-06
   0.453E+02 -.675E+02 -.933E+02   -.461E+02 0.673E+02 0.958E+02   0.687E+00 -.629E-01 -.257E+01   -.139E-05 -.277E-04 -.152E-04
   0.481E+02 0.281E+03 -.348E+02   -.483E+02 -.285E+03 0.343E+02   -.588E-01 0.686E+01 0.242E+01   0.458E-05 0.606E-05 -.546E-05
   0.300E+02 -.110E+02 0.953E+02   -.315E+02 0.110E+02 -.975E+02   0.135E+01 -.207E-02 0.228E+01   0.427E-04 0.247E-04 -.373E-04
   0.788E+02 0.845E+02 0.660E+02   -.791E+02 -.864E+02 -.678E+02   0.435E+00 0.174E+01 0.198E+01   0.975E-05 -.925E-05 0.549E-06
   0.219E+03 0.106E+03 -.117E+03   -.222E+03 -.108E+03 0.120E+03   0.460E+01 0.233E+01 -.442E+01   -.129E-03 -.294E-04 -.506E-04
   -.956E+02 0.958E+02 0.228E+02   0.977E+02 -.965E+02 -.211E+02   -.100E+01 0.489E+00 -.713E+00   0.140E-04 -.193E-04 0.383E-05
   -.142E+03 -.849E+02 0.387E+02   0.147E+03 0.867E+02 -.383E+02   -.503E+01 -.194E+01 -.443E+00   0.217E-04 0.130E-04 -.142E-04
   0.988E+02 0.928E+02 0.183E+01   -.100E+03 -.934E+02 0.420E+00   0.813E+00 0.244E+00 -.959E+00   0.220E-04 0.170E-04 -.484E-04
   0.199E+03 -.656E+02 -.272E+02   -.203E+03 0.690E+02 0.285E+02   0.377E+01 -.373E+01 -.142E+01   0.932E-05 -.304E-05 -.610E-07
   -.396E+02 0.155E+02 0.581E+02   0.401E+02 -.163E+02 -.638E+02   -.449E+00 0.808E+00 0.545E+01   0.150E-05 0.938E-05 -.227E-05
   -.313E+02 -.474E+02 -.381E+02   0.323E+02 0.503E+02 0.431E+02   -.922E+00 -.270E+01 -.474E+01   0.330E-05 -.217E-05 0.212E-06
   -.340E+02 0.432E+02 -.618E+02   0.361E+02 -.428E+02 0.672E+02   -.198E+01 -.481E+00 -.514E+01   -.770E-06 0.332E-05 0.177E-05
   0.253E+02 -.131E+02 0.481E+02   -.274E+02 0.126E+02 -.534E+02   0.199E+01 0.503E+00 0.514E+01   0.145E-04 0.789E-05 -.699E-05
   0.335E+02 0.493E+02 0.372E+02   -.344E+02 -.522E+02 -.422E+02   0.923E+00 0.270E+01 0.474E+01   0.188E-05 -.199E-05 -.186E-07
   0.308E+02 -.226E+02 -.552E+02   -.313E+02 0.234E+02 0.609E+02   0.448E+00 -.803E+00 -.545E+01   -.156E-05 0.801E-06 -.779E-05
   0.476E+03 -.358E+03 -.775E+02   -.530E+03 0.342E+03 0.116E+03   0.332E+02 0.954E+01 -.232E+02   0.227E-04 0.460E-04 0.199E-04
   0.374E+03 -.442E+03 0.201E+03   -.325E+03 0.459E+03 -.239E+03   -.303E+02 -.104E+02 0.235E+02   -.239E-03 -.128E-03 0.195E-03
   -.258E+03 -.639E+02 0.525E+02   0.223E+03 0.503E+02 -.575E+02   0.275E+02 0.108E+02 0.317E+01   0.172E-04 0.147E-04 -.296E-05
   -.506E+03 0.405E+02 0.276E+02   0.492E+03 -.152E+02 -.144E+02   0.118E+02 -.177E+02 -.106E+02   0.286E-04 -.391E-04 0.341E-04
   -.280E+03 -.457E+03 0.223E+03   0.289E+03 0.464E+03 -.268E+03   -.589E+01 -.455E+01 0.342E+02   0.408E-04 0.270E-04 -.123E-03
   0.179E+03 0.451E+03 -.179E+03   -.150E+03 -.443E+03 0.191E+03   -.172E+02 -.463E+01 -.640E+01   -.363E-03 -.481E-04 -.211E-03
   -.993E+02 -.280E+03 0.113E+03   0.944E+02 0.250E+03 -.911E+02   0.328E+01 0.183E+02 -.143E+02   0.396E-04 -.174E-03 0.208E-04
   0.258E+03 -.166E+03 -.126E+02   -.234E+03 0.140E+03 0.202E+01   -.195E+02 0.207E+02 0.759E+01   0.152E-04 0.712E-05 -.455E-05
   -.222E+03 0.443E+03 -.351E+02   0.229E+03 -.423E+03 0.109E+02   -.380E+01 -.148E+02 0.181E+02   0.884E-05 0.158E-04 -.121E-05
   -.539E+03 0.391E+02 0.171E+02   0.568E+03 -.328E+02 0.191E+02   -.211E+02 -.480E+01 -.277E+02   0.194E-04 0.261E-04 -.607E-05
   -.302E+03 0.482E+03 -.218E+02   0.304E+03 -.514E+03 -.128E+02   -.133E+01 0.233E+02 0.263E+02   0.928E-05 -.407E-04 -.150E-05
   0.306E+03 -.456E+03 0.131E+02   -.309E+03 0.488E+03 0.214E+02   0.136E+01 -.233E+02 -.263E+02   0.174E-04 -.860E-06 -.346E-05
   0.448E+03 0.805E+02 -.951E+02   -.476E+03 -.867E+02 0.588E+02   0.172E+02 0.368E+01 0.236E+02   0.131E-04 -.186E-03 0.560E-03
   0.139E+03 -.462E+03 0.349E+02   -.147E+03 0.442E+03 -.109E+02   0.453E+01 0.121E+02 -.136E+02   0.173E-03 0.382E-03 -.826E-04
   -.282E+03 0.198E+03 0.235E+01   0.257E+03 -.172E+03 0.809E+01   0.196E+02 -.207E+02 -.742E+01   0.100E-03 -.977E-04 0.176E-04
   0.305E+02 0.295E+03 -.957E+02   -.259E+02 -.265E+03 0.737E+02   -.368E+01 -.240E+02 0.167E+02   0.110E-04 0.113E-04 -.640E-05
   -.229E+03 -.334E+03 0.172E+03   0.200E+03 0.327E+03 -.183E+03   0.212E+02 0.665E+01 0.853E+01   0.192E-04 0.103E-04 -.123E-04
   0.235E+03 0.437E+03 -.206E+03   -.243E+03 -.444E+03 0.252E+03   0.597E+01 0.464E+01 -.343E+02   0.380E-05 0.145E-04 -.871E-05
   0.502E+03 -.228E+02 -.301E+02   -.487E+03 -.243E+01 0.169E+02   -.119E+02 0.177E+02 0.104E+02   0.126E-04 0.237E-05 -.206E-05
   0.219E+03 0.130E+03 -.580E+02   -.184E+03 -.116E+03 0.630E+02   -.275E+02 -.109E+02 -.320E+01   -.212E-03 -.132E-03 0.748E-04
   0.679E+03 0.744E+03 -.334E+03   -.675E+03 -.740E+03 0.330E+03   -.229E+02 -.472E+02 0.195E+02   0.263E-04 0.321E-04 -.950E-05
   -.985E+03 0.294E+03 0.415E+02   0.978E+03 -.293E+03 -.421E+02   0.606E+02 0.675E+01 -.661E+01   0.421E-04 0.419E-04 -.189E-04
   0.397E+03 -.904E+03 0.148E+03   -.395E+03 0.897E+03 -.148E+03   -.321E+02 0.483E+02 -.345E+01   0.446E-04 0.200E-04 -.113E-04
   -.445E+03 0.103E+04 -.154E+03   0.443E+03 -.102E+04 0.154E+03   0.322E+02 -.475E+02 0.366E+01   -.885E-04 0.746E-04 -.145E-03
   0.663E+03 -.116E+03 -.993E+02   -.658E+03 0.116E+03 0.987E+02   -.235E+01 0.610E+01 -.118E+02   -.230E-03 -.282E-04 0.156E-03
   -.781E+03 -.723E+03 0.338E+03   0.777E+03 0.719E+03 -.335E+03   0.211E+02 0.449E+02 -.169E+02   0.231E-03 -.980E-04 0.291E-03
 -----------------------------------------------------------------------------------------------
   -.680E+01 0.276E+01 -.119E+01   0.000E+00 -.341E-12 0.114E-12   0.597E+02 0.495E+01 -.111E+02   -.753E-04 -.173E-03 0.697E-03
 
 
 POSITION                                       TOTAL-FORCE (eV/Angst)
 -----------------------------------------------------------------------------------
     -3.78791     10.21574      1.46059        -1.509845     -0.164117      0.495214
     -4.52388     -4.95096      3.79931        -1.832831      0.591919      0.217160
     -4.37821      6.43769      1.10882        -0.941335      0.007805     -0.780409
     -2.27140      7.33612      0.20906        -0.692508     -0.060500     -0.084921
     -2.44692     -6.22910      4.12534        -1.531243     -0.250861     -0.552886
     -5.11592      6.03086      2.33290        -1.953801     -0.779289      2.351820
     -3.37431     -5.26237      4.53352        -1.147170     -0.212099     -0.107893
     -3.08474      6.94685      1.27881        -1.019885     -0.123725     -0.189602
     -6.67312     -0.89799      5.49428        -0.696402     -1.315712     -1.624465
     -6.53791      1.55649      5.31338        -1.032968      0.076246      0.513293
     -1.25474     -6.43703      4.98854         0.869905     -0.136967      1.644591
     -6.68409      0.43821      6.14372        -1.057856      0.506774      0.913132
     -6.50125      2.86783      5.80002        -0.879098      0.854108     -0.129708
      7.57135     -1.12308      0.86055        -1.052866     -0.378524     -0.040048
      7.75419      1.30655      0.51685        -0.927239     -0.630635     -0.554162
      2.32484      8.18178      1.67203        -2.899309      0.016838     -1.269530
      7.60801      0.18827      1.34718        -0.976153     -0.219617     -0.134695
      7.74322      2.64274      1.16629        -1.207142      1.891397      1.476215
      4.15484     -5.20209      5.38176        -0.898797     -0.078553      0.505367
      4.44441      7.00712      2.12704        -0.851300      0.046140      0.484834
      6.18602     -4.28611      4.32766         0.529078      0.690407     -0.752180
      3.51702      7.97385      2.53523        -0.462599      0.092531      0.916532
      3.34150     -5.59137      6.45151        -2.054203     -0.485619      0.419037
      5.44831     -4.69294      5.55174        -1.137612     -0.221869      1.060818
      5.59398      6.69571      2.86125        -0.184243     -0.732744      0.148347
     -6.44726      1.39877      4.23973        -0.984889     -0.005454      0.404098
     -3.19258     -4.72839      5.46491        -1.067227     -0.142393     -0.028829
     -2.69330      7.04306      2.29033        -1.015891     -0.136032     -0.034580
      3.76340     -5.29830      4.37024        -0.993780     -0.065118      0.438451
      4.26268      6.47315      1.19565        -0.938412     -0.020414      0.397700
      7.51736      0.34598      2.42084        -1.019168     -0.161237     -0.033595
      2.45918     -3.68122      2.11145         1.890414      0.833943     -1.783487
     -2.85639     10.49971      0.79068        -3.216684     -0.901092      1.924086
     -6.31841      5.58472      2.19568         6.332271      2.629816      0.562903
     -5.36548     -4.00543      4.28416         2.410018     -3.434852     -2.889329
     -6.48288     -1.00634      4.24024        -2.105479     -1.468350      8.064249
     -1.03477      7.82012      0.48250        -1.534132     -0.585738      0.155333
     -6.85236     -1.93768      6.23784        -0.429559      0.827839     -1.247522
     -0.41602     -7.36024      4.65396        -6.372312      5.363914      1.645437
     -6.36144      3.88288      4.91321        -0.707053     -3.506854      4.564057
     -4.56624      6.11546      3.47828        -6.072696     -1.545746     -6.138534
      2.14039      7.46364      0.63844        -1.801746      5.300227      6.261997
     -1.07029     -5.71889      6.02213        -0.185142     -5.453577     -5.911115
      5.63634     -4.37071      3.18228         0.661516      0.250785      2.431939
      7.43154     -2.13813      1.74735        -0.660870      0.610016      0.247470
      1.48612      9.10500      2.00661         4.461441     -5.521413     -1.152187
      7.92246      3.68243      0.42272        -2.075281     -6.703017      4.044118
      2.10487     -6.07537      6.17806         3.473950      2.523991      2.311007
      7.55298      2.75109      2.42033         0.172256      1.381514     -7.791204
      6.43558      5.75019      2.37641        -4.524478      3.303656      3.035272
      7.38851     -3.83997      4.46489        -8.344794     -2.829154     -0.199941
     -7.67594      4.55003      3.44770       -18.910669    -52.275462     11.470625
      1.56621     -7.84999      5.22512        57.362114     11.173356    -16.183734
      7.62424      5.76929      0.68183       -39.830559     42.336430     -9.749200
     -6.55414     -4.02454      5.97873        37.959129    -41.670210     10.278913
     -0.49611      9.59474      1.43544        -1.503422      1.110330     -1.539840
      8.74604     -2.80527      3.21286        15.118553     49.796962     -8.480418
 -----------------------------------------------------------------------------------
    total drift:                               57.152064      4.676899    -10.544209


--------------------------------------------------------------------------------------------------------



  FREE ENERGIE OF THE ION-ELECTRON SYSTEM (eV)
  ---------------------------------------------------
  free  energy   TOTEN  =      -891.04886032 eV

  energy  without entropy=     -891.04886032  energy(sigma->0) =     -891.04886032
 


--------------------------------------------------------------------------------------------------------


    POTLOK:  cpu time      0.4391: real time      0.4405


--------------------------------------------------------------------------------------------------------


 writing wavefunctions
     LOOP+:  cpu time   1638.7311: real time   1643.9079
    4ORBIT:  cpu time      0.0000: real time      0.0000



 total charge

# of ion       s       p       d       f       tot
--------------------------------------------------
    1        0.892   1.645   0.000   0.000   2.537
    2        0.816   1.649   0.000   0.000   2.465
    3        0.829   1.752   0.000   0.000   2.581
    4        0.816   1.648   0.000   0.000   2.464
    5        0.829   1.753   0.000   0.000   2.581
    6        0.826   1.572   0.000   0.000   2.398
    7        0.839   1.745   0.000   0.000   2.584
    8        0.839   1.749   0.000   0.000   2.588
    9        0.826   1.571   0.000   0.000   2.397
   10        0.839   1.745   0.000   0.000   2.584
   11        0.826   1.572   0.000   0.000   2.397
   12        0.829   1.752   0.000   0.000   2.581
   13        0.816   1.650   0.000   0.000   2.465
   14        0.816   1.648   0.000   0.000   2.464
   15        0.829   1.753   0.000   0.000   2.582
   16        0.826   1.572   0.000   0.000   2.398
   17        0.839   1.745   0.000   0.000   2.584
   18        0.826   1.572   0.000   0.000   2.397
   19        0.839   1.744   0.000   0.000   2.584
   20        0.839   1.745   0.000   0.000   2.584
   21        0.826   1.572   0.000   0.000   2.398
   22        0.829   1.753   0.000   0.000   2.581
   23        0.816   1.649   0.000   0.000   2.465
   24        0.829   1.754   0.000   0.000   2.583
   25        0.816   1.649   0.000   0.000   2.465
   26        0.675   0.048   0.001   0.000   0.723
   27        0.675   0.048   0.001   0.000   0.723
   28        0.675   0.048   0.001   0.000   0.723
   29        0.675   0.048   0.001   0.000   0.723
   30        0.675   0.048   0.001   0.000   0.723
   31        0.675   0.048   0.001   0.000   0.723
   32        1.627   3.642   0.000   0.000   5.269
   33        1.618   3.668   0.000   0.000   5.286
   34        1.576   3.755   0.000   0.000   5.332
   35        1.561   3.732   0.000   0.000   5.293
   36        1.589   3.704   0.000   0.000   5.293
   37        1.561   3.731   0.000   0.000   5.292
   38        1.576   3.756   0.000   0.000   5.332
   39        1.576   3.756   0.000   0.000   5.331
   40        1.561   3.732   0.000   0.000   5.293
   41        1.589   3.704   0.000   0.000   5.293
   42        1.589   3.704   0.000   0.000   5.293
   43        1.589   3.703   0.000   0.000   5.293
   44        1.589   3.710   0.000   0.000   5.299
   45        1.561   3.732   0.000   0.000   5.293
   46        1.576   3.755   0.000   0.000   5.331
   47        1.576   3.756   0.000   0.000   5.332
   48        1.561   3.730   0.000   0.000   5.292
   49        1.589   3.704   0.000   0.000   5.293
   50        1.561   3.732   0.000   0.000   5.293
   51        1.577   3.754   0.000   0.000   5.331
   52        2.067   6.229   5.728   0.017  14.040
   53        2.067   6.229   5.727   0.017  14.039
   54        2.067   6.230   5.727   0.017  14.040
   55        2.067   6.230   5.727   0.017  14.040
   56        2.066   6.230   5.727   0.017  14.039
   57        2.067   6.229   5.728   0.017  14.040
--------------------------------------------------
tot         68.797 154.084  34.368   0.100 257.349
 

 total amount of memory used by VASP MPI-rank0   842092. kBytes
=======================================================================

   base      :      30000. kBytes
   nonl-proj :      20496. kBytes
   fftplans  :       5045. kBytes
   grid      :      33995. kBytes
   one-center:       2299. kBytes
   HF        :       1344. kBytes
   nonlr-proj:       4977. kBytes
   wavefun   :      21811. kBytes
   fock_wrk  :     722125. kBytes
 
  
  
 General timing and accounting informations for this job:
 ========================================================
  
                  Total CPU time used (sec):     1689.168
                            User time (sec):     1573.971
                          System time (sec):      115.197
                         Elapsed time (sec):     1698.280
  
                   Maximum memory used (kb):     3185016.
                   Average memory used (kb):          N/A
  
                          Minor page faults:     11401484
                          Major page faults:            3
                 Voluntary context switches:        35483
