 vasp.6.2.1 16May21 (build Aug 03 2024 02:50:01) gamma-only                     
  
 executed on             LinuxIFC date 2024.09.07  15:34:47
 running on    4 total cores
 distrk:  each k-point on    4 cores,    1 groups
 distr:  one band on NCORE=   1 cores,    4 groups


--------------------------------------------------------------------------------------------------------


 INCAR:
   SYSTEM = MOFCO2
   ISMEAR = 0
   SIGMA = 0.1
   ENCUT = 320.
   PREC = Accurate
   ISYM = -1
   NELM = 1
   IBRION = -1
   NSW = 0
   ALGO = sub
   NBANDS = 548
   NBANDSHIGH = 548
   NBANDSLOW = 131
   TIME = 0.05
   LHFCALC = .TRUE.
   AEXX = 1
   LASPH = .TRUE.
   PRECFOCK = Normal
   LWAVE = .TRUE.
   LCHARG = .TRUE.
   NWRITE = 1
   LORBIT = 11

 POTCAR:    PAW_PBE C_GW 28Sep2005                
 POTCAR:    PAW_PBE H_GW 21Apr2008                
 POTCAR:    PAW_PBE O_GW 28Sep2005                
 POTCAR:    PAW_PBE Fe_sv_GW 05Dec2013            
 POTCAR:    PAW_PBE C_GW 28Sep2005                
  local pseudopotential read in
  kinetic energy density of atom read in
  atomic valenz-charges read in
  non local Contribution for L=           0  read in
    real space projection operators read in
  non local Contribution for L=           0  read in
    real space projection operators read in
  non local Contribution for L=           1  read in
    real space projection operators read in
  non local Contribution for L=           1  read in
    real space projection operators read in
    PAW grid and wavefunctions read in
 
   number of l-projection  operators is LMAX  =           4
   number of lm-projection operators is LMMAX =           8
 
 POTCAR:    PAW_PBE H_GW 21Apr2008                
  local pseudopotential read in
  kinetic energy density of atom read in
  atomic valenz-charges read in
  non local Contribution for L=           0  read in
    real space projection operators read in
  non local Contribution for L=           0  read in
    real space projection operators read in
  non local Contribution for L=           1  read in
    real space projection operators read in
  non local Contribution for L=           1  read in
    real space projection operators read in
  non local Contribution for L=           2  read in
    real space projection operators read in
    PAW grid and wavefunctions read in
 
   number of l-projection  operators is LMAX  =           5
   number of lm-projection operators is LMMAX =          13
 
 POTCAR:    PAW_PBE O_GW 28Sep2005                
  local pseudopotential read in
  kinetic energy density of atom read in
  atomic valenz-charges read in
  non local Contribution for L=           0  read in
    real space projection operators read in
  non local Contribution for L=           0  read in
    real space projection operators read in
  non local Contribution for L=           1  read in
    real space projection operators read in
  non local Contribution for L=           1  read in
    real space projection operators read in
    PAW grid and wavefunctions read in
 
   number of l-projection  operators is LMAX  =           4
   number of lm-projection operators is LMMAX =           8
 
 POTCAR:    PAW_PBE Fe_sv_GW 05Dec2013            
  local pseudopotential read in
  partial core-charges read in
  partial kinetic energy density read in
  kinetic energy density of atom read in
  atomic valenz-charges read in
  non local Contribution for L=           0  read in
    real space projection operators read in
  non local Contribution for L=           0  read in
    real space projection operators read in
  non local Contribution for L=           0  read in
    real space projection operators read in
  non local Contribution for L=           1  read in
    real space projection operators read in
  non local Contribution for L=           1  read in
    real space projection operators read in
  non local Contribution for L=           1  read in
    real space projection operators read in
  non local Contribution for L=           2  read in
    real space projection operators read in
  non local Contribution for L=           2  read in
    real space projection operators read in
  non local Contribution for L=           2  read in
    real space projection operators read in
  non local Contribution for L=           3  read in
    real space projection operators read in
  non local Contribution for L=           3  read in
    real space projection operators read in
    PAW grid and wavefunctions read in
 
   number of l-projection  operators is LMAX  =          11
   number of lm-projection operators is LMMAX =          41
 
 -----------------------------------------------------------------------------
|                                                                             |
|               ----> ADVICE to this user running VASP <----                  |
|                                                                             |
|     You have a (more or less) 'large supercell' and for larger cells it     |
|     might be more efficient to use real-space projection operators.         |
|     Therefore, try LREAL= Auto in the INCAR file.                           |
|     Mind: For very accurate calculation, you might also keep the            |
|     reciprocal projection scheme (i.e. LREAL=.FALSE.).                      |
|                                                                             |
 -----------------------------------------------------------------------------

  PAW_PBE C_GW 28Sep2005                :
 energy of atom  1       EATOM= -147.1560
 kinetic energy error for atom=    0.1682 (will be added to EATOM!!)
  PAW_PBE H_GW 21Apr2008                :
 energy of atom  2       EATOM=  -12.4884
 kinetic energy error for atom=    0.0737 (will be added to EATOM!!)
  PAW_PBE O_GW 28Sep2005                :
 energy of atom  3       EATOM= -432.3788
 kinetic energy error for atom=    0.7698 (will be added to EATOM!!)
  PAW_PBE Fe_sv_GW 05Dec2013            :
 energy of atom  4       EATOM=-3376.4015
 kinetic energy error for atom=    1.3391 (will be added to EATOM!!)
 
 
 POSCAR:  C  H  O Fe
  positions in direct lattice
  No initial velocities read in
 exchange correlation table for  LEXCH =        8
   RHO(1)=    0.500       N(1)  =     2000
   RHO(2)=  100.500       N(2)  =     4000
 


--------------------------------------------------------------------------------------------------------


 ion  position               nearest neighbor table
   1  0.295  0.941  0.220-  32 1.17  33 1.18
   2  0.032  0.132  0.567-  35 1.36   7 1.40  22 1.43
   3  0.081  0.617  0.166-   8 1.40  23 1.43   6 1.49
   4  0.131  0.566  0.032-  37 1.36   8 1.40  24 1.43
   5  0.166  0.081  0.617-   7 1.40  25 1.43  11 1.49
   6  0.179  0.747  0.349-  41 1.27  34 1.29   3 1.49
   7  0.192  0.205  0.678-  27 1.09   2 1.40   5 1.40
   8  0.205  0.677  0.192-  28 1.09   4 1.40   3 1.40
   9  0.253  0.651  0.822-  36 1.27  38 1.29  12 1.49
  10  0.322  0.808  0.795-  26 1.09  13 1.40  12 1.40
  11  0.349  0.179  0.747-  43 1.27  39 1.29   5 1.49
  12  0.383  0.834  0.919-  10 1.40  14 1.43   9 1.49
  13  0.433  0.968  0.868-  40 1.36  10 1.40  15 1.43
  14  0.567  0.032  0.132-  45 1.36  17 1.40  12 1.43
  15  0.617  0.166  0.081-  17 1.40  13 1.43  18 1.49
  16  0.651  0.821  0.253-  42 1.27  46 1.29  22 1.49
  17  0.678  0.192  0.205-  31 1.09  14 1.40  15 1.40
  18  0.747  0.349  0.178-  49 1.27  47 1.29  15 1.49
  19  0.795  0.323  0.808-  29 1.09  23 1.40  24 1.40
  20  0.808  0.795  0.322-  30 1.09  25 1.40  22 1.40
  21  0.821  0.253  0.651-  44 1.27  51 1.29  24 1.49
  22  0.834  0.919  0.383-  20 1.40   2 1.43  16 1.49
  23  0.869  0.434  0.968-  48 1.36  19 1.40   3 1.43
  24  0.919  0.383  0.834-  19 1.40   4 1.43  21 1.49
  25  0.968  0.868  0.433-  50 1.36  20 1.40   5 1.43
  26  0.182  0.656  0.634-  10 1.09
  27  0.344  0.366  0.818-   7 1.09
  28  0.366  0.817  0.344-   8 1.09
  29  0.634  0.183  0.656-  19 1.09
  30  0.656  0.634  0.182-  20 1.09
  31  0.818  0.344  0.366-  17 1.09
  32  0.310  0.006  0.317-   1 1.17
  33  0.278  0.875  0.120-   1 1.18
  34  0.067  0.696  0.328-   6 1.29  54 2.11  52 2.12
  35  0.073  0.264  0.640-   2 1.36  57 2.06  55 2.07
  36  0.098  0.479  0.633-   9 1.27  57 2.07
  37  0.264  0.638  0.074-   4 1.36  55 2.05  56 2.09
  38  0.303  0.671  0.933-   9 1.29  56 2.10  55 2.12
  39  0.328  0.067  0.696-  11 1.29  52 2.10  53 2.12
  40  0.361  0.926  0.736-  13 1.36  53 2.06  52 2.08
  41  0.367  0.903  0.521-   6 1.27  53 2.07
  42  0.479  0.633  0.098-  16 1.27  55 2.07
  43  0.521  0.367  0.902-  11 1.27  54 2.07
  44  0.633  0.097  0.479-  21 1.27  56 2.07
  45  0.639  0.074  0.264-  14 1.36  56 2.06  57 2.08
  46  0.672  0.933  0.304-  16 1.29  57 2.10  56 2.12
  47  0.697  0.329  0.067-  18 1.29  53 2.10  54 2.12
  48  0.736  0.362  0.926-  23 1.36  54 2.05  53 2.09
  49  0.902  0.521  0.367-  18 1.27  52 2.07
  50  0.927  0.736  0.360-  25 1.36  52 2.06  54 2.07
  51  0.933  0.304  0.672-  21 1.29  55 2.11  57 2.12
  52  0.107  0.783  0.515-  50 2.06  49 2.07  40 2.08  39 2.10  34 2.12
  53  0.515  0.107  0.783-  40 2.06  41 2.07  48 2.09  47 2.10  39 2.12
  54  0.783  0.516  0.106-  48 2.05  50 2.07  43 2.07  34 2.11  47 2.12
  55  0.217  0.484  0.894-  37 2.05  35 2.07  42 2.07  51 2.11  38 2.12
  56  0.485  0.893  0.217-  45 2.06  44 2.07  37 2.09  38 2.10  46 2.12
  57  0.893  0.217  0.485-  35 2.06  36 2.07  45 2.08  46 2.10  51 2.12
 

IMPORTANT INFORMATION: All symmetrisations will be switched off!
NOSYMM: (Re-)initialisation of all symmetry stuff for point group C_1.


----------------------------------------------------------------------------------------

                                     Primitive cell                                     

  volume of cell :    1403.0148

  direct lattice vectors                    reciprocal lattice vectors
    15.439217752  0.004465832 -0.038376892     0.065085042  0.034326685  0.130688713
    -7.186282924 13.630928377 -0.001416099     0.000303919  0.073536393  0.130825479
    -7.182834812-11.890639092  6.700359279     0.000372844  0.000212151  0.150021909

  length of vectors
    15.439266094 15.409246337 15.423204220     0.149979744  0.150076646  0.150022522

  position of ions in fractional coordinates (direct lattice)
     0.295019501  0.941160170  0.219875959
     0.032140205  0.131596472  0.567243074
     0.080939400  0.617136620  0.166081282
     0.131311660  0.566131401  0.032072370
     0.166052468  0.080890174  0.616656951
     0.178934143  0.747136406  0.349358741
     0.192223384  0.205099135  0.677753253
     0.204817095  0.677208988  0.192172431
     0.252895436  0.650728993  0.821583851
     0.322307724  0.807597299  0.795016362
     0.349319458  0.178891109  0.746556755
     0.382922059  0.833947320  0.919292900
     0.433306216  0.967704379  0.868314174
     0.566693754  0.032295640  0.131685826
     0.617077941  0.166052695  0.080707123
     0.650680572  0.821108876  0.253443275
     0.677692276  0.192402701  0.204983653
     0.747104594  0.349271007  0.178416179
     0.795182905  0.322791042  0.807827584
     0.807776602  0.794900865  0.322246747
     0.821065842  0.252863594  0.650641229
     0.833947517  0.919109811  0.383343020
     0.868688340  0.433868599  0.967927620
     0.919060577  0.382863380  0.833918703
     0.967859819  0.868403528  0.432756926
     0.182479428  0.655565764  0.633945057
     0.344103209  0.366270524  0.817662957
     0.365791429  0.816735938  0.344089651
     0.634208571  0.183264047  0.655910379
     0.655896791  0.633729476  0.182337028
     0.817520572  0.344434206  0.366054943
     0.309634406  0.006275347  0.316899865
     0.277845133  0.874684412  0.119782242
     0.067421933  0.696011040  0.328229224
     0.073185170  0.264301200  0.639867354
     0.097668867  0.478758507  0.633498145
     0.264148327  0.637872795  0.073659183
     0.302715318  0.671496338  0.932846989
     0.328490557  0.067484104  0.696479021
     0.361353031  0.926373201  0.735541372
     0.367302190  0.903369468  0.521413749
     0.478945773  0.633023796  0.098161017
     0.521054227  0.366976174  0.901838960
     0.632697810  0.096630539  0.478586221
     0.638646969  0.073626784  0.264458628
     0.671509473  0.932515918  0.303521008
     0.697284712  0.328503632  0.067153018
     0.735851673  0.362127205  0.926340817
     0.902331148  0.521241523  0.366501884
     0.926814852  0.735698800  0.360132676
     0.932578089  0.303988990  0.671770806
     0.107174485  0.783307327  0.515334558
     0.515337162  0.106795323  0.782801462
     0.783372319  0.515771295  0.106356464
     0.216627696  0.484228705  0.893643529
     0.484662838  0.893204670  0.217198508
     0.892825508  0.216692673  0.484665412

  ion indices of the primitive-cell ions
   primitive index   ion index
                 1           1
                 2           2
                 3           3
                 4           4
                 5           5
                 6           6
                 7           7
                 8           8
                 9           9
                10          10
                11          11
                12          12
                13          13
                14          14
                15          15
                16          16
                17          17
                18          18
                19          19
                20          20
                21          21
                22          22
                23          23
                24          24
                25          25
                26          26
                27          27
                28          28
                29          29
                30          30
                31          31
                32          32
                33          33
                34          34
                35          35
                36          36
                37          37
                38          38
                39          39
                40          40
                41          41
                42          42
                43          43
                44          44
                45          45
                46          46
                47          47
                48          48
                49          49
                50          50
                51          51
                52          52
                53          53
                54          54
                55          55
                56          56
                57          57

----------------------------------------------------------------------------------------

 
 
 KPOINTS: KPOINTS                                 

Automatic generation of k-mesh.
 Grid dimensions read from file:
 generate k-points for:    1    1    1

 Generating k-lattice:

  Cartesian coordinates                     Fractional coordinates (reciprocal lattice)
     0.065085042  0.034326685  0.130688713     1.000000000  0.000000000 -0.000000000
     0.000303919  0.073536393  0.130825479     0.000000000  1.000000000  0.000000000
     0.000372844  0.000212151  0.150021909    -0.000000000  0.000000000  1.000000000

  Length of vectors
     0.149979744  0.150076646  0.150022522

  Shift w.r.t. Gamma in fractional coordinates (k-lattice)
     0.000000000  0.000000000  0.000000000

 
 Subroutine IBZKPT returns following result:
 ===========================================
 
 Found      1 irreducible k-points:
 
 Following reciprocal coordinates:
            Coordinates               Weight
  0.000000  0.000000  0.000000      1.000000
 
 Following cartesian coordinates:
            Coordinates               Weight
  0.000000  0.000000  0.000000      1.000000
 
 WARNING: full set of k-points will be restricted to regular points only.

 
 Subroutine IBZKPT_HF returns following result:
 ==============================================
 
 Found      1 k-points in 1st BZ
 the following      1 k-points will be used (e.g. in the exchange kernel)
 Following reciprocal coordinates:   # in IRBZ
  0.000000  0.000000  0.000000    1.00000000   1 t-inv F


--------------------------------------------------------------------------------------------------------




 Dimension of arrays:
   k-points           NKPTS =      1   k-points in BZ     NKDIM =      1   number of bands    NBANDS=    548
   number of dos      NEDOS =    301   number of ions     NIONS =     57
   non local maximal  LDIM  =     11   non local SUM 2l+1 LMDIM =     41
   total plane-waves  NPLWV = 729000
   max r-space proj   IRMAX =      1   max aug-charges    IRDMAX=  12993
   dimension x,y,z NGX =    90 NGY =   90 NGZ =   90
   dimension x,y,z NGXF=   180 NGYF=  180 NGZF=  180
   support grid    NGXF=   180 NGYF=  180 NGZF=  180
   ions per type =              25   6  20   6
   lowest and highest band optimized NBANDSLOW=     131 NBANDSHIGH=     548
   NGX,Y,Z   is equivalent  to a cutoff of   9.69,  9.71,  9.70 a.u.
   NGXF,Y,Z  is equivalent  to a cutoff of  19.38, 19.42, 19.40 a.u.

 SYSTEM =  MOFCO2                                  
 POSCAR =   C  H  O Fe                             

 Startparameter for this run:
   NWRITE =      1    write-flag & timer
   PREC   = accura    normal or accurate (medium, high low for compatibility)
   ISTART =      1    job   : 0-new  1-cont  2-samecut
   ICHARG =      0    charge: 1-file 2-atom 10-const
   ISPIN  =      1    spin polarized calculation?
   LNONCOLLINEAR =      F non collinear calculations
   LSORBIT =      F    spin-orbit coupling
   INIWAV =      1    electr: 0-lowe 1-rand  2-diag
   LASPH  =      T    aspherical Exc in radial PAW
 Electronic Relaxation 1
   ENCUT  =  320.0 eV  23.52 Ry    4.85 a.u.  22.52 22.48 22.50*2*pi/ulx,y,z
   ENINI  =  320.0     initial cutoff
   ENAUG  =  963.7 eV  augmentation charge cutoff
   NELM   =      1;   NELMIN=  2; NELMDL=  0     # of ELM steps 
   EDIFF  = 0.1E-03   stopping-criterion for ELM
   LREAL  =      F    real-space projection
   NLSPLINE    = F    spline interpolate recip. space projectors
   LCOMPAT=      F    compatible to vasp.4.4
   GGA_COMPAT  = T    GGA compatible to vasp.4.4-vasp.4.6
   LMAXPAW     = -100 max onsite density
   LMAXMIX     =    2 max onsite mixed and CHGCAR
   VOSKOWN=      0    Vosko Wilk Nusair interpolation
   ROPT   =    0.00000   0.00000   0.00000   0.00000
 Ionic relaxation
   EDIFFG = 0.1E-02   stopping-criterion for IOM
   NSW    =      0    number of steps for IOM
   NBLOCK =      1;   KBLOCK =      1    inner block; outer block 
   IBRION =     -1    ionic relax: 0-MD 1-quasi-New 2-CG
   NFREE  =      0    steps in history (QN), initial steepest desc. (CG)
   ISIF   =      0    stress and relaxation
   IWAVPR =     10    prediction:  0-non 1-charg 2-wave 3-comb
   ISYM   =     -1    0-nonsym 1-usesym 2-fastsym
   LCORR  =      T    Harris-Foulkes like correction to forces

   POTIM  = 0.5000    time-step for ionic-motion
   TEIN   =    0.0    initial temperature
   TEBEG  =    0.0;   TEEND  =   0.0 temperature during run
   SMASS  =  -3.00    Nose mass-parameter (am)
   estimated Nose-frequenzy (Omega)   =  0.10E-29 period in steps = 0.13E+47 mass=  -0.545E-26a.u.
   SCALEE = 1.0000    scale energy and forces
   NPACO  =    256;   APACO  = 16.0  distance and # of slots for P.C.
   PSTRESS=    0.0 pullay stress

  Mass of Ions in am
   POMASS =  12.01  1.00 16.00 55.85
  Ionic Valenz
   ZVAL   =   4.00  1.00  6.00 16.00
  Atomic Wigner-Seitz radii
   RWIGS  =  -1.00 -1.00 -1.00 -1.00
  virtual crystal weights 
   VCA    =   1.00  1.00  1.00  1.00
   NELECT =     322.0000    total number of electrons
   NUPDOWN=      -1.0000    fix difference up-down

 DOS related values:
   EMIN   =  10.00;   EMAX   =-10.00  energy-range for DOS
   EFERMI =   0.00
   ISMEAR =     0;   SIGMA  =   0.10  broadening in eV -4-tet -1-fermi 0-gaus

 Electronic relaxation 2 (details)
   IALGO  =      4    algorithm
   LDIAG  =      T    sub-space diagonalisation (order eigenvalues)
   LSUBROT=      F    optimize rotation matrix (better conditioning)
   TURBO    =      0    0=normal 1=particle mesh
   IRESTART =      0    0=no restart 2=restart with 2 vectors
   NREBOOT  =      0    no. of reboots
   NMIN     =      0    reboot dimension
   EREF     =   0.00    reference energy to select bands
   IMIX   =      1    mixing-type and parameters
     AMIX     =   0.40;   BMIX     =  1.00
     AMIX_MAG =   1.60;   BMIX_MAG =  1.00
     AMIN     =   0.10
     WC   =   100.;   INIMIX=   1;  MIXPRE=   1;  MAXMIX= -45

 Intra band minimization:
   WEIMIN = 0.0000     energy-eigenvalue tresh-hold
   EBREAK =  0.46E-07  absolut break condition
   DEPER  =   0.30     relativ break condition  

   TIME   =   0.05     timestep for ELM

  volume/ion in A,a.u.               =      24.61       166.11
  Fermi-wavevector in a.u.,A,eV,Ry     =   1.002319  1.894109 13.669007  1.004644
  Thomas-Fermi vector in A             =   2.134799
 
 Write flags
   LWAVE        =      T    write WAVECAR
   LDOWNSAMPLE  =      F    k-point downsampling of WAVECAR
   LCHARG       =      T    write CHGCAR
   LVTOT        =      F    write LOCPOT, total local potential
   LVHAR        =      F    write LOCPOT, Hartree potential only
   LELF         =      F    write electronic localiz. function (ELF)
   LORBIT       =     11    0 simple, 1 ext, 2 COOP (PROOUT), +10 PAW based schemes


 Dipole corrections
   LMONO  =      F    monopole corrections only (constant potential shift)
   LDIPOL =      F    correct potential (dipole corrections)
   IDIPOL =      0    1-x, 2-y, 3-z, 4-all directions 
   EPSILON=  1.0000000 bulk dielectric constant

 Exchange correlation treatment:
   GGA     =    --    GGA type
   LEXCH   =     8    internal setting for exchange type
   VOSKOWN=      0    Vosko Wilk Nusair interpolation
   EXXOEP  =     0    0=HF, 1=EXX-LHF (local Hartree Fock) 2=EXX OEP
   LHFCALC =     T    Hartree Fock is set to
   LSYMGRAD=     F    symmetrize gradient (conserves proper symmetry)
   PRECFOCK=normal    Normal, Fast or Accurate (Low or Medium for compatibility)
   LRHFCALC=     F    long range Hartree Fock
   LRSCOR  =     F    long range correlation only (use DFT for short range part)
   LTHOMAS =     F    Thomas Fermi screening in HF
   LMODELHF=     F    short range full HF, long range fraction AEXX
   LFOCKACE=     T    use Adeptively-Compressed-Exchange operator
   ENCUT4O =  -1.0   cutoff for four orbital integrals eV
   LMAXFOCK=     4    L truncation for augmentation on plane wave grid
   LMAXFOCKAE=  -1    L truncation for all-electron charge restoration on plane wave grid
   NMAXFOCKAE=   1    number of basis functions for all-electron charge restoration
   LFOCKAEDFT=     F  apply the AE augmentation even for DFT
   NKREDX  =     1    reduce k-point grid by
   NKREDY  =     1    reduce k-point grid by
   NKREDZ  =     1    reduce k-point grid by
   SHIFTRED=     F    shift reduced grid of Gamma
   HFKIDENT=     F    idential grid for each k-point
   ODDONLY =     F    use only odd q-grid points
   EVENONLY=     F    use only even q-grid points
   HFALPHA =   -1.0000 decay constant for conv. correction
   MCALPHA =    0.0000 extent of test-charge in conv. correction in multipole expansion
   AEXX    =    1.0000 exact exchange contribution
   HFSCREEN=    0.0000 screening length (either q_TF or 0.3 A-1)
   HFSCREENC=   0.0000 screening length for correlation (either q_TF or 0.3 A-1)
   HFRCUT  =    0.0000 spherical cutoff for potential kernel
   ALDAX   =    0.0000 LDA exchange part
   AGGAX   =    0.0000 GGA exchange part
   ALDAC   =    0.0000 LDA correlation
   AGGAC   =    0.0000 GGA correlation
   ENCUTFOCK=  -1.0 apply spherical cutoff to Coloumb kernel
   NBANDSGWLOW=     1    first orbital included in HF term
   NBLOCK_FOCK=    64    blocking factor in FOCK_ACC
 Linear response parameters
   LEPSILON=     F    determine dielectric tensor
   LRPA    =     F    only Hartree local field effects (RPA)
   LNABLA  =     F    use nabla operator in PAW spheres
   LVEL    =     F    velocity operator in full k-point grid
   CSHIFT  =0.1000    complex shift for real part using Kramers Kronig
   OMEGAMAX=  -1.0    maximum frequency
   DEG_THRESHOLD= 0.2000000E-02 threshold for treating states as degnerate
   RTIME   =   -0.100 relaxation time in fs
  (WPLASMAI=    0.000 imaginary part of plasma frequency in eV, 0.658/RTIME)
   DFIELD  = 0.0000000 0.0000000 0.0000000 field for delta impulse in time
 
  Optional k-point grid parameters
   LKPOINTS_OPT  =     F    use optional k-point grid
   KPOINTS_OPT_MODE=     1    mode for optional k-point grid
 
 Orbital magnetization related:
   ORBITALMAG=     F  switch on orbital magnetization
   LCHIMAG   =     F  perturbation theory with respect to B field
   DQ        =  0.001000  dq finite difference perturbation B field
   LLRAUG    =     F  two centre corrections for induced B field



--------------------------------------------------------------------------------------------------------


 Static calculation
 charge density and potential will be updated during run
 non-spin polarized calculation
 Subrot: only subspace diagonalization (rotation)
    band-by band algorithm
 perform sub-space diagonalisation
    before iterative eigenvector-optimisation
 Kerker-like  mixing scheme
 using additional bands          387
 reciprocal scheme for non local part
 use partial core corrections
 calculate Harris-corrections to forces 
   (improved forces if not selfconsistent)
 use gradient corrections 
 use of overlap-Matrix (Vanderbilt PP)
 Gauss-broadening in eV      SIGMA  =   0.10


--------------------------------------------------------------------------------------------------------


  energy-cutoff  :      320.00
  volume of cell :     1403.01
      direct lattice vectors                 reciprocal lattice vectors
    15.439217752  0.004465832 -0.038376892     0.065085042  0.034326685  0.130688713
    -7.186282924 13.630928377 -0.001416099     0.000303919  0.073536393  0.130825479
    -7.182834812-11.890639092  6.700359279     0.000372844  0.000212151  0.150021909

  length of vectors
    15.439266094 15.409246337 15.423204220     0.149979744  0.150076646  0.150022522


 
 old parameters found on file WAVECAR:
  energy-cutoff  :      320.00
  volume of cell :     1403.01
      direct lattice vectors                 reciprocal lattice vectors
    15.439217752  0.004465832 -0.038376892     0.065085042  0.034326685  0.130688713
    -7.186282924 13.630928377 -0.001416099     0.000303919  0.073536393  0.130825479
    -7.182834812-11.890639092  6.700359279     0.000372844  0.000212151  0.150021909

  length of vectors

 
 k-points in units of 2pi/SCALE and weight: KPOINTS                                 
   0.00000000  0.00000000  0.00000000       1.000
 
 k-points in reciprocal lattice and weights: KPOINTS                                 
   0.00000000  0.00000000  0.00000000       1.000
 
 position of ions in fractional coordinates (direct lattice) 
   0.29501950  0.94116017  0.21987596
   0.03214020  0.13159647  0.56724307
   0.08093940  0.61713662  0.16608128
   0.13131166  0.56613140  0.03207237
   0.16605247  0.08089017  0.61665695
   0.17893414  0.74713641  0.34935874
   0.19222338  0.20509913  0.67775325
   0.20481709  0.67720899  0.19217243
   0.25289544  0.65072899  0.82158385
   0.32230772  0.80759730  0.79501636
   0.34931946  0.17889111  0.74655676
   0.38292206  0.83394732  0.91929290
   0.43330622  0.96770438  0.86831417
   0.56669375  0.03229564  0.13168583
   0.61707794  0.16605269  0.08070712
   0.65068057  0.82110888  0.25344327
   0.67769228  0.19240270  0.20498365
   0.74710459  0.34927101  0.17841618
   0.79518291  0.32279104  0.80782758
   0.80777660  0.79490087  0.32224675
   0.82106584  0.25286359  0.65064123
   0.83394752  0.91910981  0.38334302
   0.86868834  0.43386860  0.96792762
   0.91906058  0.38286338  0.83391870
   0.96785982  0.86840353  0.43275693
   0.18247943  0.65556576  0.63394506
   0.34410321  0.36627052  0.81766296
   0.36579143  0.81673594  0.34408965
   0.63420857  0.18326405  0.65591038
   0.65589679  0.63372948  0.18233703
   0.81752057  0.34443421  0.36605494
   0.30963441  0.00627535  0.31689987
   0.27784513  0.87468441  0.11978224
   0.06742193  0.69601104  0.32822922
   0.07318517  0.26430120  0.63986735
   0.09766887  0.47875851  0.63349814
   0.26414833  0.63787280  0.07365918
   0.30271532  0.67149634  0.93284699
   0.32849056  0.06748410  0.69647902
   0.36135303  0.92637320  0.73554137
   0.36730219  0.90336947  0.52141375
   0.47894577  0.63302380  0.09816102
   0.52105423  0.36697617  0.90183896
   0.63269781  0.09663054  0.47858622
   0.63864697  0.07362678  0.26445863
   0.67150947  0.93251592  0.30352101
   0.69728471  0.32850363  0.06715302
   0.73585167  0.36212720  0.92634082
   0.90233115  0.52124152  0.36650188
   0.92681485  0.73569880  0.36013268
   0.93257809  0.30398899  0.67177081
   0.10717448  0.78330733  0.51533456
   0.51533716  0.10679532  0.78280146
   0.78337232  0.51577130  0.10635646
   0.21662770  0.48422870  0.89364353
   0.48466284  0.89320467  0.21719851
   0.89282551  0.21669267  0.48466541
 
 position of ions in cartesian coordinates  (Angst):
  -3.78790563 10.21573870  1.46059321
  -4.52388317 -4.95095705  3.79931260
  -4.37821175  6.43769394  1.10882413
  -2.27140164  7.33612202  0.20905537
  -2.44692449 -6.22909552  4.12533600
  -5.11591652  6.03086322  2.33290413
  -3.37431139 -5.26236927  4.53352292
  -3.08474249  6.94684887  1.27880509
  -6.67311603 -0.89798737  5.49428014
  -6.53791475  1.55648768  5.31338245
  -1.25473680 -6.43702504  4.98853936
  -6.68409337  0.43820617  6.14371640
  -6.50124571  2.86783369  5.80001762
   7.57134513 -1.12307831  0.86054867
   7.75419311  1.30654888  0.51685004
   2.32483717  8.18177960  1.67202713
   7.60801466  0.18826726  1.34718394
   7.74321629  2.64274213  1.16628635
   4.15484218 -5.20209353  5.38176130
   4.44441119  7.00712439  2.12704337
   6.18601652 -4.28610774  4.32766196
   3.51702459  7.97385078  2.53523010
   3.34150173 -5.59136678  6.45151085
   5.44831152 -4.69293864  5.55174206
   5.59398355  6.69571217  2.86125369
  -6.44726406  1.39877301  4.23972831
  -3.19257720 -4.72839114  5.46491130
  -2.69330113  7.04305679  2.29032977
   3.76340103 -5.29830223  4.37023672
   4.26267732  6.47314643  1.19565489
   7.51736429  0.34598169  2.42083798
   2.45917722 -3.68122035  2.11145126
  -2.85639420 10.49971397  0.79068259
  -6.31840665  5.58472248  2.19568066
  -5.36548293 -4.00543421  4.28415826
  -6.48287571 -1.00633871  4.24023897
  -1.03477259  7.82012327  0.48250251
  -6.85236078 -1.93767650  6.23784180
  -0.41601639 -7.36024271  4.65395766
  -6.36144396  3.88288350  4.91321202
  -4.56623892  6.11546212  3.47828427
   2.14038562  7.46364369  0.63843721
  -1.07028522 -5.71888870  6.02212893
   5.63633910 -4.37070655  3.18228181
   7.43154408 -2.13812859  1.74735427
   1.48611650  9.10499778  2.00660882
   7.92246143  3.68243113  0.42272453
   2.10487260 -6.07536816  6.17806378
   7.55297553  2.75109390  2.42032751
   6.43558307  5.75018897  2.37640822
   7.38850658 -3.83996731  4.46488582
  -7.67594086  4.55002746  3.44770442
   1.56620766 -7.84998885  5.22512277
   7.62423645  5.76929366  0.68183275
  -6.55413615 -4.02453846  5.97873350
  -0.49610738  9.59474423  1.43544332
   8.74604099 -2.80527198  3.21286166
 


--------------------------------------------------------------------------------------------------------


 use serial FFT for orbitals x direction half grid
 k-point   1 :   0.0000 0.0000 0.0000  plane waves:    9119

 maximum and minimum number of plane-waves per node :      9119     9119

 maximum number of plane-waves:      9119
 maximum index in each direction: 
   IXMAX=   22   IYMAX=   19   IZMAX=   19
   IXMIN=    0   IYMIN=  -22   IZMIN=  -22


 serial   3D FFT for wavefunctions
 parallel 3D FFT for charge:
    minimum data exchange during FFTs selected (reduces bandwidth)


 FFT grid for exact exchange (Hartree Fock) 
  NGX = 70; NGY = 70; NGZ = 70

 use serial FFT for orbitals x direction half grid
 
 Radii for the augmentation spheres in the non-local exchange
 for species   1 augmentation radius   0.874 (default was   0.699)
       energy cutoff for augmentation   1280.0
 for species   2 augmentation radius   0.735 (default was   0.588)
       energy cutoff for augmentation   1280.0
 for species   3 augmentation radius   0.902 (default was   0.722)
       energy cutoff for augmentation   1280.0
 for species   4 augmentation radius   1.117 (default was   0.893)
       energy cutoff for augmentation   1280.0
 Maximum index for augmentation-charges in exchange         1435
  SETUP_FOCK is finished

 total amount of memory used by VASP MPI-rank0   267245. kBytes
=======================================================================

   base      :      30000. kBytes
   nonl-proj :      20282. kBytes
   fftplans  :      52431. kBytes
   grid      :     135172. kBytes
   one-center:       2299. kBytes
   HF        :       1344. kBytes
   nonlr-proj:       4977. kBytes
   wavefun   :      20740. kBytes
 
     INWAV:  cpu time      0.2609: real time      0.2615
 charge density for first step will be calculated from the start-wavefunctions


--------------------------------------------------------------------------------------------------------


 Maximum index for augmentation-charges         3102 (set IRDMAX)


--------------------------------------------------------------------------------------------------------


 initial charge from wavefunction
    FEWALD:  cpu time      0.0080: real time      0.0080


--------------------------------------- Iteration      1(   1)  ---------------------------------------


    POTLOK:  cpu time      0.6718: real time      0.6755
    SETDIJ:  cpu time      1.3583: real time      1.3617
    EDDIAG:  cpu time    439.3386: real time    440.5104
       DOS:  cpu time      0.0007: real time      0.0007
    --------------------------------------------
      LOOP:  cpu time    441.3694: real time    442.5483

 eigenvalue-minimisations  :     0
 total energy-change (2. order) :-0.8910489E+03  ( 0.0000000E+00)
 number of electron     322.0000075 magnetization 
 augmentation part       48.9454437 magnetization 

 Free energy of the ion-electron system (eV)
  ---------------------------------------------------
  alpha Z        PSCENC =       379.72439301
  Ewald energy   TEWEN  =     18509.04670523
  -Hartree energ DENC   =    -47229.31526809
  -exchange      EXHF   =      4579.34274469
  -V(xc)+E(xc)   XCENC  =         0.00000000
  PAW double counting   =     32696.89553148   -32919.14840646
  entropy T*S    EENTRO =        -0.00000000
  eigenvalues    EBANDS =     -8568.01157572
  atomic energy  EATOM  =     31660.41701529
  Solvation  Ediel_sol  =         0.00000000
  ---------------------------------------------------
  free energy    TOTEN  =      -891.04886056 eV

  energy without entropy =     -891.04886056  energy(sigma->0) =     -891.04886056
  exchange ACFDT corr.  =     -1232.75505965  see jH, gK, PRB 81, 115126


--------------------------------------------------------------------------------------------------------




 average (electrostatic) potential at core
  the test charge radii are     0.6991  0.5883  0.7215  0.8933
  (the norm of the test charge is              1.0000)
       1 -45.5880       2 -40.6572       3 -39.4948       4 -40.7468       5 -39.3955
       6 -43.2842       7 -38.8807       8 -38.9545       9 -43.1474      10 -38.8302
      11 -43.2335      12 -39.3302      13 -40.6187      14 -40.5949      15 -39.3495
      16 -43.2155      17 -38.8283      18 -43.2110      19 -39.0013      20 -38.8808
      21 -43.3185      22 -39.3916      23 -40.7469      24 -39.4794      25 -40.6615
      26 -18.7746      27 -18.8201      28 -18.9378      29 -18.9345      30 -18.8229
      31 -18.7727      32 -53.4478      33 -53.5112      34 -50.9765      35 -49.8554
      36 -50.5585      37 -49.8494      38 -50.8274      39 -50.9409      40 -49.8474
      41 -50.6839      42 -50.6248      43 -50.6396      44 -50.7392      45 -49.7590
      46 -50.9086      47 -50.9306      48 -49.9130      49 -50.6143      50 -49.8708
      51 -50.9849      52 -57.4764      53 -57.5030      54 -57.4910      55 -57.4597
      56 -57.3273      57 -57.4380
 
 
 
 E-fermi :  -6.9316     XC(G=0):   0.0000     alpha+bet : -3.7365

 Fermi energy:        -6.9316289843

 k-point     1 :       0.0000    0.0000    0.0000
  band No.  band energies     occupation 
      1    -104.1015      2.00000
      2    -102.0967      2.00000
      3    -101.7233      2.00000
      4    -101.0337      2.00000
      5     -99.1950      2.00000
      6     -82.9974      2.00000
      7     -81.2115      2.00000
      8     -80.4023      2.00000
      9     -80.0753      2.00000
     10     -77.8299      2.00000
     11     -71.0389      2.00000
     12     -70.9485      2.00000
     13     -70.9295      2.00000
     14     -70.9175      2.00000
     15     -70.8918      2.00000
     16     -70.5705      2.00000
     17     -70.3390      2.00000
     18     -70.2984      2.00000
     19     -70.2486      2.00000
     20     -70.1847      2.00000
     21     -31.4070      2.00000
     22     -31.3978      2.00000
     23     -31.3842      2.00000
     24     -31.3457      2.00000
     25     -31.2893      2.00000
     26     -31.2074      2.00000
     27     -31.1994      2.00000
     28     -31.1278      2.00000
     29     -31.1193      2.00000
     30     -31.0907      2.00000
     31     -27.7791      2.00000
     32     -27.7417      2.00000
     33     -27.7301      2.00000
     34     -27.7299      2.00000
     35     -19.9314      2.00000
     36     -19.9291      2.00000
     37     -19.8245      2.00000
     38     -19.8227      2.00000
     39     -19.7758      2.00000
     40     -19.7604      2.00000
     41     -19.6602      2.00000
     42     -19.6574      2.00000
     43     -19.6280      2.00000
     44     -19.6208      2.00000
     45     -19.6179      2.00000
     46     -19.6170      2.00000
     47     -19.5509      2.00000
     48     -19.5496      2.00000
     49     -19.5351      2.00000
     50     -19.5267      2.00000
     51     -19.5258      2.00000
     52     -19.5221      2.00000
     53     -19.5162      2.00000
     54     -19.5033      2.00000
     55     -19.4916      2.00000
     56     -19.4793      2.00000
     57     -19.4687      2.00000
     58     -19.4487      2.00000
     59     -17.1825      2.00000
     60     -17.1599      2.00000
     61     -17.1476      2.00000
     62     -17.1455      2.00000
     63     -17.0714      2.00000
     64     -16.9525      2.00000
     65     -16.9393      2.00000
     66     -16.9234      2.00000
     67     -16.8929      2.00000
     68     -16.8371      2.00000
     69     -16.7630      2.00000
     70     -16.7613      2.00000
     71     -16.7098      2.00000
     72     -16.5913      2.00000
     73     -15.8661      2.00000
     74     -15.8653      2.00000
     75     -15.7030      2.00000
     76     -15.6417      2.00000
     77     -15.5869      2.00000
     78     -15.4682      2.00000
     79     -15.4651      2.00000
     80     -15.3465      2.00000
     81     -15.3441      2.00000
     82     -15.2979      2.00000
     83     -15.2957      2.00000
     84     -14.9564      2.00000
     85     -14.7145      2.00000
     86     -14.6122      2.00000
     87     -14.5429      2.00000
     88     -13.5503      2.00000
     89     -13.4444      2.00000
     90     -13.4420      2.00000
     91     -13.4287      2.00000
     92     -13.4108      2.00000
     93     -12.5157      2.00000
     94     -12.4909      2.00000
     95     -12.4806      2.00000
     96     -12.4674      2.00000
     97     -12.4345      2.00000
     98     -12.4337      2.00000
     99     -12.4230      2.00000
    100     -12.4029      2.00000
    101     -12.3821      2.00000
    102     -12.3760      2.00000
    103     -12.3034      2.00000
    104     -12.2984      2.00000
    105     -12.2665      2.00000
    106     -12.2648      2.00000
    107     -12.2257      2.00000
    108     -11.9899      2.00000
    109     -11.9804      2.00000
    110     -11.9577      2.00000
    111     -11.9187      2.00000
    112     -11.8945      2.00000
    113     -11.5987      2.00000
    114     -11.5506      2.00000
    115     -11.5267      2.00000
    116     -11.5130      2.00000
    117     -11.4734      2.00000
    118     -10.8384      2.00000
    119     -10.8319      2.00000
    120     -10.7580      2.00000
    121     -10.5652      2.00000
    122      -8.7808      2.00000
    123      -8.5885      2.00000
    124      -8.5216      2.00000
    125      -8.5143      2.00000
    126      -8.5046      2.00000
    127      -8.4747      2.00000
    128      -7.7774      2.00000
    129      -7.6251      2.00000
    130      -7.5633      2.00000
    131    -111.6186      2.00000
    132     -71.0592      2.00000
    133     -71.0331      2.00000
    134     -71.0279      2.00000
    135     -38.9209      2.00000
    136     -37.4297      2.00000
    137     -34.4204      2.00000
    138     -34.3535      2.00000
    139     -32.6320      2.00000
    140     -32.5127      2.00000
    141     -19.0934      2.00000
    142     -17.2917      2.00000
    143     -17.1829      2.00000
    144     -16.8407      2.00000
    145     -16.4798      2.00000
    146     -16.0886      2.00000
    147     -15.4748      2.00000
    148     -15.3343      2.00000
    149     -12.9462      2.00000
    150     -12.5658      2.00000
    151     -12.3677      2.00000
    152     -12.2036      2.00000
    153     -11.9626      2.00000
    154     -11.9058      2.00000
    155     -11.6222      2.00000
    156     -11.1833      2.00000
    157     -11.0385      2.00000
    158     -10.8973      2.00000
    159     -10.6755      2.00000
    160      -9.9572      2.00000
    161      -9.7658      2.00000
    162       7.3047      0.00000
    163       7.5602      0.00000
    164       8.1133      0.00000
    165       8.4875      0.00000
    166       8.8739      0.00000
    167      10.6976      0.00000
    168      10.7688      0.00000
    169      11.2965      0.00000
    170      11.5344      0.00000
    171      12.0069      0.00000
    172      12.2349      0.00000
    173      12.6066      0.00000
    174      13.1865      0.00000
    175      13.7859      0.00000
    176      14.3395      0.00000
    177      14.8691      0.00000
    178      14.8828      0.00000
    179      15.3749      0.00000
    180      15.4604      0.00000
    181      15.9722      0.00000
    182      16.0538      0.00000
    183      16.4891      0.00000
    184      16.7841      0.00000
    185      17.0990      0.00000
    186      17.2970      0.00000
    187      17.7426      0.00000
    188      18.3262      0.00000
    189      18.3939      0.00000
    190      18.5442      0.00000
    191      19.0693      0.00000
    192      19.1737      0.00000
    193      19.6437      0.00000
    194      19.8701      0.00000
    195      20.1594      0.00000
    196      20.5548      0.00000
    197      20.7082      0.00000
    198      21.2012      0.00000
    199      21.3761      0.00000
    200      21.7546      0.00000
    201      22.1265      0.00000
    202      23.0596      0.00000
    203      23.2057      0.00000
    204      23.2607      0.00000
    205      24.1630      0.00000
    206      24.7746      0.00000
    207      25.6175      0.00000
    208      26.1155      0.00000
    209      27.6770      0.00000
    210      28.4268      0.00000
    211      28.7589      0.00000
    212      28.9702      0.00000
    213      30.1879      0.00000
    214      31.2617      0.00000
    215      32.0329      0.00000
    216      32.3759      0.00000
    217      32.9618      0.00000
    218      33.5493      0.00000
    219      34.3006      0.00000
    220      34.6518      0.00000
    221      35.3441      0.00000
    222      35.7711      0.00000
    223      36.2080      0.00000
    224      36.6781      0.00000
    225      37.3704      0.00000
    226      37.8193      0.00000
    227      38.0985      0.00000
    228      38.5907      0.00000
    229      38.9628      0.00000
    230      39.1665      0.00000
    231      39.9319      0.00000
    232      40.5452      0.00000
    233      40.9312      0.00000
    234      41.4681      0.00000
    235      41.5409      0.00000
    236      41.7687      0.00000
    237      42.5464      0.00000
    238      42.7768      0.00000
    239      43.5055      0.00000
    240      44.0016      0.00000
    241      44.5696      0.00000
    242      45.0214      0.00000
    243      45.3509      0.00000
    244      45.8756      0.00000
    245      46.3409      0.00000
    246      46.5728      0.00000
    247      47.3011      0.00000
    248      47.7301      0.00000
    249      47.8761      0.00000
    250      48.2005      0.00000
    251      48.7048      0.00000
    252      49.0815      0.00000
    253      49.2851      0.00000
    254      49.6996      0.00000
    255      50.2820      0.00000
    256      50.6656      0.00000
    257      50.7641      0.00000
    258      50.9791      0.00000
    259      51.3045      0.00000
    260      52.1129      0.00000
    261      52.3193      0.00000
    262      52.6346      0.00000
    263      52.8412      0.00000
    264      52.8936      0.00000
    265      53.4558      0.00000
    266      53.5054      0.00000
    267      53.9120      0.00000
    268      54.0557      0.00000
    269      54.8206      0.00000
    270      55.0115      0.00000
    271      55.2148      0.00000
    272      55.4702      0.00000
    273      55.9445      0.00000
    274      56.1077      0.00000
    275      56.4651      0.00000
    276      56.5374      0.00000
    277      56.7977      0.00000
    278      57.0870      0.00000
    279      57.3754      0.00000
    280      57.7701      0.00000
    281      58.0657      0.00000
    282      58.2262      0.00000
    283      58.8350      0.00000
    284      59.2017      0.00000
    285      59.5294      0.00000
    286      60.1024      0.00000
    287      60.4917      0.00000
    288      60.7868      0.00000
    289      61.5336      0.00000
    290      61.8907      0.00000
    291      62.0149      0.00000
    292      62.5362      0.00000
    293      63.0837      0.00000
    294      63.3471      0.00000
    295      63.4634      0.00000
    296      63.6481      0.00000
    297      64.0232      0.00000
    298      64.2247      0.00000
    299      64.7204      0.00000
    300      65.3947      0.00000
    301      65.5374      0.00000
    302      65.8091      0.00000
    303      65.9215      0.00000
    304      66.6843      0.00000
    305      67.0446      0.00000
    306      67.6780      0.00000
    307      67.9004      0.00000
    308      69.0473      0.00000
    309      69.7166      0.00000
    310      69.8231      0.00000
    311      70.5176      0.00000
    312      71.5808      0.00000
    313      71.6581      0.00000
    314      72.1594      0.00000
    315      72.8711      0.00000
    316      73.1673      0.00000
    317      73.5232      0.00000
    318      75.0579      0.00000
    319      75.4817      0.00000
    320      75.5404      0.00000
    321      76.8343      0.00000
    322      77.3932      0.00000
    323      78.1215      0.00000
    324      79.6608      0.00000
    325      80.5766      0.00000
    326      81.5378      0.00000
    327      82.6520      0.00000
    328      83.9958      0.00000
    329      84.4267      0.00000
    330      85.8620      0.00000
    331      87.6861      0.00000
    332      88.0169      0.00000
    333      88.4200      0.00000
    334      89.3101      0.00000
    335      90.5500      0.00000
    336      91.2783      0.00000
    337      92.9648      0.00000
    338      94.0708      0.00000
    339      94.5353      0.00000
    340      94.8260      0.00000
    341      95.7693      0.00000
    342      96.5802      0.00000
    343      97.2874      0.00000
    344      98.1044      0.00000
    345      98.5610      0.00000
    346      99.0199      0.00000
    347      99.6998      0.00000
    348      99.9937      0.00000
    349     100.1056      0.00000
    350     100.5787      0.00000
    351     102.4418      0.00000
    352     103.1823      0.00000
    353     103.8740      0.00000
    354     104.5198      0.00000
    355     105.4520      0.00000
    356     106.7505      0.00000
    357     106.8591      0.00000
    358     107.4268      0.00000
    359     107.7125      0.00000
    360     108.2660      0.00000
    361     108.7209      0.00000
    362     108.9934      0.00000
    363     109.6902      0.00000
    364     110.2016      0.00000
    365     110.7379      0.00000
    366     110.9286      0.00000
    367     111.8442      0.00000
    368     112.6835      0.00000
    369     112.7991      0.00000
    370     113.2501      0.00000
    371     113.6268      0.00000
    372     114.0645      0.00000
    373     114.6971      0.00000
    374     115.1405      0.00000
    375     115.3666      0.00000
    376     116.0385      0.00000
    377     116.4052      0.00000
    378     116.7261      0.00000
    379     117.0834      0.00000
    380     117.4644      0.00000
    381     118.2941      0.00000
    382     118.5165      0.00000
    383     118.8628      0.00000
    384     119.4088      0.00000
    385     119.9244      0.00000
    386     120.6132      0.00000
    387     120.7875      0.00000
    388     121.1459      0.00000
    389     121.6588      0.00000
    390     122.0715      0.00000
    391     122.3485      0.00000
    392     122.7777      0.00000
    393     123.3176      0.00000
    394     123.3785      0.00000
    395     123.8412      0.00000
    396     124.0665      0.00000
    397     124.2577      0.00000
    398     124.8156      0.00000
    399     124.9325      0.00000
    400     125.1524      0.00000
    401     125.9054      0.00000
    402     126.2047      0.00000
    403     126.3074      0.00000
    404     127.1143      0.00000
    405     127.4566      0.00000
    406     127.8896      0.00000
    407     128.6205      0.00000
    408     128.8655      0.00000
    409     129.5209      0.00000
    410     130.3960      0.00000
    411     130.8515      0.00000
    412     131.1562      0.00000
    413     131.2283      0.00000
    414     131.5858      0.00000
    415     131.9854      0.00000
    416     132.0828      0.00000
    417     133.0200      0.00000
    418     133.1344      0.00000
    419     133.8146      0.00000
    420     133.8837      0.00000
    421     134.5742      0.00000
    422     135.0099      0.00000
    423     135.3656      0.00000
    424     135.4686      0.00000
    425     136.3079      0.00000
    426     136.4397      0.00000
    427     136.7029      0.00000
    428     137.3703      0.00000
    429     138.0101      0.00000
    430     138.3992      0.00000
    431     138.6604      0.00000
    432     138.8510      0.00000
    433     139.0115      0.00000
    434     139.3591      0.00000
    435     139.5414      0.00000
    436     140.0685      0.00000
    437     140.4822      0.00000
    438     141.3239      0.00000
    439     141.4544      0.00000
    440     141.9982      0.00000
    441     142.5547      0.00000
    442     142.5656      0.00000
    443     142.9120      0.00000
    444     143.2984      0.00000
    445     143.5675      0.00000
    446     143.7611      0.00000
    447     144.0524      0.00000
    448     144.1644      0.00000
    449     144.7139      0.00000
    450     145.0104      0.00000
    451     145.2822      0.00000
    452     145.7962      0.00000
    453     146.2243      0.00000
    454     146.5202      0.00000
    455     146.5587      0.00000
    456     147.0674      0.00000
    457     147.2332      0.00000
    458     147.7051      0.00000
    459     148.1335      0.00000
    460     148.2985      0.00000
    461     148.7036      0.00000
    462     149.3200      0.00000
    463     149.5724      0.00000
    464     149.7472      0.00000
    465     150.0312      0.00000
    466     150.5740      0.00000
    467     150.6697      0.00000
    468     151.0728      0.00000
    469     151.3041      0.00000
    470     151.5177      0.00000
    471     152.0624      0.00000
    472     152.4218      0.00000
    473     152.6457      0.00000
    474     152.9030      0.00000
    475     153.1251      0.00000
    476     153.6184      0.00000
    477     154.0060      0.00000
    478     154.1945      0.00000
    479     154.2824      0.00000
    480     155.3227      0.00000
    481     155.6020      0.00000
    482     155.8797      0.00000
    483     156.0465      0.00000
    484     156.4557      0.00000
    485     156.5400      0.00000
    486     156.9362      0.00000
    487     157.1361      0.00000
    488     157.4503      0.00000
    489     158.1800      0.00000
    490     158.3625      0.00000
    491     158.5299      0.00000
    492     159.3454      0.00000
    493     159.5410      0.00000
    494     159.7239      0.00000
    495     160.4511      0.00000
    496     160.7717      0.00000
    497     161.0816      0.00000
    498     161.9219      0.00000
    499     162.2605      0.00000
    500     162.5074      0.00000
    501     163.1173      0.00000
    502     163.4936      0.00000
    503     164.0588      0.00000
    504     164.5852      0.00000
    505     164.9419      0.00000
    506     165.3037      0.00000
    507     165.6748      0.00000
    508     165.8282      0.00000
    509     166.7868      0.00000
    510     166.9364      0.00000
    511     167.5849      0.00000
    512     167.7074      0.00000
    513     169.2382      0.00000
    514     170.2175      0.00000
    515     170.9619      0.00000
    516     171.2536      0.00000
    517     172.3618      0.00000
    518     172.6655      0.00000
    519     173.2348      0.00000
    520     173.6413      0.00000
    521     174.1792      0.00000
    522     174.5914      0.00000
    523     175.4666      0.00000
    524     176.3372      0.00000
    525     177.1363      0.00000
    526     177.9648      0.00000
    527     178.4963      0.00000
    528     179.4464      0.00000
    529     180.1071      0.00000
    530     180.8788      0.00000
    531     182.2457      0.00000
    532     182.6586      0.00000
    533     183.8344      0.00000
    534     184.0909      0.00000
    535     185.3081      0.00000
    536     185.4010      0.00000
    537     185.4950      0.00000
    538     187.6624      0.00000
    539     188.1625      0.00000
    540     190.0566      0.00000
    541     191.1096      0.00000
    542     191.5348      0.00000
    543     192.0765      0.00000
    544     194.8053      0.00000
    545     195.3282      0.00000
    546     200.9522      0.00000
    547     201.5304      0.00000
    548     206.0959      0.00000


--------------------------------------------------------------------------------------------------------


 soft charge-density along one line, spin component           1
         0         1         2         3         4         5         6         7         8         9
 total charge-density along one line
 
 pseudopotential strength for first ion, spin component:           1
  9.417 -14.514   0.000  -0.001   0.001   0.002  -0.004   0.005
-14.514  25.269  -0.000   0.001  -0.001  -0.003   0.007  -0.010
  0.000  -0.000  -3.738  -0.002   0.004  -0.036   0.010  -0.017
 -0.001   0.001  -0.002  -3.732  -0.010   0.010  -0.058   0.039
  0.001  -0.001   0.004  -0.010  -3.725  -0.017   0.039  -0.087
  0.002  -0.003  -0.036   0.010  -0.017  50.196  -0.033   0.053
 -0.004   0.007   0.010  -0.058   0.039  -0.033  50.266  -0.125
  0.005  -0.010  -0.017   0.039  -0.087   0.053  -0.125  50.360
 total augmentation occupancy for first ion, spin component:           1
  1.726   0.050  -0.002   0.007  -0.016   0.000   0.000  -0.002
  0.050   0.003   0.000   0.000  -0.001   0.000   0.000  -0.000
 -0.002   0.000   0.898  -0.134   0.200   0.061  -0.015   0.022
  0.007   0.000  -0.134   1.171  -0.477  -0.015   0.093  -0.053
 -0.016  -0.001   0.200  -0.477   1.520   0.022  -0.053   0.131
  0.000   0.000   0.061  -0.015   0.022   0.004  -0.002   0.003
  0.000   0.000  -0.015   0.093  -0.053  -0.002   0.008  -0.006
 -0.002  -0.000   0.022  -0.053   0.131   0.003  -0.006   0.013


------------------------ aborting loop because EDIFF is reached ----------------------------------------





 total charge

# of ion       s       p       d       f       tot
--------------------------------------------------
    1        0.892   1.645   0.000   0.000   2.537
    2        0.816   1.649   0.000   0.000   2.465
    3        0.829   1.752   0.000   0.000   2.581
    4        0.816   1.648   0.000   0.000   2.464
    5        0.829   1.753   0.000   0.000   2.581
    6        0.826   1.572   0.000   0.000   2.398
    7        0.839   1.745   0.000   0.000   2.584
    8        0.839   1.749   0.000   0.000   2.588
    9        0.826   1.571   0.000   0.000   2.397
   10        0.839   1.745   0.000   0.000   2.584
   11        0.826   1.572   0.000   0.000   2.397
   12        0.829   1.752   0.000   0.000   2.581
   13        0.816   1.650   0.000   0.000   2.465
   14        0.816   1.648   0.000   0.000   2.464
   15        0.829   1.753   0.000   0.000   2.582
   16        0.826   1.572   0.000   0.000   2.398
   17        0.839   1.745   0.000   0.000   2.584
   18        0.826   1.572   0.000   0.000   2.397
   19        0.839   1.744   0.000   0.000   2.584
   20        0.839   1.745   0.000   0.000   2.584
   21        0.826   1.572   0.000   0.000   2.398
   22        0.829   1.753   0.000   0.000   2.581
   23        0.816   1.649   0.000   0.000   2.465
   24        0.829   1.754   0.000   0.000   2.583
   25        0.816   1.649   0.000   0.000   2.465
   26        0.675   0.048   0.001   0.000   0.723
   27        0.675   0.048   0.001   0.000   0.723
   28        0.675   0.048   0.001   0.000   0.723
   29        0.675   0.048   0.001   0.000   0.723
   30        0.675   0.048   0.001   0.000   0.723
   31        0.675   0.048   0.001   0.000   0.723
   32        1.627   3.642   0.000   0.000   5.269
   33        1.618   3.668   0.000   0.000   5.286
   34        1.576   3.755   0.000   0.000   5.332
   35        1.561   3.732   0.000   0.000   5.293
   36        1.589   3.704   0.000   0.000   5.293
   37        1.561   3.731   0.000   0.000   5.292
   38        1.576   3.756   0.000   0.000   5.332
   39        1.576   3.756   0.000   0.000   5.331
   40        1.561   3.732   0.000   0.000   5.293
   41        1.589   3.704   0.000   0.000   5.293
   42        1.589   3.704   0.000   0.000   5.293
   43        1.589   3.703   0.000   0.000   5.293
   44        1.589   3.710   0.000   0.000   5.299
   45        1.561   3.732   0.000   0.000   5.293
   46        1.576   3.755   0.000   0.000   5.331
   47        1.576   3.756   0.000   0.000   5.332
   48        1.561   3.730   0.000   0.000   5.292
   49        1.589   3.704   0.000   0.000   5.293
   50        1.561   3.732   0.000   0.000   5.293
   51        1.577   3.754   0.000   0.000   5.331
   52        2.067   6.229   5.728   0.017  14.040
   53        2.067   6.229   5.727   0.017  14.039
   54        2.067   6.230   5.727   0.017  14.040
   55        2.067   6.230   5.727   0.017  14.040
   56        2.066   6.230   5.727   0.017  14.039
   57        2.067   6.229   5.728   0.017  14.040
--------------------------------------------------
tot         68.797 154.084  34.368   0.100 257.349
 
    CHARGE:  cpu time      0.4045: real time      0.4055
    FORLOC:  cpu time      0.3570: real time      0.3578
    FORHF :  cpu time     77.0208: real time     77.2227
    FORNL :  cpu time      5.1086: real time      5.1216
    FORCOR:  cpu time      1.9587: real time      1.9637
    FORHAR:  cpu time      0.4756: real time      0.4767
    MIXING:  cpu time      0.0109: real time      0.0109
    OFIELD:  cpu time      0.0001: real time      0.0001

 VOLUME and BASIS-vectors are now :
 -----------------------------------------------------------------------------
  energy-cutoff  :      320.00
  volume of cell :     1403.01
      direct lattice vectors                 reciprocal lattice vectors
    15.439217752  0.004465832 -0.038376892     0.065085042  0.034326685  0.130688713
    -7.186282924 13.630928377 -0.001416099     0.000303919  0.073536393  0.130825479
    -7.182834812-11.890639092  6.700359279     0.000372844  0.000212151  0.150021909

  length of vectors
    15.439266094 15.409246337 15.423204220     0.149979744  0.150076646  0.150022522


 FORCES acting on ions
    electron-ion (+dipol)            ewald-force                    non-local-force                 convergence-correction
 -----------------------------------------------------------------------------------------------
   0.273E+03 -.251E+03 0.275E+02   -.274E+03 0.251E+03 -.270E+02   -.185E+00 0.157E+00 -.129E+00   0.639E-04 0.290E-04 -.480E-04
   -.193E+03 0.755E+02 0.238E+02   0.196E+03 -.789E+02 -.251E+02   -.376E+01 0.373E+01 0.142E+01   -.179E-06 -.392E-05 0.208E-05
   -.119E+03 0.121E+02 -.426E+01   0.120E+03 -.116E+02 0.199E+01   -.884E+00 -.195E+00 0.901E+00   0.317E-05 -.204E-05 -.337E-05
   0.118E+03 0.192E+03 -.366E+02   -.122E+03 -.194E+03 0.362E+02   0.410E+01 0.163E+01 0.309E+00   -.133E-04 -.144E-04 -.177E-04
   0.103E+03 -.851E+02 -.274E+02   -.105E+03 0.857E+02 0.257E+02   0.103E+01 -.500E+00 0.717E+00   -.153E-06 -.141E-05 0.560E-06
   -.249E+03 -.339E+02 0.988E+02   0.252E+03 0.354E+02 -.101E+03   -.411E+01 -.228E+01 0.541E+01   0.213E-05 -.734E-06 -.719E-06
   -.694E+02 -.761E+02 -.697E+02   0.697E+02 0.780E+02 0.716E+02   -.429E+00 -.175E+01 -.197E+01   -.212E-06 -.201E-05 0.104E-05
   -.548E+02 0.130E+03 -.113E+03   0.565E+02 -.130E+03 0.115E+03   -.139E+01 0.150E+00 -.226E+01   0.261E-05 -.747E-05 -.402E-05
   -.878E+02 -.292E+03 0.494E+02   0.880E+02 0.297E+03 -.487E+02   0.215E+00 -.594E+01 -.302E+01   0.487E-06 0.688E-05 0.408E-05
   -.836E+02 0.368E+02 0.106E+03   0.844E+02 -.367E+02 -.108E+03   -.679E+00 0.158E+00 0.256E+01   -.230E-05 0.412E-05 0.253E-05
   0.241E+03 -.164E+03 0.502E+02   -.245E+03 0.166E+03 -.518E+02   0.607E+01 -.152E+01 0.362E+01   0.110E-06 -.103E-05 0.433E-06
   -.470E+02 -.130E+03 0.759E+02   0.472E+02 0.133E+03 -.747E+02   -.169E+00 -.122E+01 -.406E+00   -.440E-05 0.904E-05 0.131E-04
   -.539E+02 0.184E+03 -.523E+02   0.534E+02 -.188E+03 0.551E+02   0.570E+00 0.455E+01 -.307E+01   -.139E-05 0.842E-06 0.789E-06
   0.758E+01 -.212E+03 0.625E+02   -.713E+01 0.216E+03 -.653E+02   -.444E+00 -.374E+01 0.246E+01   -.823E-05 0.116E-04 -.236E-04
   0.492E+01 0.103E+03 -.613E+02   -.516E+01 -.105E+03 0.601E+02   0.228E+00 0.132E+01 0.378E+00   -.226E-05 -.536E-07 -.762E-06
   -.241E+03 0.181E+03 -.564E+02   0.245E+03 -.183E+03 0.580E+02   -.604E+01 0.151E+01 -.361E+01   -.331E-05 -.679E-05 -.869E-06
   0.453E+02 -.675E+02 -.933E+02   -.461E+02 0.673E+02 0.958E+02   0.687E+00 -.629E-01 -.257E+01   -.762E-05 0.134E-05 -.805E-05
   0.481E+02 0.281E+03 -.348E+02   -.483E+02 -.285E+03 0.343E+02   -.588E-01 0.686E+01 0.242E+01   -.846E-06 0.909E-06 -.514E-06
   0.300E+02 -.110E+02 0.953E+02   -.315E+02 0.110E+02 -.975E+02   0.135E+01 -.207E-02 0.228E+01   0.109E-04 0.430E-05 -.120E-05
   0.788E+02 0.845E+02 0.660E+02   -.791E+02 -.864E+02 -.678E+02   0.435E+00 0.174E+01 0.198E+01   -.427E-06 -.202E-05 0.368E-06
   0.219E+03 0.106E+03 -.117E+03   -.222E+03 -.108E+03 0.120E+03   0.460E+01 0.233E+01 -.442E+01   0.223E-04 0.210E-04 0.433E-04
   -.956E+02 0.958E+02 0.228E+02   0.977E+02 -.965E+02 -.211E+02   -.100E+01 0.489E+00 -.713E+00   -.374E-06 -.382E-05 0.111E-05
   -.142E+03 -.849E+02 0.387E+02   0.147E+03 0.867E+02 -.383E+02   -.503E+01 -.194E+01 -.443E+00   0.597E-05 0.591E-06 -.313E-05
   0.988E+02 0.928E+02 0.183E+01   -.100E+03 -.934E+02 0.420E+00   0.813E+00 0.244E+00 -.959E+00   0.970E-05 0.913E-05 -.158E-04
   0.199E+03 -.656E+02 -.272E+02   -.203E+03 0.690E+02 0.285E+02   0.377E+01 -.373E+01 -.142E+01   -.213E-06 -.136E-05 0.366E-06
   -.396E+02 0.155E+02 0.581E+02   0.401E+02 -.163E+02 -.638E+02   -.449E+00 0.808E+00 0.545E+01   -.345E-06 0.136E-05 0.768E-07
   -.313E+02 -.474E+02 -.381E+02   0.323E+02 0.503E+02 0.431E+02   -.922E+00 -.270E+01 -.474E+01   -.833E-07 -.464E-06 0.221E-06
   -.340E+02 0.432E+02 -.618E+02   0.361E+02 -.428E+02 0.672E+02   -.198E+01 -.481E+00 -.514E+01   0.738E-06 -.986E-06 0.781E-06
   0.253E+02 -.131E+02 0.481E+02   -.274E+02 0.126E+02 -.534E+02   0.199E+01 0.503E+00 0.514E+01   0.204E-05 0.288E-06 0.150E-05
   0.335E+02 0.493E+02 0.372E+02   -.344E+02 -.522E+02 -.422E+02   0.923E+00 0.270E+01 0.474E+01   -.174E-06 -.406E-06 0.674E-07
   0.308E+02 -.226E+02 -.552E+02   -.313E+02 0.234E+02 0.609E+02   0.448E+00 -.803E+00 -.545E+01   -.191E-05 0.186E-05 -.704E-06
   0.476E+03 -.358E+03 -.775E+02   -.530E+03 0.342E+03 0.116E+03   0.332E+02 0.954E+01 -.232E+02   -.326E-04 0.730E-06 0.234E-04
   0.374E+03 -.442E+03 0.201E+03   -.325E+03 0.459E+03 -.239E+03   -.303E+02 -.104E+02 0.235E+02   0.124E-03 0.404E-04 -.517E-04
   -.258E+03 -.639E+02 0.525E+02   0.223E+03 0.503E+02 -.575E+02   0.275E+02 0.108E+02 0.317E+01   0.192E-05 -.454E-06 -.704E-06
   -.506E+03 0.405E+02 0.276E+02   0.492E+03 -.152E+02 -.144E+02   0.118E+02 -.177E+02 -.106E+02   -.174E-05 -.947E-05 0.102E-04
   -.280E+03 -.457E+03 0.223E+03   0.289E+03 0.464E+03 -.268E+03   -.589E+01 -.455E+01 0.342E+02   0.313E-05 0.595E-05 -.336E-06
   0.179E+03 0.451E+03 -.179E+03   -.150E+03 -.443E+03 0.191E+03   -.172E+02 -.463E+01 -.640E+01   -.478E-05 0.130E-03 -.142E-04
   -.993E+02 -.280E+03 0.113E+03   0.944E+02 0.250E+03 -.911E+02   0.328E+01 0.183E+02 -.143E+02   -.310E-04 0.677E-04 0.462E-04
   0.258E+03 -.166E+03 -.126E+02   -.234E+03 0.140E+03 0.202E+01   -.195E+02 0.207E+02 0.759E+01   0.494E-06 -.872E-06 0.413E-06
   -.222E+03 0.443E+03 -.351E+02   0.229E+03 -.423E+03 0.109E+02   -.380E+01 -.148E+02 0.181E+02   -.154E-06 0.201E-05 -.213E-06
   -.539E+03 0.391E+02 0.171E+02   0.568E+03 -.328E+02 0.191E+02   -.211E+02 -.480E+01 -.277E+02   0.391E-05 0.414E-06 0.390E-06
   -.302E+03 0.482E+03 -.218E+02   0.304E+03 -.514E+03 -.128E+02   -.133E+01 0.233E+02 0.263E+02   -.653E-05 -.329E-05 0.645E-06
   0.306E+03 -.456E+03 0.131E+02   -.309E+03 0.488E+03 0.214E+02   0.136E+01 -.233E+02 -.263E+02   0.364E-06 -.164E-05 0.509E-06
   0.448E+03 0.805E+02 -.951E+02   -.476E+03 -.867E+02 0.588E+02   0.172E+02 0.368E+01 0.236E+02   0.123E-03 0.652E-05 0.143E-05
   0.139E+03 -.462E+03 0.349E+02   -.147E+03 0.442E+03 -.109E+02   0.453E+01 0.121E+02 -.136E+02   -.213E-04 -.900E-04 -.979E-05
   -.282E+03 0.198E+03 0.235E+01   0.257E+03 -.172E+03 0.809E+01   0.196E+02 -.207E+02 -.742E+01   -.403E-05 -.253E-04 -.315E-05
   0.305E+02 0.295E+03 -.957E+02   -.259E+02 -.265E+03 0.737E+02   -.368E+01 -.240E+02 0.167E+02   0.304E-06 0.761E-06 -.380E-06
   -.229E+03 -.334E+03 0.172E+03   0.200E+03 0.327E+03 -.183E+03   0.212E+02 0.665E+01 0.853E+01   0.486E-05 -.480E-07 -.893E-06
   0.235E+03 0.437E+03 -.206E+03   -.243E+03 -.444E+03 0.252E+03   0.597E+01 0.464E+01 -.343E+02   -.185E-05 0.163E-05 -.403E-06
   0.502E+03 -.228E+02 -.301E+02   -.487E+03 -.243E+01 0.169E+02   -.119E+02 0.177E+02 0.104E+02   -.142E-06 -.130E-05 0.228E-06
   0.219E+03 0.130E+03 -.580E+02   -.184E+03 -.116E+03 0.630E+02   -.275E+02 -.109E+02 -.320E+01   -.581E-04 -.233E-04 0.231E-05
   0.679E+03 0.744E+03 -.334E+03   -.675E+03 -.740E+03 0.330E+03   -.229E+02 -.472E+02 0.195E+02   -.620E-06 0.655E-06 -.245E-07
   -.985E+03 0.294E+03 0.415E+02   0.978E+03 -.293E+03 -.421E+02   0.606E+02 0.675E+01 -.661E+01   0.586E-05 0.282E-05 -.367E-06
   0.397E+03 -.904E+03 0.148E+03   -.395E+03 0.897E+03 -.148E+03   -.321E+02 0.483E+02 -.345E+01   0.310E-05 -.283E-05 -.614E-06
   -.445E+03 0.103E+04 -.154E+03   0.443E+03 -.102E+04 0.154E+03   0.322E+02 -.475E+02 0.366E+01   0.212E-04 0.251E-04 -.147E-04
   0.663E+03 -.116E+03 -.993E+02   -.658E+03 0.116E+03 0.987E+02   -.235E+01 0.610E+01 -.118E+02   -.261E-04 0.111E-03 -.227E-04
   -.781E+03 -.723E+03 0.338E+03   0.777E+03 0.719E+03 -.335E+03   0.211E+02 0.449E+02 -.169E+02   0.155E-04 -.989E-04 0.122E-03
 -----------------------------------------------------------------------------------------------
   -.680E+01 0.276E+01 -.119E+01   0.000E+00 -.341E-12 0.114E-12   0.597E+02 0.495E+01 -.111E+02   0.196E-03 0.192E-03 0.319E-04
 
 
 POSITION                                       TOTAL-FORCE (eV/Angst)
 -----------------------------------------------------------------------------------
     -3.78791     10.21574      1.46059        -1.509805     -0.164121      0.495194
     -4.52388     -4.95096      3.79931        -1.832848      0.591931      0.217165
     -4.37821      6.43769      1.10882        -0.941354      0.007784     -0.780393
     -2.27140      7.33612      0.20906        -0.692540     -0.060453     -0.084870
     -2.44692     -6.22910      4.12534        -1.531254     -0.250864     -0.552875
     -5.11592      6.03086      2.33290        -1.953813     -0.779310      2.351830
     -3.37431     -5.26237      4.53352        -1.147184     -0.212097     -0.107884
     -3.08474      6.94685      1.27881        -1.019914     -0.123731     -0.189572
     -6.67312     -0.89799      5.49428        -0.696442     -1.315733     -1.624414
     -6.53791      1.55649      5.31338        -1.032978      0.076199      0.513297
     -1.25474     -6.43703      4.98854         0.869893     -0.136974      1.644604
     -6.68409      0.43821      6.14372        -1.057877      0.506671      0.913085
     -6.50125      2.86783      5.80002        -0.879104      0.854091     -0.129701
      7.57135     -1.12308      0.86055        -1.052887     -0.378548     -0.040108
      7.75419      1.30655      0.51685        -0.927246     -0.630644     -0.554150
      2.32484      8.18178      1.67203        -2.899329      0.016864     -1.269519
      7.60801      0.18827      1.34718        -0.976153     -0.219597     -0.134669
      7.74322      2.64274      1.16629        -1.207148      1.891385      1.476231
      4.15484     -5.20209      5.38176        -0.898839     -0.078584      0.505413
      4.44441      7.00712      2.12704        -0.851311      0.046141      0.484844
      6.18602     -4.28611      4.32766         0.529201      0.690433     -0.752111
      3.51702      7.97385      2.53523        -0.462614      0.092543      0.916539
      3.34150     -5.59137      6.45151        -2.054225     -0.485638      0.419060
      5.44831     -4.69294      5.55174        -1.137633     -0.221890      1.060875
      5.59398      6.69571      2.86125        -0.184254     -0.732748      0.148358
     -6.44726      1.39877      4.23973        -0.984893     -0.005470      0.404111
     -3.19258     -4.72839      5.46491        -1.067232     -0.142398     -0.028818
     -2.69330      7.04306      2.29033        -1.015892     -0.136042     -0.034571
      3.76340     -5.29830      4.37024        -0.993796     -0.065133      0.438468
      4.26268      6.47315      1.19565        -0.938415     -0.020419      0.397710
      7.51736      0.34598      2.42084        -1.019168     -0.161245     -0.033576
      2.45918     -3.68122      2.11145         1.890443      0.833933     -1.783514
     -2.85639     10.49971      0.79068        -3.216515     -0.901004      1.923940
     -6.31841      5.58472      2.19568         6.332256      2.629797      0.562917
     -5.36548     -4.00543      4.28416         2.409996     -3.434827     -2.889346
     -6.48288     -1.00634      4.24024        -2.105515     -1.468380      8.064353
     -1.03477      7.82012      0.48250        -1.533968     -0.585657      0.155417
     -6.85236     -1.93768      6.23784        -0.429593      0.828038     -1.247548
     -0.41602     -7.36024      4.65396        -6.372327      5.363900      1.645452
     -6.36144      3.88288      4.91321        -0.707062     -3.506873      4.564068
     -4.56624      6.11546      3.47828        -6.072714     -1.545777     -6.138519
      2.14039      7.46364      0.63844        -1.801755      5.300255      6.262008
     -1.07029     -5.71889      6.02213        -0.185159     -5.453583     -5.911101
      5.63634     -4.37071      3.18228         0.661647      0.250850      2.431649
      7.43154     -2.13813      1.74735        -0.660915      0.609843      0.247597
      1.48612      9.10500      2.00661         4.461356     -5.521342     -1.152201
      7.92246      3.68243      0.42272        -2.075293     -6.703033      4.044134
      2.10487     -6.07537      6.17806         3.473934      2.523975      2.311028
      7.55298      2.75109      2.42033         0.172251      1.381496     -7.791186
      6.43558      5.75019      2.37641        -4.524491      3.303646      3.035284
      7.38851     -3.83997      4.46489        -8.344635     -2.829059     -0.199995
     -7.67594      4.55003      3.44770       -18.910691    -52.275496     11.470640
      1.56621     -7.84999      5.22512        57.362076     11.173315    -16.183710
      7.62424      5.76929      0.68183       -39.830598     42.336407     -9.749179
     -6.55414     -4.02454      5.97873        37.959214    -41.670277     10.279025
     -0.49611      9.59474      1.43544        -1.503253      1.110434     -1.540088
      8.74604     -2.80527      3.21286        15.118362     49.797016     -8.480679
 -----------------------------------------------------------------------------------
    total drift:                               57.152165      4.677287    -10.544814


--------------------------------------------------------------------------------------------------------



  FREE ENERGIE OF THE ION-ELECTRON SYSTEM (eV)
  ---------------------------------------------------
  free  energy   TOTEN  =      -891.04886056 eV

  energy  without entropy=     -891.04886056  energy(sigma->0) =     -891.04886056
 


--------------------------------------------------------------------------------------------------------


    POTLOK:  cpu time      2.0250: real time      2.0303


--------------------------------------------------------------------------------------------------------


 writing wavefunctions
     LOOP+:  cpu time    534.8919: real time    536.4271
    4ORBIT:  cpu time      0.0000: real time      0.0000



 total charge

# of ion       s       p       d       f       tot
--------------------------------------------------
    1        0.892   1.645   0.000   0.000   2.537
    2        0.816   1.649   0.000   0.000   2.465
    3        0.829   1.752   0.000   0.000   2.581
    4        0.816   1.648   0.000   0.000   2.464
    5        0.829   1.753   0.000   0.000   2.581
    6        0.826   1.572   0.000   0.000   2.398
    7        0.839   1.745   0.000   0.000   2.584
    8        0.839   1.749   0.000   0.000   2.588
    9        0.826   1.571   0.000   0.000   2.397
   10        0.839   1.745   0.000   0.000   2.584
   11        0.826   1.572   0.000   0.000   2.397
   12        0.829   1.752   0.000   0.000   2.581
   13        0.816   1.650   0.000   0.000   2.465
   14        0.816   1.648   0.000   0.000   2.464
   15        0.829   1.753   0.000   0.000   2.582
   16        0.826   1.572   0.000   0.000   2.398
   17        0.839   1.745   0.000   0.000   2.584
   18        0.826   1.572   0.000   0.000   2.397
   19        0.839   1.744   0.000   0.000   2.584
   20        0.839   1.745   0.000   0.000   2.584
   21        0.826   1.572   0.000   0.000   2.398
   22        0.829   1.753   0.000   0.000   2.581
   23        0.816   1.649   0.000   0.000   2.465
   24        0.829   1.754   0.000   0.000   2.583
   25        0.816   1.649   0.000   0.000   2.465
   26        0.675   0.048   0.001   0.000   0.723
   27        0.675   0.048   0.001   0.000   0.723
   28        0.675   0.048   0.001   0.000   0.723
   29        0.675   0.048   0.001   0.000   0.723
   30        0.675   0.048   0.001   0.000   0.723
   31        0.675   0.048   0.001   0.000   0.723
   32        1.627   3.642   0.000   0.000   5.269
   33        1.618   3.668   0.000   0.000   5.286
   34        1.576   3.755   0.000   0.000   5.332
   35        1.561   3.732   0.000   0.000   5.293
   36        1.589   3.704   0.000   0.000   5.293
   37        1.561   3.731   0.000   0.000   5.292
   38        1.576   3.756   0.000   0.000   5.332
   39        1.576   3.756   0.000   0.000   5.331
   40        1.561   3.732   0.000   0.000   5.293
   41        1.589   3.704   0.000   0.000   5.293
   42        1.589   3.704   0.000   0.000   5.293
   43        1.589   3.703   0.000   0.000   5.293
   44        1.589   3.710   0.000   0.000   5.299
   45        1.561   3.732   0.000   0.000   5.293
   46        1.576   3.755   0.000   0.000   5.331
   47        1.576   3.756   0.000   0.000   5.332
   48        1.561   3.730   0.000   0.000   5.292
   49        1.589   3.704   0.000   0.000   5.293
   50        1.561   3.732   0.000   0.000   5.293
   51        1.577   3.754   0.000   0.000   5.331
   52        2.067   6.229   5.728   0.017  14.040
   53        2.067   6.229   5.727   0.017  14.039
   54        2.067   6.230   5.727   0.017  14.040
   55        2.067   6.230   5.727   0.017  14.040
   56        2.066   6.230   5.727   0.017  14.039
   57        2.067   6.229   5.728   0.017  14.040
--------------------------------------------------
tot         68.797 154.084  34.368   0.100 257.349
 

 total amount of memory used by VASP MPI-rank0   989087. kBytes
=======================================================================

   base      :      30000. kBytes
   nonl-proj :      20282. kBytes
   fftplans  :      52431. kBytes
   grid      :     135172. kBytes
   one-center:       2299. kBytes
   HF        :       1344. kBytes
   nonlr-proj:       4977. kBytes
   wavefun   :      20740. kBytes
   fock_wrk  :     721842. kBytes
 
  
  
 General timing and accounting informations for this job:
 ========================================================
  
                  Total CPU time used (sec):      546.001
                            User time (sec):      536.389
                          System time (sec):        9.611
                         Elapsed time (sec):      547.850
  
                   Maximum memory used (kb):     2986884.
                   Average memory used (kb):          N/A
  
                          Minor page faults:      1557483
                          Major page faults:            4
                 Voluntary context switches:         7760
