 vasp.6.2.1 16May21 (build Aug 03 2024 02:50:01) gamma-only                     
  
 executed on             LinuxIFC date 2024.10.29  07:28:33
 running on   11 total cores
 distrk:  each k-point on   11 cores,    1 groups
 distr:  one band on NCORE=   1 cores,   11 groups


--------------------------------------------------------------------------------------------------------


 INCAR:
   SYSTEM = MOFCO2
   ISMEAR = 0
   SIGMA = 0.1
   ENCUT = 420.
   PREC = Accurate
   ISYM = -1
   NELM = 1
   IBRION = -1
   NSW = 0
   ALGO = sub
   NBANDS = 583
   NBANDSHIGH = 583
   NBANDSLOW = 131
   TIME = 0.05
   LHFCALC = .TRUE.
   AEXX = 1
   LASPH = .TRUE.
   PRECFOCK = Normal
   LWAVE = .TRUE.
   LCHARG = .TRUE.
   NWRITE = 1
   LORBIT = 11

 POTCAR:    PAW_PBE C_GW 28Sep2005                
 POTCAR:    PAW_PBE H_GW 21Apr2008                
 POTCAR:    PAW_PBE O_GW 28Sep2005                
 POTCAR:    PAW_PBE Fe_sv_GW 05Dec2013            
 -----------------------------------------------------------------------------
|                                                                             |
|           W    W    AA    RRRRR   N    N  II  N    N   GGGG   !!!           |
|           W    W   A  A   R    R  NN   N  II  NN   N  G    G  !!!           |
|           W    W  A    A  R    R  N N  N  II  N N  N  G       !!!           |
|           W WW W  AAAAAA  RRRRR   N  N N  II  N  N N  G  GGG   !            |
|           WW  WW  A    A  R   R   N   NN  II  N   NN  G    G                |
|           W    W  A    A  R    R  N    N  II  N    N   GGGG   !!!           |
|                                                                             |
|     For optimal performance we recommend to set                             |
|       NCORE = 2 up to number-of-cores-per-socket                            |
|     NCORE specifies how many cores store one orbital (NPAR=cpu/NCORE).      |
|     This setting can greatly improve the performance of VASP for DFT.       |
|     The default, NCORE=1 might be grossly inefficient on modern             |
|     multi-core architectures or massively parallel machines. Do your        |
|     own testing! More info at https://www.vasp.at/wiki/index.php/NCORE      |
|     Unfortunately you need to use the default for GW and RPA                |
|     calculations (for HF NCORE is supported but not extensively tested      |
|     yet).                                                                   |
|                                                                             |
 -----------------------------------------------------------------------------

 POTCAR:    PAW_PBE C_GW 28Sep2005                
  local pseudopotential read in
  kinetic energy density of atom read in
  atomic valenz-charges read in
  non local Contribution for L=           0  read in
    real space projection operators read in
  non local Contribution for L=           0  read in
    real space projection operators read in
  non local Contribution for L=           1  read in
    real space projection operators read in
  non local Contribution for L=           1  read in
    real space projection operators read in
    PAW grid and wavefunctions read in
 
   number of l-projection  operators is LMAX  =           4
   number of lm-projection operators is LMMAX =           8
 
 POTCAR:    PAW_PBE H_GW 21Apr2008                
  local pseudopotential read in
  kinetic energy density of atom read in
  atomic valenz-charges read in
  non local Contribution for L=           0  read in
    real space projection operators read in
  non local Contribution for L=           0  read in
    real space projection operators read in
  non local Contribution for L=           1  read in
    real space projection operators read in
  non local Contribution for L=           1  read in
    real space projection operators read in
  non local Contribution for L=           2  read in
    real space projection operators read in
    PAW grid and wavefunctions read in
 
   number of l-projection  operators is LMAX  =           5
   number of lm-projection operators is LMMAX =          13
 
 POTCAR:    PAW_PBE O_GW 28Sep2005                
  local pseudopotential read in
  kinetic energy density of atom read in
  atomic valenz-charges read in
  non local Contribution for L=           0  read in
    real space projection operators read in
  non local Contribution for L=           0  read in
    real space projection operators read in
  non local Contribution for L=           1  read in
    real space projection operators read in
  non local Contribution for L=           1  read in
    real space projection operators read in
    PAW grid and wavefunctions read in
 
   number of l-projection  operators is LMAX  =           4
   number of lm-projection operators is LMMAX =           8
 
 POTCAR:    PAW_PBE Fe_sv_GW 05Dec2013            
  local pseudopotential read in
  partial core-charges read in
  partial kinetic energy density read in
  kinetic energy density of atom read in
  atomic valenz-charges read in
  non local Contribution for L=           0  read in
    real space projection operators read in
  non local Contribution for L=           0  read in
    real space projection operators read in
  non local Contribution for L=           0  read in
    real space projection operators read in
  non local Contribution for L=           1  read in
    real space projection operators read in
  non local Contribution for L=           1  read in
    real space projection operators read in
  non local Contribution for L=           1  read in
    real space projection operators read in
  non local Contribution for L=           2  read in
    real space projection operators read in
  non local Contribution for L=           2  read in
    real space projection operators read in
  non local Contribution for L=           2  read in
    real space projection operators read in
  non local Contribution for L=           3  read in
    real space projection operators read in
  non local Contribution for L=           3  read in
    real space projection operators read in
    PAW grid and wavefunctions read in
 
   number of l-projection  operators is LMAX  =          11
   number of lm-projection operators is LMMAX =          41
 
 -----------------------------------------------------------------------------
|                                                                             |
|               ----> ADVICE to this user running VASP <----                  |
|                                                                             |
|     You have a (more or less) 'large supercell' and for larger cells it     |
|     might be more efficient to use real-space projection operators.         |
|     Therefore, try LREAL= Auto in the INCAR file.                           |
|     Mind: For very accurate calculation, you might also keep the            |
|     reciprocal projection scheme (i.e. LREAL=.FALSE.).                      |
|                                                                             |
 -----------------------------------------------------------------------------

  PAW_PBE C_GW 28Sep2005                :
 energy of atom  1       EATOM= -147.1560
 kinetic energy error for atom=    0.0192 (will be added to EATOM!!)
  PAW_PBE H_GW 21Apr2008                :
 energy of atom  2       EATOM=  -12.4884
 kinetic energy error for atom=    0.0256 (will be added to EATOM!!)
  PAW_PBE O_GW 28Sep2005                :
 energy of atom  3       EATOM= -432.3788
 kinetic energy error for atom=    0.0724 (will be added to EATOM!!)
  PAW_PBE Fe_sv_GW 05Dec2013            :
 energy of atom  4       EATOM=-3376.4015
 kinetic energy error for atom=    0.1308 (will be added to EATOM!!)
 
 
 POSCAR:  C  H  O Fe
  positions in direct lattice
  No initial velocities read in
 exchange correlation table for  LEXCH =        8
   RHO(1)=    0.500       N(1)  =     2000
   RHO(2)=  100.500       N(2)  =     4000
 


--------------------------------------------------------------------------------------------------------


 ion  position               nearest neighbor table
   1  0.295  0.941  0.220-  32 1.17  33 1.18
   2  0.032  0.132  0.567-  35 1.36   7 1.40  22 1.43
   3  0.081  0.617  0.166-   8 1.40  23 1.43   6 1.49
   4  0.131  0.566  0.032-  37 1.36   8 1.40  24 1.43
   5  0.166  0.081  0.617-   7 1.40  25 1.43  11 1.49
   6  0.179  0.747  0.349-  41 1.27  34 1.29   3 1.49
   7  0.192  0.205  0.678-  27 1.09   2 1.40   5 1.40
   8  0.205  0.677  0.192-  28 1.09   4 1.40   3 1.40
   9  0.253  0.651  0.822-  36 1.27  38 1.29  12 1.49
  10  0.322  0.808  0.795-  26 1.09  13 1.40  12 1.40
  11  0.349  0.179  0.747-  43 1.27  39 1.29   5 1.49
  12  0.383  0.834  0.919-  10 1.40  14 1.43   9 1.49
  13  0.433  0.968  0.868-  40 1.36  10 1.40  15 1.43
  14  0.567  0.032  0.132-  45 1.36  17 1.40  12 1.43
  15  0.617  0.166  0.081-  17 1.40  13 1.43  18 1.49
  16  0.651  0.821  0.253-  42 1.27  46 1.29  22 1.49
  17  0.678  0.192  0.205-  31 1.09  14 1.40  15 1.40
  18  0.747  0.349  0.178-  49 1.27  47 1.29  15 1.49
  19  0.795  0.323  0.808-  29 1.09  23 1.40  24 1.40
  20  0.808  0.795  0.322-  30 1.09  25 1.40  22 1.40
  21  0.821  0.253  0.651-  44 1.27  51 1.29  24 1.49
  22  0.834  0.919  0.383-  20 1.40   2 1.43  16 1.49
  23  0.869  0.434  0.968-  48 1.36  19 1.40   3 1.43
  24  0.919  0.383  0.834-  19 1.40   4 1.43  21 1.49
  25  0.968  0.868  0.433-  50 1.36  20 1.40   5 1.43
  26  0.182  0.656  0.634-  10 1.09
  27  0.344  0.366  0.818-   7 1.09
  28  0.366  0.817  0.344-   8 1.09
  29  0.634  0.183  0.656-  19 1.09
  30  0.656  0.634  0.182-  20 1.09
  31  0.818  0.344  0.366-  17 1.09
  32  0.310  0.006  0.317-   1 1.17
  33  0.278  0.875  0.120-   1 1.18
  34  0.067  0.696  0.328-   6 1.29  54 2.11  52 2.12
  35  0.073  0.264  0.640-   2 1.36  57 2.06  55 2.07
  36  0.098  0.479  0.633-   9 1.27  57 2.07
  37  0.264  0.638  0.074-   4 1.36  55 2.05  56 2.09
  38  0.303  0.671  0.933-   9 1.29  56 2.10  55 2.12
  39  0.328  0.067  0.696-  11 1.29  52 2.10  53 2.12
  40  0.361  0.926  0.736-  13 1.36  53 2.06  52 2.08
  41  0.367  0.903  0.521-   6 1.27  53 2.07
  42  0.479  0.633  0.098-  16 1.27  55 2.07
  43  0.521  0.367  0.902-  11 1.27  54 2.07
  44  0.633  0.097  0.479-  21 1.27  56 2.07
  45  0.639  0.074  0.264-  14 1.36  56 2.06  57 2.08
  46  0.672  0.933  0.304-  16 1.29  57 2.10  56 2.12
  47  0.697  0.329  0.067-  18 1.29  53 2.10  54 2.12
  48  0.736  0.362  0.926-  23 1.36  54 2.05  53 2.09
  49  0.902  0.521  0.367-  18 1.27  52 2.07
  50  0.927  0.736  0.360-  25 1.36  52 2.06  54 2.07
  51  0.933  0.304  0.672-  21 1.29  55 2.11  57 2.12
  52  0.107  0.783  0.515-  50 2.06  49 2.07  40 2.08  39 2.10  34 2.12
  53  0.515  0.107  0.783-  40 2.06  41 2.07  48 2.09  47 2.10  39 2.12
  54  0.783  0.516  0.106-  48 2.05  50 2.07  43 2.07  34 2.11  47 2.12
  55  0.217  0.484  0.894-  37 2.05  35 2.07  42 2.07  51 2.11  38 2.12
  56  0.485  0.893  0.217-  45 2.06  44 2.07  37 2.09  38 2.10  46 2.12
  57  0.893  0.217  0.485-  35 2.06  36 2.07  45 2.08  46 2.10  51 2.12
 

IMPORTANT INFORMATION: All symmetrisations will be switched off!
NOSYMM: (Re-)initialisation of all symmetry stuff for point group C_1.


----------------------------------------------------------------------------------------

                                     Primitive cell                                     

  volume of cell :    1403.0148

  direct lattice vectors                    reciprocal lattice vectors
    15.439217752  0.004465832 -0.038376892     0.065085042  0.034326685  0.130688713
    -7.186282924 13.630928377 -0.001416099     0.000303919  0.073536393  0.130825479
    -7.182834812-11.890639092  6.700359279     0.000372844  0.000212151  0.150021909

  length of vectors
    15.439266094 15.409246337 15.423204220     0.149979744  0.150076646  0.150022522

  position of ions in fractional coordinates (direct lattice)
     0.295019501  0.941160170  0.219875959
     0.032140205  0.131596472  0.567243074
     0.080939400  0.617136620  0.166081282
     0.131311660  0.566131401  0.032072370
     0.166052468  0.080890174  0.616656951
     0.178934143  0.747136406  0.349358741
     0.192223384  0.205099135  0.677753253
     0.204817095  0.677208988  0.192172431
     0.252895436  0.650728993  0.821583851
     0.322307724  0.807597299  0.795016362
     0.349319458  0.178891109  0.746556755
     0.382922059  0.833947320  0.919292900
     0.433306216  0.967704379  0.868314174
     0.566693754  0.032295640  0.131685826
     0.617077941  0.166052695  0.080707123
     0.650680572  0.821108876  0.253443275
     0.677692276  0.192402701  0.204983653
     0.747104594  0.349271007  0.178416179
     0.795182905  0.322791042  0.807827584
     0.807776602  0.794900865  0.322246747
     0.821065842  0.252863594  0.650641229
     0.833947517  0.919109811  0.383343020
     0.868688340  0.433868599  0.967927620
     0.919060577  0.382863380  0.833918703
     0.967859819  0.868403528  0.432756926
     0.182479428  0.655565764  0.633945057
     0.344103209  0.366270524  0.817662957
     0.365791429  0.816735938  0.344089651
     0.634208571  0.183264047  0.655910379
     0.655896791  0.633729476  0.182337028
     0.817520572  0.344434206  0.366054943
     0.309634406  0.006275347  0.316899865
     0.277845133  0.874684412  0.119782242
     0.067421933  0.696011040  0.328229224
     0.073185170  0.264301200  0.639867354
     0.097668867  0.478758507  0.633498145
     0.264148327  0.637872795  0.073659183
     0.302715318  0.671496338  0.932846989
     0.328490557  0.067484104  0.696479021
     0.361353031  0.926373201  0.735541372
     0.367302190  0.903369468  0.521413749
     0.478945773  0.633023796  0.098161017
     0.521054227  0.366976174  0.901838960
     0.632697810  0.096630539  0.478586221
     0.638646969  0.073626784  0.264458628
     0.671509473  0.932515918  0.303521008
     0.697284712  0.328503632  0.067153018
     0.735851673  0.362127205  0.926340817
     0.902331148  0.521241523  0.366501884
     0.926814852  0.735698800  0.360132676
     0.932578089  0.303988990  0.671770806
     0.107174485  0.783307327  0.515334558
     0.515337162  0.106795323  0.782801462
     0.783372319  0.515771295  0.106356464
     0.216627696  0.484228705  0.893643529
     0.484662838  0.893204670  0.217198508
     0.892825508  0.216692673  0.484665412

  ion indices of the primitive-cell ions
   primitive index   ion index
                 1           1
                 2           2
                 3           3
                 4           4
                 5           5
                 6           6
                 7           7
                 8           8
                 9           9
                10          10
                11          11
                12          12
                13          13
                14          14
                15          15
                16          16
                17          17
                18          18
                19          19
                20          20
                21          21
                22          22
                23          23
                24          24
                25          25
                26          26
                27          27
                28          28
                29          29
                30          30
                31          31
                32          32
                33          33
                34          34
                35          35
                36          36
                37          37
                38          38
                39          39
                40          40
                41          41
                42          42
                43          43
                44          44
                45          45
                46          46
                47          47
                48          48
                49          49
                50          50
                51          51
                52          52
                53          53
                54          54
                55          55
                56          56
                57          57

----------------------------------------------------------------------------------------

 
 
 KPOINTS: KPOINTS                                 

Automatic generation of k-mesh.
 Grid dimensions read from file:
 generate k-points for:    1    1    1

 Generating k-lattice:

  Cartesian coordinates                     Fractional coordinates (reciprocal lattice)
     0.065085042  0.034326685  0.130688713     1.000000000  0.000000000 -0.000000000
     0.000303919  0.073536393  0.130825479     0.000000000  1.000000000  0.000000000
     0.000372844  0.000212151  0.150021909    -0.000000000  0.000000000  1.000000000

  Length of vectors
     0.149979744  0.150076646  0.150022522

  Shift w.r.t. Gamma in fractional coordinates (k-lattice)
     0.000000000  0.000000000  0.000000000

 
 Subroutine IBZKPT returns following result:
 ===========================================
 
 Found      1 irreducible k-points:
 
 Following reciprocal coordinates:
            Coordinates               Weight
  0.000000  0.000000  0.000000      1.000000
 
 Following cartesian coordinates:
            Coordinates               Weight
  0.000000  0.000000  0.000000      1.000000
 
 WARNING: full set of k-points will be restricted to regular points only.

 
 Subroutine IBZKPT_HF returns following result:
 ==============================================
 
 Found      1 k-points in 1st BZ
 the following      1 k-points will be used (e.g. in the exchange kernel)
 Following reciprocal coordinates:   # in IRBZ
  0.000000  0.000000  0.000000    1.00000000   1 t-inv F


--------------------------------------------------------------------------------------------------------




 Dimension of arrays:
   k-points           NKPTS =      1   k-points in BZ     NKDIM =      1   number of bands    NBANDS=    583
   number of dos      NEDOS =    301   number of ions     NIONS =     57
   non local maximal  LDIM  =     11   non local SUM 2l+1 LMDIM =     41
   total plane-waves  NPLWV = ******
   max r-space proj   IRMAX =      1   max aug-charges    IRDMAX=  22306
   dimension x,y,z NGX =   108 NGY =  108 NGZ =  108
   dimension x,y,z NGXF=   216 NGYF=  216 NGZF=  216
   support grid    NGXF=   216 NGYF=  216 NGZF=  216
   ions per type =              25   6  20   6
   lowest and highest band optimized NBANDSLOW=     131 NBANDSHIGH=     583
   NGX,Y,Z   is equivalent  to a cutoff of  11.63, 11.65, 11.64 a.u.
   NGXF,Y,Z  is equivalent  to a cutoff of  23.26, 23.30, 23.28 a.u.

 SYSTEM =  MOFCO2                                  
 POSCAR =   C  H  O Fe                             

 Startparameter for this run:
   NWRITE =      1    write-flag & timer
   PREC   = accura    normal or accurate (medium, high low for compatibility)
   ISTART =      1    job   : 0-new  1-cont  2-samecut
   ICHARG =      0    charge: 1-file 2-atom 10-const
   ISPIN  =      1    spin polarized calculation?
   LNONCOLLINEAR =      F non collinear calculations
   LSORBIT =      F    spin-orbit coupling
   INIWAV =      1    electr: 0-lowe 1-rand  2-diag
   LASPH  =      T    aspherical Exc in radial PAW
 Electronic Relaxation 1
   ENCUT  =  420.0 eV  30.87 Ry    5.56 a.u.  25.80 25.75 25.77*2*pi/ulx,y,z
   ENINI  =  420.0     initial cutoff
   ENAUG  =  963.7 eV  augmentation charge cutoff
   NELM   =      1;   NELMIN=  2; NELMDL=  0     # of ELM steps 
   EDIFF  = 0.1E-03   stopping-criterion for ELM
   LREAL  =      F    real-space projection
   NLSPLINE    = F    spline interpolate recip. space projectors
   LCOMPAT=      F    compatible to vasp.4.4
   GGA_COMPAT  = T    GGA compatible to vasp.4.4-vasp.4.6
   LMAXPAW     = -100 max onsite density
   LMAXMIX     =    2 max onsite mixed and CHGCAR
   VOSKOWN=      0    Vosko Wilk Nusair interpolation
   ROPT   =    0.00000   0.00000   0.00000   0.00000
 Ionic relaxation
   EDIFFG = 0.1E-02   stopping-criterion for IOM
   NSW    =      0    number of steps for IOM
   NBLOCK =      1;   KBLOCK =      1    inner block; outer block 
   IBRION =     -1    ionic relax: 0-MD 1-quasi-New 2-CG
   NFREE  =      0    steps in history (QN), initial steepest desc. (CG)
   ISIF   =      0    stress and relaxation
   IWAVPR =     10    prediction:  0-non 1-charg 2-wave 3-comb
   ISYM   =     -1    0-nonsym 1-usesym 2-fastsym
   LCORR  =      T    Harris-Foulkes like correction to forces

   POTIM  = 0.5000    time-step for ionic-motion
   TEIN   =    0.0    initial temperature
   TEBEG  =    0.0;   TEEND  =   0.0 temperature during run
   SMASS  =  -3.00    Nose mass-parameter (am)
   estimated Nose-frequenzy (Omega)   =  0.10E-29 period in steps = 0.13E+47 mass=  -0.545E-26a.u.
   SCALEE = 1.0000    scale energy and forces
   NPACO  =    256;   APACO  = 16.0  distance and # of slots for P.C.
   PSTRESS=    0.0 pullay stress

  Mass of Ions in am
   POMASS =  12.01  1.00 16.00 55.85
  Ionic Valenz
   ZVAL   =   4.00  1.00  6.00 16.00
  Atomic Wigner-Seitz radii
   RWIGS  =  -1.00 -1.00 -1.00 -1.00
  virtual crystal weights 
   VCA    =   1.00  1.00  1.00  1.00
   NELECT =     322.0000    total number of electrons
   NUPDOWN=      -1.0000    fix difference up-down

 DOS related values:
   EMIN   =  10.00;   EMAX   =-10.00  energy-range for DOS
   EFERMI =   0.00
   ISMEAR =     0;   SIGMA  =   0.10  broadening in eV -4-tet -1-fermi 0-gaus

 Electronic relaxation 2 (details)
   IALGO  =      4    algorithm
   LDIAG  =      T    sub-space diagonalisation (order eigenvalues)
   LSUBROT=      F    optimize rotation matrix (better conditioning)
   TURBO    =      0    0=normal 1=particle mesh
   IRESTART =      0    0=no restart 2=restart with 2 vectors
   NREBOOT  =      0    no. of reboots
   NMIN     =      0    reboot dimension
   EREF     =   0.00    reference energy to select bands
   IMIX   =      1    mixing-type and parameters
     AMIX     =   0.40;   BMIX     =  1.00
     AMIX_MAG =   1.60;   BMIX_MAG =  1.00
     AMIN     =   0.10
     WC   =   100.;   INIMIX=   1;  MIXPRE=   1;  MAXMIX= -45

 Intra band minimization:
   WEIMIN = 0.0000     energy-eigenvalue tresh-hold
   EBREAK =  0.43E-07  absolut break condition
   DEPER  =   0.30     relativ break condition  

   TIME   =   0.05     timestep for ELM

  volume/ion in A,a.u.               =      24.61       166.11
  Fermi-wavevector in a.u.,A,eV,Ry     =   1.002319  1.894109 13.669007  1.004644
  Thomas-Fermi vector in A             =   2.134799
 
 Write flags
   LWAVE        =      T    write WAVECAR
   LDOWNSAMPLE  =      F    k-point downsampling of WAVECAR
   LCHARG       =      T    write CHGCAR
   LVTOT        =      F    write LOCPOT, total local potential
   LVHAR        =      F    write LOCPOT, Hartree potential only
   LELF         =      F    write electronic localiz. function (ELF)
   LORBIT       =     11    0 simple, 1 ext, 2 COOP (PROOUT), +10 PAW based schemes


 Dipole corrections
   LMONO  =      F    monopole corrections only (constant potential shift)
   LDIPOL =      F    correct potential (dipole corrections)
   IDIPOL =      0    1-x, 2-y, 3-z, 4-all directions 
   EPSILON=  1.0000000 bulk dielectric constant

 Exchange correlation treatment:
   GGA     =    --    GGA type
   LEXCH   =     8    internal setting for exchange type
   VOSKOWN=      0    Vosko Wilk Nusair interpolation
   EXXOEP  =     0    0=HF, 1=EXX-LHF (local Hartree Fock) 2=EXX OEP
   LHFCALC =     T    Hartree Fock is set to
   LSYMGRAD=     F    symmetrize gradient (conserves proper symmetry)
   PRECFOCK=normal    Normal, Fast or Accurate (Low or Medium for compatibility)
   LRHFCALC=     F    long range Hartree Fock
   LRSCOR  =     F    long range correlation only (use DFT for short range part)
   LTHOMAS =     F    Thomas Fermi screening in HF
   LMODELHF=     F    short range full HF, long range fraction AEXX
   LFOCKACE=     T    use Adeptively-Compressed-Exchange operator
   ENCUT4O =  -1.0   cutoff for four orbital integrals eV
   LMAXFOCK=     4    L truncation for augmentation on plane wave grid
   LMAXFOCKAE=  -1    L truncation for all-electron charge restoration on plane wave grid
   NMAXFOCKAE=   1    number of basis functions for all-electron charge restoration
   LFOCKAEDFT=     F  apply the AE augmentation even for DFT
   NKREDX  =     1    reduce k-point grid by
   NKREDY  =     1    reduce k-point grid by
   NKREDZ  =     1    reduce k-point grid by
   SHIFTRED=     F    shift reduced grid of Gamma
   HFKIDENT=     F    idential grid for each k-point
   ODDONLY =     F    use only odd q-grid points
   EVENONLY=     F    use only even q-grid points
   HFALPHA =   -1.0000 decay constant for conv. correction
   MCALPHA =    0.0000 extent of test-charge in conv. correction in multipole expansion
   AEXX    =    1.0000 exact exchange contribution
   HFSCREEN=    0.0000 screening length (either q_TF or 0.3 A-1)
   HFSCREENC=   0.0000 screening length for correlation (either q_TF or 0.3 A-1)
   HFRCUT  =    0.0000 spherical cutoff for potential kernel
   ALDAX   =    0.0000 LDA exchange part
   AGGAX   =    0.0000 GGA exchange part
   ALDAC   =    0.0000 LDA correlation
   AGGAC   =    0.0000 GGA correlation
   ENCUTFOCK=  -1.0 apply spherical cutoff to Coloumb kernel
   NBANDSGWLOW=     1    first orbital included in HF term
   NBLOCK_FOCK=    64    blocking factor in FOCK_ACC
 Linear response parameters
   LEPSILON=     F    determine dielectric tensor
   LRPA    =     F    only Hartree local field effects (RPA)
   LNABLA  =     F    use nabla operator in PAW spheres
   LVEL    =     F    velocity operator in full k-point grid
   CSHIFT  =0.1000    complex shift for real part using Kramers Kronig
   OMEGAMAX=  -1.0    maximum frequency
   DEG_THRESHOLD= 0.2000000E-02 threshold for treating states as degnerate
   RTIME   =   -0.100 relaxation time in fs
  (WPLASMAI=    0.000 imaginary part of plasma frequency in eV, 0.658/RTIME)
   DFIELD  = 0.0000000 0.0000000 0.0000000 field for delta impulse in time
 
  Optional k-point grid parameters
   LKPOINTS_OPT  =     F    use optional k-point grid
   KPOINTS_OPT_MODE=     1    mode for optional k-point grid
 
 Orbital magnetization related:
   ORBITALMAG=     F  switch on orbital magnetization
   LCHIMAG   =     F  perturbation theory with respect to B field
   DQ        =  0.001000  dq finite difference perturbation B field
   LLRAUG    =     F  two centre corrections for induced B field



--------------------------------------------------------------------------------------------------------


 Static calculation
 charge density and potential will be updated during run
 non-spin polarized calculation
 Subrot: only subspace diagonalization (rotation)
    band-by band algorithm
 perform sub-space diagonalisation
    before iterative eigenvector-optimisation
 Kerker-like  mixing scheme
 using additional bands          422
 reciprocal scheme for non local part
 use partial core corrections
 calculate Harris-corrections to forces 
   (improved forces if not selfconsistent)
 use gradient corrections 
 use of overlap-Matrix (Vanderbilt PP)
 Gauss-broadening in eV      SIGMA  =   0.10


--------------------------------------------------------------------------------------------------------


  energy-cutoff  :      420.00
  volume of cell :     1403.01
      direct lattice vectors                 reciprocal lattice vectors
    15.439217752  0.004465832 -0.038376892     0.065085042  0.034326685  0.130688713
    -7.186282924 13.630928377 -0.001416099     0.000303919  0.073536393  0.130825479
    -7.182834812-11.890639092  6.700359279     0.000372844  0.000212151  0.150021909

  length of vectors
    15.439266094 15.409246337 15.423204220     0.149979744  0.150076646  0.150022522


 
 old parameters found on file WAVECAR:
  energy-cutoff  :      420.00
  volume of cell :     1403.01
      direct lattice vectors                 reciprocal lattice vectors
    15.439217752  0.004465832 -0.038376892     0.065085042  0.034326685  0.130688713
    -7.186282924 13.630928377 -0.001416099     0.000303919  0.073536393  0.130825479
    -7.182834812-11.890639092  6.700359279     0.000372844  0.000212151  0.150021909

  length of vectors

 
 k-points in units of 2pi/SCALE and weight: KPOINTS                                 
   0.00000000  0.00000000  0.00000000       1.000
 
 k-points in reciprocal lattice and weights: KPOINTS                                 
   0.00000000  0.00000000  0.00000000       1.000
 
 position of ions in fractional coordinates (direct lattice) 
   0.29501950  0.94116017  0.21987596
   0.03214020  0.13159647  0.56724307
   0.08093940  0.61713662  0.16608128
   0.13131166  0.56613140  0.03207237
   0.16605247  0.08089017  0.61665695
   0.17893414  0.74713641  0.34935874
   0.19222338  0.20509913  0.67775325
   0.20481709  0.67720899  0.19217243
   0.25289544  0.65072899  0.82158385
   0.32230772  0.80759730  0.79501636
   0.34931946  0.17889111  0.74655676
   0.38292206  0.83394732  0.91929290
   0.43330622  0.96770438  0.86831417
   0.56669375  0.03229564  0.13168583
   0.61707794  0.16605269  0.08070712
   0.65068057  0.82110888  0.25344327
   0.67769228  0.19240270  0.20498365
   0.74710459  0.34927101  0.17841618
   0.79518291  0.32279104  0.80782758
   0.80777660  0.79490087  0.32224675
   0.82106584  0.25286359  0.65064123
   0.83394752  0.91910981  0.38334302
   0.86868834  0.43386860  0.96792762
   0.91906058  0.38286338  0.83391870
   0.96785982  0.86840353  0.43275693
   0.18247943  0.65556576  0.63394506
   0.34410321  0.36627052  0.81766296
   0.36579143  0.81673594  0.34408965
   0.63420857  0.18326405  0.65591038
   0.65589679  0.63372948  0.18233703
   0.81752057  0.34443421  0.36605494
   0.30963441  0.00627535  0.31689987
   0.27784513  0.87468441  0.11978224
   0.06742193  0.69601104  0.32822922
   0.07318517  0.26430120  0.63986735
   0.09766887  0.47875851  0.63349814
   0.26414833  0.63787280  0.07365918
   0.30271532  0.67149634  0.93284699
   0.32849056  0.06748410  0.69647902
   0.36135303  0.92637320  0.73554137
   0.36730219  0.90336947  0.52141375
   0.47894577  0.63302380  0.09816102
   0.52105423  0.36697617  0.90183896
   0.63269781  0.09663054  0.47858622
   0.63864697  0.07362678  0.26445863
   0.67150947  0.93251592  0.30352101
   0.69728471  0.32850363  0.06715302
   0.73585167  0.36212720  0.92634082
   0.90233115  0.52124152  0.36650188
   0.92681485  0.73569880  0.36013268
   0.93257809  0.30398899  0.67177081
   0.10717448  0.78330733  0.51533456
   0.51533716  0.10679532  0.78280146
   0.78337232  0.51577130  0.10635646
   0.21662770  0.48422870  0.89364353
   0.48466284  0.89320467  0.21719851
   0.89282551  0.21669267  0.48466541
 
 position of ions in cartesian coordinates  (Angst):
  -3.78790563 10.21573870  1.46059321
  -4.52388317 -4.95095705  3.79931260
  -4.37821175  6.43769394  1.10882413
  -2.27140164  7.33612202  0.20905537
  -2.44692449 -6.22909552  4.12533600
  -5.11591652  6.03086322  2.33290413
  -3.37431139 -5.26236927  4.53352292
  -3.08474249  6.94684887  1.27880509
  -6.67311603 -0.89798737  5.49428014
  -6.53791475  1.55648768  5.31338245
  -1.25473680 -6.43702504  4.98853936
  -6.68409337  0.43820617  6.14371640
  -6.50124571  2.86783369  5.80001762
   7.57134513 -1.12307831  0.86054867
   7.75419311  1.30654888  0.51685004
   2.32483717  8.18177960  1.67202713
   7.60801466  0.18826726  1.34718394
   7.74321629  2.64274213  1.16628635
   4.15484218 -5.20209353  5.38176130
   4.44441119  7.00712439  2.12704337
   6.18601652 -4.28610774  4.32766196
   3.51702459  7.97385078  2.53523010
   3.34150173 -5.59136678  6.45151085
   5.44831152 -4.69293864  5.55174206
   5.59398355  6.69571217  2.86125369
  -6.44726406  1.39877301  4.23972831
  -3.19257720 -4.72839114  5.46491130
  -2.69330113  7.04305679  2.29032977
   3.76340103 -5.29830223  4.37023672
   4.26267732  6.47314643  1.19565489
   7.51736429  0.34598169  2.42083798
   2.45917722 -3.68122035  2.11145126
  -2.85639420 10.49971397  0.79068259
  -6.31840665  5.58472248  2.19568066
  -5.36548293 -4.00543421  4.28415826
  -6.48287571 -1.00633871  4.24023897
  -1.03477259  7.82012327  0.48250251
  -6.85236078 -1.93767650  6.23784180
  -0.41601639 -7.36024271  4.65395766
  -6.36144396  3.88288350  4.91321202
  -4.56623892  6.11546212  3.47828427
   2.14038562  7.46364369  0.63843721
  -1.07028522 -5.71888870  6.02212893
   5.63633910 -4.37070655  3.18228181
   7.43154408 -2.13812859  1.74735427
   1.48611650  9.10499778  2.00660882
   7.92246143  3.68243113  0.42272453
   2.10487260 -6.07536816  6.17806378
   7.55297553  2.75109390  2.42032751
   6.43558307  5.75018897  2.37640822
   7.38850658 -3.83996731  4.46488582
  -7.67594086  4.55002746  3.44770442
   1.56620766 -7.84998885  5.22512277
   7.62423645  5.76929366  0.68183275
  -6.55413615 -4.02453846  5.97873350
  -0.49610738  9.59474423  1.43544332
   8.74604099 -2.80527198  3.21286166
 


--------------------------------------------------------------------------------------------------------


 use serial FFT for orbitals x direction half grid
 k-point   1 :   0.0000 0.0000 0.0000  plane waves:   13714

 maximum and minimum number of plane-waves per node :     13714    13714

 maximum number of plane-waves:     13714
 maximum index in each direction: 
   IXMAX=   25   IYMAX=   22   IZMAX=   22
   IXMIN=    0   IYMIN=  -25   IZMIN=  -25


 serial   3D FFT for wavefunctions
 parallel 3D FFT for charge:
    minimum data exchange during FFTs selected (reduces bandwidth)


 FFT grid for exact exchange (Hartree Fock) 
  NGX = 80; NGY = 80; NGZ = 80

 use serial FFT for orbitals x direction half grid
 
 Radii for the augmentation spheres in the non-local exchange
 for species   1 augmentation radius   0.874 (default was   0.699)
       energy cutoff for augmentation   1680.0
 for species   2 augmentation radius   0.735 (default was   0.588)
       energy cutoff for augmentation   1680.0
 for species   3 augmentation radius   0.902 (default was   0.722)
       energy cutoff for augmentation   1680.0
 for species   4 augmentation radius   1.117 (default was   0.893)
       energy cutoff for augmentation   1680.0
 Maximum index for augmentation-charges in exchange         2121
  SETUP_FOCK is finished

 total amount of memory used by VASP MPI-rank0   238266. kBytes
=======================================================================

   base      :      30000. kBytes
   nonl-proj :      30506. kBytes
   fftplans  :      36548. kBytes
   grid      :     118243. kBytes
   one-center:       2299. kBytes
   HF        :       1344. kBytes
   nonlr-proj:       7401. kBytes
   wavefun   :      11925. kBytes
 
     INWAV:  cpu time      0.3387: real time      0.4369
 charge density for first step will be calculated from the start-wavefunctions


--------------------------------------------------------------------------------------------------------


 Maximum index for augmentation-charges         2073 (set IRDMAX)


--------------------------------------------------------------------------------------------------------


 initial charge from wavefunction
    FEWALD:  cpu time      0.0035: real time      0.0035


--------------------------------------- Iteration      1(   1)  ---------------------------------------


    POTLOK:  cpu time      0.5519: real time      0.5661
    SETDIJ:  cpu time      0.6272: real time      0.6290
    EDDIAG:  cpu time    254.4678: real time    255.1761
       DOS:  cpu time      0.0006: real time      0.0006
    --------------------------------------------
      LOOP:  cpu time    255.6475: real time    256.3719

 eigenvalue-minimisations  :     0
 total energy-change (2. order) :-0.9077352E+03  ( 0.0000000E+00)
 number of electron     321.9999974 magnetization 
 augmentation part       50.9123299 magnetization 

 Free energy of the ion-electron system (eV)
  ---------------------------------------------------
  alpha Z        PSCENC =       379.72439301
  Ewald energy   TEWEN  =     18509.04670523
  -Hartree energ DENC   =    -47242.98312442
  -exchange      EXHF   =      4567.28354152
  -V(xc)+E(xc)   XCENC  =         0.00000000
  PAW double counting   =     32033.94060285   -32278.68469462
  entropy T*S    EENTRO =        -0.00000000
  eigenvalues    EBANDS =     -8561.68974888
  atomic energy  EATOM  =     31685.62717035
  Solvation  Ediel_sol  =         0.00000000
  ---------------------------------------------------
  free energy    TOTEN  =      -907.73515495 eV

  energy without entropy =     -907.73515495  energy(sigma->0) =     -907.73515495
  exchange ACFDT corr.  =     -1251.83779142  see jH, gK, PRB 81, 115126


--------------------------------------------------------------------------------------------------------




 average (electrostatic) potential at core
  the test charge radii are     0.6991  0.5883  0.7215  0.8933
  (the norm of the test charge is              1.0000)
       1 -45.3610       2 -40.4847       3 -39.3256       4 -40.5740       5 -39.2264
       6 -43.0846       7 -38.6955       8 -38.7679       9 -42.9486      10 -38.6451
      11 -43.0341      12 -39.1609      13 -40.4463      14 -40.4226      15 -39.1803
      16 -43.0161      17 -38.6432      18 -43.0126      19 -38.8157      20 -38.6955
      21 -43.1184      22 -39.2227      23 -40.5744      24 -39.3099      25 -40.4888
      26 -18.6401      27 -18.6851      28 -18.8022      29 -18.7989      30 -18.6878
      31 -18.6382      32 -53.0216      33 -53.0834      34 -50.5521      35 -49.4468
      36 -50.1399      37 -49.4396      38 -50.4027      39 -50.5161      40 -49.4389
      41 -50.2646      42 -50.2052      43 -50.2201      44 -50.3201      45 -49.3499
      46 -50.4845      47 -50.5069      48 -49.5043      49 -50.1960      50 -49.4622
      51 -50.5600      52 -57.0575      53 -57.0838      54 -57.0714      55 -57.0400
      56 -56.9066      57 -57.0191
 
 
 
 E-fermi :  -6.4162     XC(G=0):   0.0000     alpha+bet : -3.7365

 Fermi energy:        -6.4162472364

 k-point     1 :       0.0000    0.0000    0.0000
  band No.  band energies     occupation 
      1     -96.0556      2.00000
      2     -93.2380      2.00000
      3     -93.1873      2.00000
      4     -92.9004      2.00000
      5     -92.4457      2.00000
      6     -87.3122      2.00000
      7     -86.8795      2.00000
      8     -84.9013      2.00000
      9     -84.2610      2.00000
     10     -81.7176      2.00000
     11     -74.3248      2.00000
     12     -73.5780      2.00000
     13     -73.3757      2.00000
     14     -72.5210      2.00000
     15     -71.7891      2.00000
     16     -71.3788      2.00000
     17     -71.3507      2.00000
     18     -71.0811      2.00000
     19     -70.9753      2.00000
     20     -70.7477      2.00000
     21     -31.3759      2.00000
     22     -31.3670      2.00000
     23     -31.3533      2.00000
     24     -31.3158      2.00000
     25     -31.2590      2.00000
     26     -31.1858      2.00000
     27     -31.1780      2.00000
     28     -31.1071      2.00000
     29     -31.0974      2.00000
     30     -31.0688      2.00000
     31     -27.7716      2.00000
     32     -27.7342      2.00000
     33     -27.7225      2.00000
     34     -27.7221      2.00000
     35     -19.9524      2.00000
     36     -19.9496      2.00000
     37     -19.8455      2.00000
     38     -19.8438      2.00000
     39     -19.7969      2.00000
     40     -19.7815      2.00000
     41     -19.6740      2.00000
     42     -19.6710      2.00000
     43     -19.6585      2.00000
     44     -19.6486      2.00000
     45     -19.6454      2.00000
     46     -19.6414      2.00000
     47     -19.5662      2.00000
     48     -19.5645      2.00000
     49     -19.5633      2.00000
     50     -19.5570      2.00000
     51     -19.5514      2.00000
     52     -19.5473      2.00000
     53     -19.5470      2.00000
     54     -19.5173      2.00000
     55     -19.5055      2.00000
     56     -19.5045      2.00000
     57     -19.4995      2.00000
     58     -19.4737      2.00000
     59     -17.4586      2.00000
     60     -17.4562      2.00000
     61     -17.4525      2.00000
     62     -17.4164      2.00000
     63     -17.3369      2.00000
     64     -17.0654      2.00000
     65     -17.0377      2.00000
     66     -17.0281      2.00000
     67     -16.9871      2.00000
     68     -16.9516      2.00000
     69     -16.8460      2.00000
     70     -16.8421      2.00000
     71     -16.8060      2.00000
     72     -16.6663      2.00000
     73     -15.8788      2.00000
     74     -15.8728      2.00000
     75     -15.6967      2.00000
     76     -15.6279      2.00000
     77     -15.5774      2.00000
     78     -15.5322      2.00000
     79     -15.5290      2.00000
     80     -15.4109      2.00000
     81     -15.4086      2.00000
     82     -15.3626      2.00000
     83     -15.3605      2.00000
     84     -14.9375      2.00000
     85     -14.6742      2.00000
     86     -14.5511      2.00000
     87     -14.4841      2.00000
     88     -13.4109      2.00000
     89     -13.3043      2.00000
     90     -13.2780      2.00000
     91     -13.2772      2.00000
     92     -13.2553      2.00000
     93     -12.2719      2.00000
     94     -12.2415      2.00000
     95     -12.2406      2.00000
     96     -12.2211      2.00000
     97     -12.2131      2.00000
     98     -12.1934      2.00000
     99     -12.1931      2.00000
    100     -12.1692      2.00000
    101     -12.1443      2.00000
    102     -12.1330      2.00000
    103     -12.0771      2.00000
    104     -12.0682      2.00000
    105     -12.0471      2.00000
    106     -12.0091      2.00000
    107     -11.9855      2.00000
    108     -11.9852      2.00000
    109     -11.9846      2.00000
    110     -11.9588      2.00000
    111     -11.9516      2.00000
    112     -11.9397      2.00000
    113     -11.6869      2.00000
    114     -11.6411      2.00000
    115     -11.6176      2.00000
    116     -11.6051      2.00000
    117     -11.5649      2.00000
    118     -10.9680      2.00000
    119     -10.9614      2.00000
    120     -10.8909      2.00000
    121     -10.6980      2.00000
    122      -8.8425      2.00000
    123      -8.6527      2.00000
    124      -8.5867      2.00000
    125      -8.5782      2.00000
    126      -8.5707      2.00000
    127      -8.5412      2.00000
    128      -7.8369      2.00000
    129      -7.6850      2.00000
    130      -7.6239      2.00000
    131    -111.2593      2.00000
    132     -70.9524      2.00000
    133     -70.9259      2.00000
    134     -70.9163      2.00000
    135     -38.8283      2.00000
    136     -37.4039      2.00000
    137     -34.3270      2.00000
    138     -34.2579      2.00000
    139     -32.5263      2.00000
    140     -32.4097      2.00000
    141     -19.1398      2.00000
    142     -17.4331      2.00000
    143     -17.2880      2.00000
    144     -16.9461      2.00000
    145     -16.5818      2.00000
    146     -16.1819      2.00000
    147     -15.5352      2.00000
    148     -15.4187      2.00000
    149     -12.9383      2.00000
    150     -12.5392      2.00000
    151     -12.3564      2.00000
    152     -12.2730      2.00000
    153     -12.0398      2.00000
    154     -11.9103      2.00000
    155     -11.7170      2.00000
    156     -11.2682      2.00000
    157     -10.9884      2.00000
    158     -10.8358      2.00000
    159     -10.7525      2.00000
    160      -9.9772      2.00000
    161      -9.7716      2.00000
    162       7.1548      0.00000
    163       7.3821      0.00000
    164       8.1440      0.00000
    165       8.4942      0.00000
    166       9.1391      0.00000
    167      10.9481      0.00000
    168      11.0322      0.00000
    169      11.5872      0.00000
    170      11.8258      0.00000
    171      12.4035      0.00000
    172      12.6557      0.00000
    173      13.2147      0.00000
    174      13.8855      0.00000
    175      14.3172      0.00000
    176      14.9111      0.00000
    177      15.4983      0.00000
    178      15.6278      0.00000
    179      15.9333      0.00000
    180      16.2317      0.00000
    181      16.5483      0.00000
    182      16.6772      0.00000
    183      17.0400      0.00000
    184      17.3172      0.00000
    185      17.8233      0.00000
    186      17.9352      0.00000
    187      18.3655      0.00000
    188      18.7811      0.00000
    189      18.9545      0.00000
    190      19.1912      0.00000
    191      19.5756      0.00000
    192      19.7522      0.00000
    193      20.2439      0.00000
    194      20.4583      0.00000
    195      20.7621      0.00000
    196      21.0890      0.00000
    197      21.1418      0.00000
    198      21.5869      0.00000
    199      22.0176      0.00000
    200      22.1447      0.00000
    201      22.7396      0.00000
    202      23.4095      0.00000
    203      23.4757      0.00000
    204      23.9160      0.00000
    205      24.6764      0.00000
    206      24.9992      0.00000
    207      26.2281      0.00000
    208      26.6014      0.00000
    209      27.0489      0.00000
    210      27.7951      0.00000
    211      28.1151      0.00000
    212      28.6524      0.00000
    213      29.3303      0.00000
    214      30.5801      0.00000
    215      31.4681      0.00000
    216      31.5455      0.00000
    217      32.4766      0.00000
    218      32.6530      0.00000
    219      33.1784      0.00000
    220      33.3994      0.00000
    221      34.8128      0.00000
    222      35.1945      0.00000
    223      36.0620      0.00000
    224      36.3649      0.00000
    225      36.5243      0.00000
    226      37.3391      0.00000
    227      37.4166      0.00000
    228      38.6275      0.00000
    229      39.1662      0.00000
    230      39.5345      0.00000
    231      39.8388      0.00000
    232      40.4560      0.00000
    233      41.6946      0.00000
    234      42.0131      0.00000
    235      42.2729      0.00000
    236      43.0355      0.00000
    237      43.6700      0.00000
    238      44.1871      0.00000
    239      44.8156      0.00000
    240      45.2271      0.00000
    241      45.9764      0.00000
    242      46.4641      0.00000
    243      47.2418      0.00000
    244      47.6265      0.00000
    245      47.7416      0.00000
    246      48.5427      0.00000
    247      49.0015      0.00000
    248      49.4955      0.00000
    249      50.1967      0.00000
    250      50.7986      0.00000
    251      50.9685      0.00000
    252      51.7856      0.00000
    253      52.1776      0.00000
    254      52.7842      0.00000
    255      52.9810      0.00000
    256      53.1197      0.00000
    257      53.7035      0.00000
    258      54.2252      0.00000
    259      54.4273      0.00000
    260      55.0698      0.00000
    261      55.3996      0.00000
    262      55.6587      0.00000
    263      56.0958      0.00000
    264      56.4947      0.00000
    265      56.6042      0.00000
    266      56.9664      0.00000
    267      57.5648      0.00000
    268      57.6343      0.00000
    269      57.9820      0.00000
    270      58.8130      0.00000
    271      58.9436      0.00000
    272      59.3189      0.00000
    273      59.4847      0.00000
    274      59.8896      0.00000
    275      60.2454      0.00000
    276      60.6599      0.00000
    277      61.0331      0.00000
    278      61.0907      0.00000
    279      61.2522      0.00000
    280      61.4400      0.00000
    281      61.9173      0.00000
    282      62.0619      0.00000
    283      62.2306      0.00000
    284      62.5068      0.00000
    285      62.8034      0.00000
    286      63.0617      0.00000
    287      63.4388      0.00000
    288      63.9141      0.00000
    289      64.2315      0.00000
    290      64.7078      0.00000
    291      65.0482      0.00000
    292      65.5551      0.00000
    293      65.6754      0.00000
    294      65.8715      0.00000
    295      66.0773      0.00000
    296      66.5579      0.00000
    297      66.9390      0.00000
    298      67.2979      0.00000
    299      67.5494      0.00000
    300      68.2780      0.00000
    301      68.4688      0.00000
    302      68.7106      0.00000
    303      69.0874      0.00000
    304      69.5285      0.00000
    305      70.1582      0.00000
    306      70.9150      0.00000
    307      71.2785      0.00000
    308      72.0601      0.00000
    309      72.1530      0.00000
    310      72.8405      0.00000
    311      73.3358      0.00000
    312      73.9441      0.00000
    313      74.4269      0.00000
    314      75.0658      0.00000
    315      75.6083      0.00000
    316      75.9259      0.00000
    317      75.9653      0.00000
    318      76.6558      0.00000
    319      77.0615      0.00000
    320      77.8228      0.00000
    321      78.0359      0.00000
    322      78.7683      0.00000
    323      79.2968      0.00000
    324      80.0747      0.00000
    325      80.3683      0.00000
    326      80.7235      0.00000
    327      81.6237      0.00000
    328      81.9053      0.00000
    329      82.5156      0.00000
    330      82.9359      0.00000
    331      83.2189      0.00000
    332      84.1540      0.00000
    333      84.5061      0.00000
    334      84.9635      0.00000
    335      85.7817      0.00000
    336      86.1028      0.00000
    337      86.7354      0.00000
    338      87.3298      0.00000
    339      87.8259      0.00000
    340      88.1944      0.00000
    341      88.7860      0.00000
    342      89.8355      0.00000
    343      90.1420      0.00000
    344      90.8947      0.00000
    345      91.3934      0.00000
    346      91.8996      0.00000
    347      92.7470      0.00000
    348      93.9585      0.00000
    349      94.8835      0.00000
    350      96.0223      0.00000
    351      97.4353      0.00000
    352     100.0494      0.00000
    353     101.7461      0.00000
    354     102.3681      0.00000
    355     103.9379      0.00000
    356     104.2932      0.00000
    357     104.9109      0.00000
    358     107.0178      0.00000
    359     107.5403      0.00000
    360     109.1073      0.00000
    361     111.1277      0.00000
    362     111.9891      0.00000
    363     112.1950      0.00000
    364     113.1257      0.00000
    365     113.9133      0.00000
    366     114.4044      0.00000
    367     114.8896      0.00000
    368     116.3548      0.00000
    369     116.9413      0.00000
    370     117.5307      0.00000
    371     117.8287      0.00000
    372     118.6657      0.00000
    373     119.5996      0.00000
    374     120.6781      0.00000
    375     120.9524      0.00000
    376     122.1040      0.00000
    377     122.4992      0.00000
    378     123.1632      0.00000
    379     123.5673      0.00000
    380     123.9062      0.00000
    381     125.4921      0.00000
    382     125.7114      0.00000
    383     126.1453      0.00000
    384     126.8962      0.00000
    385     127.5277      0.00000
    386     128.6859      0.00000
    387     128.8073      0.00000
    388     129.3836      0.00000
    389     130.0088      0.00000
    390     130.5559      0.00000
    391     131.2103      0.00000
    392     131.9641      0.00000
    393     132.5408      0.00000
    394     132.8338      0.00000
    395     133.3882      0.00000
    396     133.7917      0.00000
    397     133.9363      0.00000
    398     134.4495      0.00000
    399     134.8184      0.00000
    400     135.2181      0.00000
    401     135.5773      0.00000
    402     136.4049      0.00000
    403     137.1312      0.00000
    404     137.3703      0.00000
    405     138.2167      0.00000
    406     139.0348      0.00000
    407     139.3181      0.00000
    408     139.5498      0.00000
    409     140.1982      0.00000
    410     140.5491      0.00000
    411     141.4736      0.00000
    412     141.6892      0.00000
    413     141.9723      0.00000
    414     142.2099      0.00000
    415     143.0706      0.00000
    416     143.8306      0.00000
    417     144.1836      0.00000
    418     144.2621      0.00000
    419     144.6681      0.00000
    420     145.2788      0.00000
    421     146.2989      0.00000
    422     146.4390      0.00000
    423     146.6628      0.00000
    424     147.5079      0.00000
    425     148.2579      0.00000
    426     148.6408      0.00000
    427     149.0552      0.00000
    428     149.6054      0.00000
    429     149.9752      0.00000
    430     150.8690      0.00000
    431     151.3477      0.00000
    432     151.4447      0.00000
    433     151.8953      0.00000
    434     152.7912      0.00000
    435     152.9508      0.00000
    436     153.5141      0.00000
    437     154.0742      0.00000
    438     154.4467      0.00000
    439     154.6388      0.00000
    440     155.3794      0.00000
    441     155.5047      0.00000
    442     156.4120      0.00000
    443     157.0094      0.00000
    444     157.5170      0.00000
    445     157.7455      0.00000
    446     158.4501      0.00000
    447     158.5206      0.00000
    448     158.9879      0.00000
    449     159.0986      0.00000
    450     159.7033      0.00000
    451     159.9641      0.00000
    452     160.2222      0.00000
    453     160.6104      0.00000
    454     161.1364      0.00000
    455     161.5643      0.00000
    456     161.8649      0.00000
    457     162.0819      0.00000
    458     162.8314      0.00000
    459     163.0371      0.00000
    460     163.1981      0.00000
    461     163.8495      0.00000
    462     164.1790      0.00000
    463     164.2835      0.00000
    464     164.5782      0.00000
    465     165.0498      0.00000
    466     165.6435      0.00000
    467     165.8559      0.00000
    468     166.2706      0.00000
    469     166.8288      0.00000
    470     167.1295      0.00000
    471     167.1568      0.00000
    472     167.6652      0.00000
    473     167.7796      0.00000
    474     168.1750      0.00000
    475     168.7140      0.00000
    476     168.9442      0.00000
    477     169.0763      0.00000
    478     169.2064      0.00000
    479     169.8005      0.00000
    480     170.4641      0.00000
    481     170.8173      0.00000
    482     171.2214      0.00000
    483     171.4341      0.00000
    484     171.8330      0.00000
    485     172.3799      0.00000
    486     172.6522      0.00000
    487     172.9682      0.00000
    488     173.3543      0.00000
    489     173.4149      0.00000
    490     173.5937      0.00000
    491     174.1147      0.00000
    492     174.5600      0.00000
    493     174.9552      0.00000
    494     175.3675      0.00000
    495     175.9891      0.00000
    496     176.2084      0.00000
    497     176.6533      0.00000
    498     177.2050      0.00000
    499     177.3383      0.00000
    500     177.5375      0.00000
    501     178.2810      0.00000
    502     178.5924      0.00000
    503     179.0114      0.00000
    504     179.3089      0.00000
    505     179.7142      0.00000
    506     179.8847      0.00000
    507     180.4489      0.00000
    508     181.1703      0.00000
    509     181.4010      0.00000
    510     181.6205      0.00000
    511     182.2388      0.00000
    512     182.5941      0.00000
    513     182.7846      0.00000
    514     183.4591      0.00000
    515     183.9488      0.00000
    516     184.0315      0.00000
    517     184.2624      0.00000
    518     184.8764      0.00000
    519     185.4956      0.00000
    520     186.1121      0.00000
    521     186.9023      0.00000
    522     187.0461      0.00000
    523     187.8340      0.00000
    524     188.2335      0.00000
    525     188.5951      0.00000
    526     189.4628      0.00000
    527     190.1125      0.00000
    528     190.5635      0.00000
    529     191.4415      0.00000
    530     192.1449      0.00000
    531     192.5423      0.00000
    532     192.8753      0.00000
    533     193.2013      0.00000
    534     194.0493      0.00000
    535     194.4673      0.00000
    536     195.3734      0.00000
    537     195.9146      0.00000
    538     196.0611      0.00000
    539     196.5883      0.00000
    540     197.2690      0.00000
    541     197.4959      0.00000
    542     198.1001      0.00000
    543     198.1370      0.00000
    544     198.4999      0.00000
    545     200.0761      0.00000
    546     201.3105      0.00000
    547     201.8339      0.00000
    548     202.0490      0.00000
    549     202.4531      0.00000
    550     203.0248      0.00000
    551     203.6435      0.00000
    552     203.9243      0.00000
    553     205.0448      0.00000
    554     205.4760      0.00000
    555     205.7062      0.00000
    556     206.9879      0.00000
    557     207.1520      0.00000
    558     208.5149      0.00000
    559     208.8208      0.00000
    560     209.7565      0.00000
    561     210.3015      0.00000
    562     211.1336      0.00000
    563     211.5408      0.00000
    564     212.2144      0.00000
    565     213.8816      0.00000
    566     214.9739      0.00000
    567     215.1147      0.00000
    568     216.2754      0.00000
    569     216.7732      0.00000
    570     217.1762      0.00000
    571     217.8430      0.00000
    572     218.9969      0.00000
    573     219.6445      0.00000
    574     221.6701      0.00000
    575     223.0153      0.00000
    576     226.0870      0.00000
    577     226.6496      0.00000
    578     228.7516      0.00000
    579     230.6207      0.00000
    580     239.0236      0.00000
    581     242.0472      0.00000
    582     242.4810      0.00000
    583     243.4396      0.00000


--------------------------------------------------------------------------------------------------------


 soft charge-density along one line, spin component           1
         0         1         2         3         4         5         6         7         8         9
 total charge-density along one line
 
 pseudopotential strength for first ion, spin component:           1
  9.401 -14.475   0.000  -0.001   0.001   0.002  -0.004   0.005
-14.475  25.174  -0.000   0.001  -0.001  -0.003   0.007  -0.009
  0.000  -0.000  -3.729  -0.003   0.005  -0.072   0.011  -0.019
 -0.001   0.001  -0.003  -3.722  -0.011   0.011  -0.096   0.043
  0.001  -0.001   0.005  -0.011  -3.714  -0.019   0.043  -0.129
  0.002  -0.003  -0.072   0.011  -0.019  50.291  -0.036   0.056
 -0.004   0.007   0.011  -0.096   0.043  -0.036  50.366  -0.133
  0.005  -0.009  -0.019   0.043  -0.129   0.056  -0.133  50.465
 total augmentation occupancy for first ion, spin component:           1
  1.762   0.062  -0.001   0.007  -0.015   0.000   0.000  -0.002
  0.062   0.003   0.000  -0.000  -0.001   0.000  -0.000  -0.000
 -0.001   0.000   0.880  -0.131   0.195   0.048  -0.012   0.018
  0.007  -0.000  -0.131   1.147  -0.467  -0.012   0.072  -0.042
 -0.015  -0.001   0.195  -0.467   1.488   0.017  -0.042   0.102
  0.000   0.000   0.048  -0.012   0.017   0.003  -0.001   0.002
  0.000  -0.000  -0.012   0.072  -0.042  -0.001   0.005  -0.004
 -0.002  -0.000   0.018  -0.042   0.102   0.002  -0.004   0.009


------------------------ aborting loop because EDIFF is reached ----------------------------------------





 total charge

# of ion       s       p       d       f       tot
--------------------------------------------------
    1        0.905   1.610   0.000   0.000   2.515
    2        0.824   1.624   0.000   0.000   2.448
    3        0.834   1.724   0.000   0.000   2.558
    4        0.824   1.623   0.000   0.000   2.447
    5        0.833   1.725   0.000   0.000   2.558
    6        0.839   1.546   0.000   0.000   2.385
    7        0.846   1.715   0.000   0.000   2.561
    8        0.846   1.719   0.000   0.000   2.565
    9        0.839   1.545   0.000   0.000   2.384
   10        0.846   1.715   0.000   0.000   2.561
   11        0.839   1.545   0.000   0.000   2.384
   12        0.833   1.725   0.000   0.000   2.558
   13        0.824   1.624   0.000   0.000   2.448
   14        0.824   1.623   0.000   0.000   2.447
   15        0.833   1.725   0.000   0.000   2.559
   16        0.839   1.546   0.000   0.000   2.385
   17        0.846   1.715   0.000   0.000   2.561
   18        0.839   1.545   0.000   0.000   2.385
   19        0.847   1.714   0.000   0.000   2.561
   20        0.846   1.715   0.000   0.000   2.561
   21        0.839   1.546   0.000   0.000   2.385
   22        0.833   1.725   0.000   0.000   2.558
   23        0.824   1.624   0.000   0.000   2.448
   24        0.833   1.726   0.000   0.000   2.559
   25        0.824   1.624   0.000   0.000   2.448
   26        0.664   0.048   0.000   0.000   0.712
   27        0.664   0.048   0.000   0.000   0.712
   28        0.664   0.048   0.000   0.000   0.712
   29        0.664   0.048   0.000   0.000   0.712
   30        0.664   0.048   0.000   0.000   0.712
   31        0.664   0.048   0.000   0.000   0.712
   32        1.591   3.559   0.000   0.000   5.150
   33        1.582   3.584   0.000   0.000   5.166
   34        1.542   3.669   0.000   0.000   5.211
   35        1.525   3.647   0.000   0.000   5.172
   36        1.554   3.621   0.000   0.000   5.175
   37        1.525   3.646   0.000   0.000   5.172
   38        1.541   3.670   0.000   0.000   5.211
   39        1.541   3.670   0.000   0.000   5.211
   40        1.525   3.647   0.000   0.000   5.172
   41        1.554   3.620   0.000   0.000   5.174
   42        1.554   3.620   0.000   0.000   5.174
   43        1.554   3.620   0.000   0.000   5.174
   44        1.554   3.626   0.000   0.000   5.180
   45        1.525   3.647   0.000   0.000   5.172
   46        1.542   3.669   0.000   0.000   5.211
   47        1.541   3.670   0.000   0.000   5.212
   48        1.525   3.646   0.000   0.000   5.171
   49        1.554   3.620   0.000   0.000   5.174
   50        1.525   3.648   0.000   0.000   5.173
   51        1.542   3.668   0.000   0.000   5.210
   52        2.071   6.276   5.722   0.014  14.082
   53        2.071   6.275   5.722   0.014  14.082
   54        2.071   6.276   5.722   0.014  14.083
   55        2.071   6.276   5.722   0.014  14.083
   56        2.070   6.276   5.721   0.014  14.081
   57        2.071   6.276   5.722   0.014  14.082
--------------------------------------------------
tot         68.269 151.973  34.332   0.085 254.660
 
    CHARGE:  cpu time      0.3216: real time      0.3223
    FORLOC:  cpu time      0.2313: real time      0.2321
    FORHF :  cpu time     37.0547: real time     37.1543
    FORNL :  cpu time      2.9961: real time      3.0042
    FORCOR:  cpu time      1.0816: real time      1.0846
    FORHAR:  cpu time      0.3342: real time      0.3350
    MIXING:  cpu time      0.0069: real time      0.0069
    OFIELD:  cpu time      0.0000: real time      0.0000

 VOLUME and BASIS-vectors are now :
 -----------------------------------------------------------------------------
  energy-cutoff  :      420.00
  volume of cell :     1403.01
      direct lattice vectors                 reciprocal lattice vectors
    15.439217752  0.004465832 -0.038376892     0.065085042  0.034326685  0.130688713
    -7.186282924 13.630928377 -0.001416099     0.000303919  0.073536393  0.130825479
    -7.182834812-11.890639092  6.700359279     0.000372844  0.000212151  0.150021909

  length of vectors
    15.439266094 15.409246337 15.423204220     0.149979744  0.150076646  0.150022522


 FORCES acting on ions
    electron-ion (+dipol)            ewald-force                    non-local-force                 convergence-correction
 -----------------------------------------------------------------------------------------------
   0.274E+03 -.251E+03 0.274E+02   -.274E+03 0.251E+03 -.270E+02   -.208E+00 0.157E+00 -.121E+00   -.822E-04 -.112E-04 0.481E-04
   -.193E+03 0.756E+02 0.239E+02   0.196E+03 -.789E+02 -.251E+02   -.366E+01 0.355E+01 0.127E+01   0.974E-06 0.259E-06 -.278E-05
   -.119E+03 0.121E+02 -.426E+01   0.120E+03 -.116E+02 0.199E+01   -.969E+00 -.232E+00 0.916E+00   -.208E-05 -.165E-06 0.207E-05
   0.118E+03 0.193E+03 -.365E+02   -.122E+03 -.194E+03 0.362E+02   0.406E+01 0.163E+01 0.222E+00   -.140E-04 -.255E-04 0.820E-05
   0.103E+03 -.851E+02 -.274E+02   -.105E+03 0.857E+02 0.257E+02   0.110E+01 -.556E+00 0.713E+00   0.115E-05 0.109E-05 -.759E-06
   -.249E+03 -.339E+02 0.988E+02   0.252E+03 0.354E+02 -.101E+03   -.390E+01 -.217E+01 0.511E+01   -.161E-05 0.218E-05 0.186E-06
   -.694E+02 -.762E+02 -.699E+02   0.697E+02 0.780E+02 0.716E+02   -.354E+00 -.173E+01 -.188E+01   0.165E-05 0.398E-06 -.103E-05
   -.549E+02 0.130E+03 -.113E+03   0.565E+02 -.130E+03 0.115E+03   -.140E+01 0.129E+00 -.215E+01   0.327E-06 -.607E-05 0.676E-07
   -.878E+02 -.293E+03 0.494E+02   0.880E+02 0.297E+03 -.487E+02   0.186E+00 -.579E+01 -.273E+01   0.832E-05 -.148E-04 0.860E-05
   -.837E+02 0.368E+02 0.106E+03   0.844E+02 -.367E+02 -.108E+03   -.669E+00 0.819E-01 0.247E+01   0.280E-05 0.672E-05 0.199E-06
   0.241E+03 -.164E+03 0.502E+02   -.245E+03 0.166E+03 -.518E+02   0.576E+01 -.143E+01 0.341E+01   0.934E-06 0.150E-05 -.863E-06
   -.470E+02 -.130E+03 0.759E+02   0.472E+02 0.133E+03 -.747E+02   -.175E+00 -.131E+01 -.371E+00   0.686E-05 0.149E-04 0.944E-05
   -.539E+02 0.184E+03 -.524E+02   0.534E+02 -.188E+03 0.551E+02   0.539E+00 0.441E+01 -.285E+01   0.137E-05 0.224E-05 0.106E-05
   0.755E+01 -.212E+03 0.627E+02   -.713E+01 0.216E+03 -.653E+02   -.433E+00 -.376E+01 0.237E+01   0.110E-04 -.764E-05 0.283E-04
   0.491E+01 0.103E+03 -.613E+02   -.516E+01 -.105E+03 0.601E+02   0.234E+00 0.141E+01 0.346E+00   0.126E-05 -.890E-06 0.166E-05
   -.241E+03 0.181E+03 -.564E+02   0.245E+03 -.183E+03 0.580E+02   -.573E+01 0.142E+01 -.341E+01   -.377E-05 0.294E-05 0.140E-05
   0.453E+02 -.675E+02 -.934E+02   -.461E+02 0.673E+02 0.958E+02   0.677E+00 0.224E-02 -.248E+01   0.411E-05 -.575E-05 0.268E-05
   0.481E+02 0.281E+03 -.349E+02   -.483E+02 -.285E+03 0.343E+02   -.662E-01 0.650E+01 0.228E+01   0.617E-06 0.254E-06 -.382E-06
   0.301E+02 -.110E+02 0.955E+02   -.315E+02 0.110E+02 -.975E+02   0.137E+01 0.208E-01 0.217E+01   -.571E-05 -.529E-05 0.362E-05
   0.789E+02 0.846E+02 0.661E+02   -.791E+02 -.864E+02 -.678E+02   0.362E+00 0.172E+01 0.189E+01   0.284E-06 0.108E-05 -.306E-06
   0.219E+03 0.106E+03 -.117E+03   -.222E+03 -.108E+03 0.120E+03   0.427E+01 0.220E+01 -.435E+01   0.385E-06 -.487E-05 -.304E-04
   -.956E+02 0.958E+02 0.228E+02   0.977E+02 -.965E+02 -.211E+02   -.108E+01 0.543E+00 -.710E+00   -.781E-06 0.115E-05 -.105E-05
   -.143E+03 -.850E+02 0.387E+02   0.147E+03 0.867E+02 -.383E+02   -.482E+01 -.187E+01 -.319E+00   -.358E-05 -.135E-05 0.256E-05
   0.988E+02 0.928E+02 0.183E+01   -.100E+03 -.934E+02 0.420E+00   0.899E+00 0.280E+00 -.975E+00   -.386E-05 -.111E-04 0.748E-05
   0.199E+03 -.657E+02 -.273E+02   -.203E+03 0.690E+02 0.285E+02   0.367E+01 -.355E+01 -.128E+01   0.776E-06 0.128E-05 -.506E-06
   -.396E+02 0.155E+02 0.583E+02   0.401E+02 -.163E+02 -.638E+02   -.468E+00 0.843E+00 0.567E+01   0.498E-06 0.108E-05 -.923E-06
   -.313E+02 -.475E+02 -.382E+02   0.323E+02 0.503E+02 0.431E+02   -.962E+00 -.281E+01 -.493E+01   0.498E-06 0.126E-06 -.830E-07
   -.340E+02 0.432E+02 -.619E+02   0.361E+02 -.428E+02 0.672E+02   -.206E+01 -.500E+00 -.535E+01   0.236E-06 -.102E-05 0.241E-07
   0.253E+02 -.131E+02 0.482E+02   -.274E+02 0.126E+02 -.534E+02   0.207E+01 0.523E+00 0.535E+01   -.214E-05 -.117E-05 -.945E-07
   0.335E+02 0.494E+02 0.374E+02   -.344E+02 -.522E+02 -.422E+02   0.963E+00 0.281E+01 0.493E+01   0.112E-06 0.265E-06 0.284E-07
   0.308E+02 -.226E+02 -.553E+02   -.313E+02 0.234E+02 0.609E+02   0.467E+00 -.838E+00 -.568E+01   0.980E-06 -.131E-05 -.141E-05
   0.476E+03 -.358E+03 -.776E+02   -.530E+03 0.342E+03 0.116E+03   0.291E+02 0.838E+01 -.203E+02   -.148E-03 -.154E-04 0.911E-04
   0.374E+03 -.442E+03 0.201E+03   -.325E+03 0.459E+03 -.239E+03   -.265E+02 -.918E+01 0.205E+02   0.393E-04 0.514E-04 -.522E-04
   -.257E+03 -.638E+02 0.527E+02   0.223E+03 0.503E+02 -.575E+02   0.242E+02 0.950E+01 0.232E+01   -.516E-06 0.323E-05 -.558E-07
   -.506E+03 0.402E+02 0.274E+02   0.492E+03 -.152E+02 -.144E+02   0.101E+02 -.155E+02 -.967E+01   0.420E-05 0.250E-05 -.138E-04
   -.280E+03 -.457E+03 0.223E+03   0.289E+03 0.464E+03 -.268E+03   -.509E+01 -.458E+01 0.294E+02   0.630E-05 -.114E-04 -.446E-04
   0.179E+03 0.450E+03 -.179E+03   -.150E+03 -.443E+03 0.191E+03   -.144E+02 -.384E+01 -.575E+01   0.938E-04 0.520E-04 -.410E-04
   -.993E+02 -.280E+03 0.113E+03   0.944E+02 0.250E+03 -.911E+02   0.277E+01 0.156E+02 -.119E+02   0.364E-04 -.640E-04 -.144E-04
   0.258E+03 -.166E+03 -.124E+02   -.234E+03 0.140E+03 0.202E+01   -.175E+02 0.181E+02 0.621E+01   0.731E-06 0.273E-05 -.122E-05
   -.222E+03 0.443E+03 -.348E+02   0.229E+03 -.423E+03 0.109E+02   -.318E+01 -.126E+02 0.163E+02   0.788E-06 0.207E-05 -.550E-07
   -.539E+03 0.391E+02 0.167E+02   0.568E+03 -.328E+02 0.191E+02   -.186E+02 -.436E+01 -.234E+02   -.290E-05 0.152E-05 -.998E-06
   -.301E+03 0.482E+03 -.214E+02   0.304E+03 -.514E+03 -.128E+02   -.176E+01 0.203E+02 0.224E+02   0.388E-05 0.243E-05 0.100E-04
   0.306E+03 -.456E+03 0.128E+02   -.309E+03 0.488E+03 0.214E+02   0.178E+01 -.203E+02 -.224E+02   0.126E-05 0.191E-05 -.101E-05
   0.448E+03 0.805E+02 -.947E+02   -.476E+03 -.867E+02 0.588E+02   0.147E+02 0.309E+01 0.199E+02   0.313E-05 -.603E-04 -.221E-04
   0.139E+03 -.462E+03 0.347E+02   -.147E+03 0.442E+03 -.109E+02   0.398E+01 0.101E+02 -.116E+02   0.489E-04 0.789E-05 -.694E-04
   -.281E+03 0.198E+03 0.215E+01   0.257E+03 -.172E+03 0.809E+01   0.176E+02 -.180E+02 -.605E+01   -.157E-04 0.135E-05 0.453E-05
   0.304E+02 0.295E+03 -.953E+02   -.259E+02 -.265E+03 0.737E+02   -.318E+01 -.215E+02 0.142E+02   0.303E-06 0.139E-05 -.382E-06
   -.229E+03 -.334E+03 0.172E+03   0.200E+03 0.327E+03 -.183E+03   0.183E+02 0.593E+01 0.808E+01   -.307E-05 0.115E-05 0.256E-06
   0.235E+03 0.437E+03 -.207E+03   -.243E+03 -.444E+03 0.252E+03   0.517E+01 0.466E+01 -.294E+02   0.991E-06 0.127E-05 -.179E-05
   0.501E+03 -.226E+02 -.300E+02   -.487E+03 -.243E+01 0.169E+02   -.103E+02 0.155E+02 0.940E+01   0.929E-06 0.237E-05 -.600E-06
   0.218E+03 0.130E+03 -.581E+02   -.184E+03 -.116E+03 0.630E+02   -.242E+02 -.955E+01 -.238E+01   0.102E-04 0.588E-05 -.302E-04
   0.679E+03 0.744E+03 -.334E+03   -.675E+03 -.740E+03 0.330E+03   0.226E+01 -.336E+02 0.883E+01   0.157E-05 0.663E-05 -.215E-05
   -.985E+03 0.294E+03 0.412E+02   0.978E+03 -.293E+03 -.421E+02   0.382E+02 0.236E+02 0.413E+01   -.231E-05 0.427E-05 -.179E-05
   0.397E+03 -.904E+03 0.148E+03   -.395E+03 0.897E+03 -.148E+03   -.306E+02 0.222E+02 0.611E+01   0.692E-06 0.663E-05 -.501E-06
   -.444E+03 0.103E+04 -.154E+03   0.443E+03 -.102E+04 0.154E+03   0.324E+02 -.109E+02 -.381E+01   0.110E-03 -.159E-04 -.434E-04
   0.663E+03 -.116E+03 -.990E+02   -.658E+03 0.116E+03 0.987E+02   -.188E+01 0.709E+01 -.135E+02   0.116E-03 -.404E-03 0.250E-03
   -.781E+03 -.723E+03 0.338E+03   0.777E+03 0.719E+03 -.335E+03   0.146E+02 0.276E+02 -.819E+01   -.943E-04 0.465E-04 -.808E-04
 -----------------------------------------------------------------------------------------------
   -.670E+01 0.272E+01 -.118E+01   0.000E+00 -.341E-12 0.114E-12   0.576E+02 0.294E+02 -.113E+01   0.138E-03 -.426E-03 0.181E-04
 
 
 POSITION                                       TOTAL-FORCE (eV/Angst)
 -----------------------------------------------------------------------------------
     -3.78791     10.21574      1.46059        -1.467344     -0.560230      0.279564
     -4.52388     -4.95096      3.79931        -1.850986      0.257644      0.145046
     -4.37821      6.43769      1.10882        -0.759635     -0.338572     -1.080652
     -2.27140      7.33612      0.20906        -0.399509     -0.364565     -0.133419
     -2.44692     -6.22910      4.12534        -1.689443     -0.582384     -0.802799
     -5.11592      6.03086      2.33290        -2.232192     -1.367330      2.655738
     -3.37431     -5.26237      4.53352        -1.101721     -0.636503     -0.293048
     -3.08474      6.94685      1.27881        -1.012311     -0.552112     -0.368888
     -6.67312     -0.89799      5.49428        -0.703798     -2.482470     -1.904833
     -6.53791      1.55649      5.31338        -1.006338     -0.372957      0.336554
     -1.25474     -6.43703      4.98854         1.373664     -0.634415      1.802886
     -6.68409      0.43821      6.14372        -1.017213      0.302100      0.747000
     -6.50125      2.86783      5.80002        -0.849240      0.486968     -0.449238
      7.57135     -1.12308      0.86055        -1.060924     -0.996233      0.035587
      7.75419      1.30655      0.51685        -0.926254     -1.260356     -0.750687
      2.32484      8.18178      1.67203        -3.360167     -0.320848     -1.793901
      7.60801      0.18827      1.34718        -0.960109     -0.616974     -0.324322
      7.74322      2.64274      1.16629        -1.196635      2.012514      1.542341
      4.15484     -5.20209      5.38176        -0.856640     -0.475578      0.314822
      4.44441      7.00712      2.12704        -0.853518     -0.364695      0.306541
      6.18602     -4.28611      4.32766         0.729880      0.423783     -1.652410
      3.51702      7.97385      2.53523        -0.262476     -0.413296      0.800161
      3.34150     -5.59137      6.45151        -2.129002     -0.949045      0.139924
      5.44831     -4.69294      5.55174        -1.276319     -0.708558      0.993708
      5.59398      6.69571      2.86125        -0.124633     -1.233009     -0.144213
     -6.44726      1.39877      4.23973        -1.002661     -0.355246      0.639920
     -3.19258     -4.72839      5.46491        -1.123696     -0.767376     -0.574279
     -2.69330      7.04306      2.29033        -1.145431     -0.586228     -0.615836
      3.76340     -5.29830      4.37024        -0.822266     -0.449812      0.655387
      4.26268      6.47315      1.19565        -0.839684     -0.230511      0.578322
      7.51736      0.34598      2.42084        -0.959215     -0.646484     -0.634179
      2.45918     -3.68122      2.11145         2.822090      0.669753     -2.639561
     -2.85639     10.49971      0.79068        -4.158730     -1.578118      2.435509
     -6.31841      5.58472      2.19568         6.841497      2.454218      0.282326
     -5.36548     -4.00543      4.28416         2.445041     -4.125658     -3.422934
     -6.48288     -1.00634      4.24024        -2.174934     -2.416939      8.278041
     -1.03477      7.82012      0.48250        -1.824147     -1.052815     -0.260865
     -6.85236     -1.93768      6.23784        -0.377752      0.873458     -1.747563
     -0.41602     -7.36024      4.65396        -6.813031      5.243804      1.453214
     -6.36144      3.88288      4.91321        -0.738297     -3.905574      4.851147
     -4.56624      6.11546      3.47828        -6.654272     -2.199587     -6.372740
      2.14039      7.46364      0.63844        -2.256293      5.328954      6.187148
     -1.07029     -5.71889      6.02213         0.305820     -6.317428     -6.211627
      5.63634     -4.37071      3.18228         1.135678     -0.085335      2.933587
      7.43154     -2.13813      1.74735        -0.489417      0.413308     -0.240095
      1.48612      9.10500      2.00661         4.943676     -6.226849     -1.319682
      7.92246      3.68243      0.42272        -2.069845     -7.664811      3.978192
      2.10487     -6.07537      6.17806         3.695025      2.181920      2.553937
      7.55298      2.75109      2.42033         0.281062      1.492028     -8.330425
      6.43558      5.75019      2.37641        -4.556183      3.160096      3.161948
      7.38851     -3.83997      4.46489        -8.817431     -3.482041     -0.325009
     -7.67594      4.55003      3.44770         6.131051    -40.537745      0.137739
      1.56621     -7.84999      5.22512        36.198496     28.092705     -6.855205
      7.62424      5.76929      0.68183       -39.665795     16.428440     -1.252007
     -6.55414     -4.02454      5.97873        39.550083     -6.239317      3.479324
     -0.49611      9.59474      1.43544        -1.655711      0.750806     -1.792261
      8.74604     -2.80527      3.21286         8.788137     33.525507      0.587064
 -----------------------------------------------------------------------------------
    total drift:                               55.948803     28.475486     -0.143648


--------------------------------------------------------------------------------------------------------



  FREE ENERGIE OF THE ION-ELECTRON SYSTEM (eV)
  ---------------------------------------------------
  free  energy   TOTEN  =      -907.73515495 eV

  energy  without entropy=     -907.73515495  energy(sigma->0) =     -907.73515495
 


--------------------------------------------------------------------------------------------------------


    POTLOK:  cpu time      1.1540: real time      1.1570


--------------------------------------------------------------------------------------------------------


 writing wavefunctions
     LOOP+:  cpu time    307.7333: real time    309.0813
    4ORBIT:  cpu time      0.0000: real time      0.0000



 total charge

# of ion       s       p       d       f       tot
--------------------------------------------------
    1        0.905   1.610   0.000   0.000   2.515
    2        0.824   1.624   0.000   0.000   2.448
    3        0.834   1.724   0.000   0.000   2.558
    4        0.824   1.623   0.000   0.000   2.447
    5        0.833   1.725   0.000   0.000   2.558
    6        0.839   1.546   0.000   0.000   2.385
    7        0.846   1.715   0.000   0.000   2.561
    8        0.846   1.719   0.000   0.000   2.565
    9        0.839   1.545   0.000   0.000   2.384
   10        0.846   1.715   0.000   0.000   2.561
   11        0.839   1.545   0.000   0.000   2.384
   12        0.833   1.725   0.000   0.000   2.558
   13        0.824   1.624   0.000   0.000   2.448
   14        0.824   1.623   0.000   0.000   2.447
   15        0.833   1.725   0.000   0.000   2.559
   16        0.839   1.546   0.000   0.000   2.385
   17        0.846   1.715   0.000   0.000   2.561
   18        0.839   1.545   0.000   0.000   2.385
   19        0.847   1.714   0.000   0.000   2.561
   20        0.846   1.715   0.000   0.000   2.561
   21        0.839   1.546   0.000   0.000   2.385
   22        0.833   1.725   0.000   0.000   2.558
   23        0.824   1.624   0.000   0.000   2.448
   24        0.833   1.726   0.000   0.000   2.559
   25        0.824   1.624   0.000   0.000   2.448
   26        0.664   0.048   0.000   0.000   0.712
   27        0.664   0.048   0.000   0.000   0.712
   28        0.664   0.048   0.000   0.000   0.712
   29        0.664   0.048   0.000   0.000   0.712
   30        0.664   0.048   0.000   0.000   0.712
   31        0.664   0.048   0.000   0.000   0.712
   32        1.591   3.559   0.000   0.000   5.150
   33        1.582   3.584   0.000   0.000   5.166
   34        1.542   3.669   0.000   0.000   5.211
   35        1.525   3.647   0.000   0.000   5.172
   36        1.554   3.621   0.000   0.000   5.175
   37        1.525   3.646   0.000   0.000   5.172
   38        1.541   3.670   0.000   0.000   5.211
   39        1.541   3.670   0.000   0.000   5.211
   40        1.525   3.647   0.000   0.000   5.172
   41        1.554   3.620   0.000   0.000   5.174
   42        1.554   3.620   0.000   0.000   5.174
   43        1.554   3.620   0.000   0.000   5.174
   44        1.554   3.626   0.000   0.000   5.180
   45        1.525   3.647   0.000   0.000   5.172
   46        1.542   3.669   0.000   0.000   5.211
   47        1.541   3.670   0.000   0.000   5.212
   48        1.525   3.646   0.000   0.000   5.171
   49        1.554   3.620   0.000   0.000   5.174
   50        1.525   3.648   0.000   0.000   5.173
   51        1.542   3.668   0.000   0.000   5.210
   52        2.071   6.276   5.722   0.014  14.082
   53        2.071   6.275   5.722   0.014  14.082
   54        2.071   6.276   5.722   0.014  14.083
   55        2.071   6.276   5.722   0.014  14.083
   56        2.070   6.276   5.721   0.014  14.081
   57        2.071   6.276   5.722   0.014  14.082
--------------------------------------------------
tot         68.269 151.973  34.332   0.085 254.660
 

 total amount of memory used by VASP MPI-rank0  1315644. kBytes
=======================================================================

   base      :      30000. kBytes
   nonl-proj :      30506. kBytes
   fftplans  :      36548. kBytes
   grid      :     118243. kBytes
   one-center:       2299. kBytes
   HF        :       1344. kBytes
   nonlr-proj:       7401. kBytes
   wavefun   :      11925. kBytes
   fock_wrk  :    1077378. kBytes
 
  
  
 General timing and accounting informations for this job:
 ========================================================
  
                  Total CPU time used (sec):      321.885
                            User time (sec):      305.228
                          System time (sec):       16.657
                         Elapsed time (sec):      324.396
  
                   Maximum memory used (kb):     4649660.
                   Average memory used (kb):          N/A
  
                          Minor page faults:      1374327
                          Major page faults:            5
                 Voluntary context switches:         5419
