 vasp.6.2.1 16May21 (build Aug 03 2024 02:50:01) gamma-only                     
  
 executed on             LinuxIFC date 2024.10.12  10:33:34
 running on   40 total cores
 distrk:  each k-point on   40 cores,    1 groups
 distr:  one band on NCORE=   1 cores,   40 groups


--------------------------------------------------------------------------------------------------------


 INCAR:
   SYSTEM = MOFCO2
   ISTART = 0
   ICHARG = 2
   ISMEAR = 0
   SIGMA = 0.1
   ENCUT = 420.
   PREC = Accurate
   ISYM = -1
   EDIFF = 1E-6
   NELM = 500
   IBRION = -1
   NSW = 0
   ALGO = All
   TIME = 0.05
   LHFCALC = .TRUE.
   AEXX = 1
   LASPH = .TRUE.
   PRECFOCK = Normal
   LWAVE = .TRUE.
   LCHARG = .TRUE.
   NWRITE = 1
   LORBIT = 11

 POTCAR:    PAW_PBE C_GW 28Sep2005                
 POTCAR:    PAW_PBE H_GW 21Apr2008                
 POTCAR:    PAW_PBE O_GW 28Sep2005                
 POTCAR:    PAW_PBE Fe_sv_GW 05Dec2013            
 -----------------------------------------------------------------------------
|                                                                             |
|           W    W    AA    RRRRR   N    N  II  N    N   GGGG   !!!           |
|           W    W   A  A   R    R  NN   N  II  NN   N  G    G  !!!           |
|           W    W  A    A  R    R  N N  N  II  N N  N  G       !!!           |
|           W WW W  AAAAAA  RRRRR   N  N N  II  N  N N  G  GGG   !            |
|           WW  WW  A    A  R   R   N   NN  II  N   NN  G    G                |
|           W    W  A    A  R    R  N    N  II  N    N   GGGG   !!!           |
|                                                                             |
|     For optimal performance we recommend to set                             |
|       NCORE = 2 up to number-of-cores-per-socket                            |
|     NCORE specifies how many cores store one orbital (NPAR=cpu/NCORE).      |
|     This setting can greatly improve the performance of VASP for DFT.       |
|     The default, NCORE=1 might be grossly inefficient on modern             |
|     multi-core architectures or massively parallel machines. Do your        |
|     own testing! More info at https://www.vasp.at/wiki/index.php/NCORE      |
|     Unfortunately you need to use the default for GW and RPA                |
|     calculations (for HF NCORE is supported but not extensively tested      |
|     yet).                                                                   |
|                                                                             |
 -----------------------------------------------------------------------------

 POTCAR:    PAW_PBE C_GW 28Sep2005                
  local pseudopotential read in
  kinetic energy density of atom read in
  atomic valenz-charges read in
  non local Contribution for L=           0  read in
    real space projection operators read in
  non local Contribution for L=           0  read in
    real space projection operators read in
  non local Contribution for L=           1  read in
    real space projection operators read in
  non local Contribution for L=           1  read in
    real space projection operators read in
    PAW grid and wavefunctions read in
 
   number of l-projection  operators is LMAX  =           4
   number of lm-projection operators is LMMAX =           8
 
 POTCAR:    PAW_PBE H_GW 21Apr2008                
  local pseudopotential read in
  kinetic energy density of atom read in
  atomic valenz-charges read in
  non local Contribution for L=           0  read in
    real space projection operators read in
  non local Contribution for L=           0  read in
    real space projection operators read in
  non local Contribution for L=           1  read in
    real space projection operators read in
  non local Contribution for L=           1  read in
    real space projection operators read in
  non local Contribution for L=           2  read in
    real space projection operators read in
    PAW grid and wavefunctions read in
 
   number of l-projection  operators is LMAX  =           5
   number of lm-projection operators is LMMAX =          13
 
 POTCAR:    PAW_PBE O_GW 28Sep2005                
  local pseudopotential read in
  kinetic energy density of atom read in
  atomic valenz-charges read in
  non local Contribution for L=           0  read in
    real space projection operators read in
  non local Contribution for L=           0  read in
    real space projection operators read in
  non local Contribution for L=           1  read in
    real space projection operators read in
  non local Contribution for L=           1  read in
    real space projection operators read in
    PAW grid and wavefunctions read in
 
   number of l-projection  operators is LMAX  =           4
   number of lm-projection operators is LMMAX =           8
 
 POTCAR:    PAW_PBE Fe_sv_GW 05Dec2013            
  local pseudopotential read in
  partial core-charges read in
  partial kinetic energy density read in
  kinetic energy density of atom read in
  atomic valenz-charges read in
  non local Contribution for L=           0  read in
    real space projection operators read in
  non local Contribution for L=           0  read in
    real space projection operators read in
  non local Contribution for L=           0  read in
    real space projection operators read in
  non local Contribution for L=           1  read in
    real space projection operators read in
  non local Contribution for L=           1  read in
    real space projection operators read in
  non local Contribution for L=           1  read in
    real space projection operators read in
  non local Contribution for L=           2  read in
    real space projection operators read in
  non local Contribution for L=           2  read in
    real space projection operators read in
  non local Contribution for L=           2  read in
    real space projection operators read in
  non local Contribution for L=           3  read in
    real space projection operators read in
  non local Contribution for L=           3  read in
    real space projection operators read in
    PAW grid and wavefunctions read in
 
   number of l-projection  operators is LMAX  =          11
   number of lm-projection operators is LMMAX =          41
 
 -----------------------------------------------------------------------------
|                                                                             |
|               ----> ADVICE to this user running VASP <----                  |
|                                                                             |
|     You have a (more or less) 'large supercell' and for larger cells it     |
|     might be more efficient to use real-space projection operators.         |
|     Therefore, try LREAL= Auto in the INCAR file.                           |
|     Mind: For very accurate calculation, you might also keep the            |
|     reciprocal projection scheme (i.e. LREAL=.FALSE.).                      |
|                                                                             |
 -----------------------------------------------------------------------------

  PAW_PBE C_GW 28Sep2005                :
 energy of atom  1       EATOM= -147.1560
 kinetic energy error for atom=    0.0192 (will be added to EATOM!!)
  PAW_PBE H_GW 21Apr2008                :
 energy of atom  2       EATOM=  -12.4884
 kinetic energy error for atom=    0.0256 (will be added to EATOM!!)
  PAW_PBE O_GW 28Sep2005                :
 energy of atom  3       EATOM= -432.3788
 kinetic energy error for atom=    0.0724 (will be added to EATOM!!)
  PAW_PBE Fe_sv_GW 05Dec2013            :
 energy of atom  4       EATOM=-3376.4015
 kinetic energy error for atom=    0.1308 (will be added to EATOM!!)
 
 
 POSCAR:  C  H  O Fe
  positions in direct lattice
  No initial velocities read in
 exchange correlation table for  LEXCH =        8
   RHO(1)=    0.500       N(1)  =     2000
   RHO(2)=  100.500       N(2)  =     4000
 


--------------------------------------------------------------------------------------------------------


 ion  position               nearest neighbor table
   1  0.295  0.941  0.220-  32 1.17  33 1.18
   2  0.032  0.132  0.567-  35 1.36   7 1.40  22 1.43
   3  0.081  0.617  0.166-   8 1.40  23 1.43   6 1.49
   4  0.131  0.566  0.032-  37 1.36   8 1.40  24 1.43
   5  0.166  0.081  0.617-   7 1.40  25 1.43  11 1.49
   6  0.179  0.747  0.349-  41 1.27  34 1.29   3 1.49
   7  0.192  0.205  0.678-  27 1.09   2 1.40   5 1.40
   8  0.205  0.677  0.192-  28 1.09   4 1.40   3 1.40
   9  0.253  0.651  0.822-  36 1.27  38 1.29  12 1.49
  10  0.322  0.808  0.795-  26 1.09  13 1.40  12 1.40
  11  0.349  0.179  0.747-  43 1.27  39 1.29   5 1.49
  12  0.383  0.834  0.919-  10 1.40  14 1.43   9 1.49
  13  0.433  0.968  0.868-  40 1.36  10 1.40  15 1.43
  14  0.567  0.032  0.132-  45 1.36  17 1.40  12 1.43
  15  0.617  0.166  0.081-  17 1.40  13 1.43  18 1.49
  16  0.651  0.821  0.253-  42 1.27  46 1.29  22 1.49
  17  0.678  0.192  0.205-  31 1.09  14 1.40  15 1.40
  18  0.747  0.349  0.178-  49 1.27  47 1.29  15 1.49
  19  0.795  0.323  0.808-  29 1.09  23 1.40  24 1.40
  20  0.808  0.795  0.322-  30 1.09  25 1.40  22 1.40
  21  0.821  0.253  0.651-  44 1.27  51 1.29  24 1.49
  22  0.834  0.919  0.383-  20 1.40   2 1.43  16 1.49
  23  0.869  0.434  0.968-  48 1.36  19 1.40   3 1.43
  24  0.919  0.383  0.834-  19 1.40   4 1.43  21 1.49
  25  0.968  0.868  0.433-  50 1.36  20 1.40   5 1.43
  26  0.182  0.656  0.634-  10 1.09
  27  0.344  0.366  0.818-   7 1.09
  28  0.366  0.817  0.344-   8 1.09
  29  0.634  0.183  0.656-  19 1.09
  30  0.656  0.634  0.182-  20 1.09
  31  0.818  0.344  0.366-  17 1.09
  32  0.310  0.006  0.317-   1 1.17
  33  0.278  0.875  0.120-   1 1.18
  34  0.067  0.696  0.328-   6 1.29  54 2.11  52 2.12
  35  0.073  0.264  0.640-   2 1.36  57 2.06  55 2.07
  36  0.098  0.479  0.633-   9 1.27  57 2.07
  37  0.264  0.638  0.074-   4 1.36  55 2.05  56 2.09
  38  0.303  0.671  0.933-   9 1.29  56 2.10  55 2.12
  39  0.328  0.067  0.696-  11 1.29  52 2.10  53 2.12
  40  0.361  0.926  0.736-  13 1.36  53 2.06  52 2.08
  41  0.367  0.903  0.521-   6 1.27  53 2.07
  42  0.479  0.633  0.098-  16 1.27  55 2.07
  43  0.521  0.367  0.902-  11 1.27  54 2.07
  44  0.633  0.097  0.479-  21 1.27  56 2.07
  45  0.639  0.074  0.264-  14 1.36  56 2.06  57 2.08
  46  0.672  0.933  0.304-  16 1.29  57 2.10  56 2.12
  47  0.697  0.329  0.067-  18 1.29  53 2.10  54 2.12
  48  0.736  0.362  0.926-  23 1.36  54 2.05  53 2.09
  49  0.902  0.521  0.367-  18 1.27  52 2.07
  50  0.927  0.736  0.360-  25 1.36  52 2.06  54 2.07
  51  0.933  0.304  0.672-  21 1.29  55 2.11  57 2.12
  52  0.107  0.783  0.515-  50 2.06  49 2.07  40 2.08  39 2.10  34 2.12
  53  0.515  0.107  0.783-  40 2.06  41 2.07  48 2.09  47 2.10  39 2.12
  54  0.783  0.516  0.106-  48 2.05  50 2.07  43 2.07  34 2.11  47 2.12
  55  0.217  0.484  0.894-  37 2.05  35 2.07  42 2.07  51 2.11  38 2.12
  56  0.485  0.893  0.217-  45 2.06  44 2.07  37 2.09  38 2.10  46 2.12
  57  0.893  0.217  0.485-  35 2.06  36 2.07  45 2.08  46 2.10  51 2.12
 

IMPORTANT INFORMATION: All symmetrisations will be switched off!
NOSYMM: (Re-)initialisation of all symmetry stuff for point group C_1.


----------------------------------------------------------------------------------------

                                     Primitive cell                                     

  volume of cell :    1403.0148

  direct lattice vectors                    reciprocal lattice vectors
    15.439217752  0.004465832 -0.038376892     0.065085042  0.034326685  0.130688713
    -7.186282924 13.630928377 -0.001416099     0.000303919  0.073536393  0.130825479
    -7.182834812-11.890639092  6.700359279     0.000372844  0.000212151  0.150021909

  length of vectors
    15.439266094 15.409246337 15.423204220     0.149979744  0.150076646  0.150022522

  position of ions in fractional coordinates (direct lattice)
     0.295019501  0.941160170  0.219875959
     0.032140205  0.131596472  0.567243074
     0.080939400  0.617136620  0.166081282
     0.131311660  0.566131401  0.032072370
     0.166052468  0.080890174  0.616656951
     0.178934143  0.747136406  0.349358741
     0.192223384  0.205099135  0.677753253
     0.204817095  0.677208988  0.192172431
     0.252895436  0.650728993  0.821583851
     0.322307724  0.807597299  0.795016362
     0.349319458  0.178891109  0.746556755
     0.382922059  0.833947320  0.919292900
     0.433306216  0.967704379  0.868314174
     0.566693754  0.032295640  0.131685826
     0.617077941  0.166052695  0.080707123
     0.650680572  0.821108876  0.253443275
     0.677692276  0.192402701  0.204983653
     0.747104594  0.349271007  0.178416179
     0.795182905  0.322791042  0.807827584
     0.807776602  0.794900865  0.322246747
     0.821065842  0.252863594  0.650641229
     0.833947517  0.919109811  0.383343020
     0.868688340  0.433868599  0.967927620
     0.919060577  0.382863380  0.833918703
     0.967859819  0.868403528  0.432756926
     0.182479428  0.655565764  0.633945057
     0.344103209  0.366270524  0.817662957
     0.365791429  0.816735938  0.344089651
     0.634208571  0.183264047  0.655910379
     0.655896791  0.633729476  0.182337028
     0.817520572  0.344434206  0.366054943
     0.309634406  0.006275347  0.316899865
     0.277845133  0.874684412  0.119782242
     0.067421933  0.696011040  0.328229224
     0.073185170  0.264301200  0.639867354
     0.097668867  0.478758507  0.633498145
     0.264148327  0.637872795  0.073659183
     0.302715318  0.671496338  0.932846989
     0.328490557  0.067484104  0.696479021
     0.361353031  0.926373201  0.735541372
     0.367302190  0.903369468  0.521413749
     0.478945773  0.633023796  0.098161017
     0.521054227  0.366976174  0.901838960
     0.632697810  0.096630539  0.478586221
     0.638646969  0.073626784  0.264458628
     0.671509473  0.932515918  0.303521008
     0.697284712  0.328503632  0.067153018
     0.735851673  0.362127205  0.926340817
     0.902331148  0.521241523  0.366501884
     0.926814852  0.735698800  0.360132676
     0.932578089  0.303988990  0.671770806
     0.107174485  0.783307327  0.515334558
     0.515337162  0.106795323  0.782801462
     0.783372319  0.515771295  0.106356464
     0.216627696  0.484228705  0.893643529
     0.484662838  0.893204670  0.217198508
     0.892825508  0.216692673  0.484665412

  ion indices of the primitive-cell ions
   primitive index   ion index
                 1           1
                 2           2
                 3           3
                 4           4
                 5           5
                 6           6
                 7           7
                 8           8
                 9           9
                10          10
                11          11
                12          12
                13          13
                14          14
                15          15
                16          16
                17          17
                18          18
                19          19
                20          20
                21          21
                22          22
                23          23
                24          24
                25          25
                26          26
                27          27
                28          28
                29          29
                30          30
                31          31
                32          32
                33          33
                34          34
                35          35
                36          36
                37          37
                38          38
                39          39
                40          40
                41          41
                42          42
                43          43
                44          44
                45          45
                46          46
                47          47
                48          48
                49          49
                50          50
                51          51
                52          52
                53          53
                54          54
                55          55
                56          56
                57          57

----------------------------------------------------------------------------------------

 
 
 KPOINTS: KPOINTS                                 

Automatic generation of k-mesh.
 Grid dimensions read from file:
 generate k-points for:    1    1    1

 Generating k-lattice:

  Cartesian coordinates                     Fractional coordinates (reciprocal lattice)
     0.065085042  0.034326685  0.130688713     1.000000000  0.000000000 -0.000000000
     0.000303919  0.073536393  0.130825479     0.000000000  1.000000000  0.000000000
     0.000372844  0.000212151  0.150021909    -0.000000000  0.000000000  1.000000000

  Length of vectors
     0.149979744  0.150076646  0.150022522

  Shift w.r.t. Gamma in fractional coordinates (k-lattice)
     0.000000000  0.000000000  0.000000000

 
 Subroutine IBZKPT returns following result:
 ===========================================
 
 Found      1 irreducible k-points:
 
 Following reciprocal coordinates:
            Coordinates               Weight
  0.000000  0.000000  0.000000      1.000000
 
 Following cartesian coordinates:
            Coordinates               Weight
  0.000000  0.000000  0.000000      1.000000
 
 WARNING: full set of k-points will be restricted to regular points only.

 
 Subroutine IBZKPT_HF returns following result:
 ==============================================
 
 Found      1 k-points in 1st BZ
 the following      1 k-points will be used (e.g. in the exchange kernel)
 Following reciprocal coordinates:   # in IRBZ
  0.000000  0.000000  0.000000    1.00000000   1 t-inv F


--------------------------------------------------------------------------------------------------------




 Dimension of arrays:
   k-points           NKPTS =      1   k-points in BZ     NKDIM =      1   number of bands    NBANDS=    200
   number of dos      NEDOS =    301   number of ions     NIONS =     57
   non local maximal  LDIM  =     11   non local SUM 2l+1 LMDIM =     41
   total plane-waves  NPLWV = ******
   max r-space proj   IRMAX =      1   max aug-charges    IRDMAX=  22306
   dimension x,y,z NGX =   108 NGY =  108 NGZ =  108
   dimension x,y,z NGXF=   216 NGYF=  216 NGZF=  216
   support grid    NGXF=   216 NGYF=  216 NGZF=  216
   ions per type =              25   6  20   6
   NGX,Y,Z   is equivalent  to a cutoff of  11.63, 11.65, 11.64 a.u.
   NGXF,Y,Z  is equivalent  to a cutoff of  23.26, 23.30, 23.28 a.u.

 SYSTEM =  MOFCO2                                  
 POSCAR =   C  H  O Fe                             

 Startparameter for this run:
   NWRITE =      1    write-flag & timer
   PREC   = accura    normal or accurate (medium, high low for compatibility)
   ISTART =      0    job   : 0-new  1-cont  2-samecut
   ICHARG =      2    charge: 1-file 2-atom 10-const
   ISPIN  =      1    spin polarized calculation?
   LNONCOLLINEAR =      F non collinear calculations
   LSORBIT =      F    spin-orbit coupling
   INIWAV =      1    electr: 0-lowe 1-rand  2-diag
   LASPH  =      T    aspherical Exc in radial PAW
 Electronic Relaxation 1
   ENCUT  =  420.0 eV  30.87 Ry    5.56 a.u.  25.80 25.75 25.77*2*pi/ulx,y,z
   ENINI  =  420.0     initial cutoff
   ENAUG  =  963.7 eV  augmentation charge cutoff
   NELM   =    500;   NELMIN=  2; NELMDL= -5     # of ELM steps 
   EDIFF  = 0.1E-05   stopping-criterion for ELM
   LREAL  =      F    real-space projection
   NLSPLINE    = F    spline interpolate recip. space projectors
   LCOMPAT=      F    compatible to vasp.4.4
   GGA_COMPAT  = T    GGA compatible to vasp.4.4-vasp.4.6
   LMAXPAW     = -100 max onsite density
   LMAXMIX     =    2 max onsite mixed and CHGCAR
   VOSKOWN=      0    Vosko Wilk Nusair interpolation
   ROPT   =    0.00000   0.00000   0.00000   0.00000
 Ionic relaxation
   EDIFFG = 0.1E-04   stopping-criterion for IOM
   NSW    =      0    number of steps for IOM
   NBLOCK =      1;   KBLOCK =      1    inner block; outer block 
   IBRION =     -1    ionic relax: 0-MD 1-quasi-New 2-CG
   NFREE  =      0    steps in history (QN), initial steepest desc. (CG)
   ISIF   =      0    stress and relaxation
   IWAVPR =     10    prediction:  0-non 1-charg 2-wave 3-comb
   ISYM   =     -1    0-nonsym 1-usesym 2-fastsym
   LCORR  =      T    Harris-Foulkes like correction to forces

   POTIM  = 0.5000    time-step for ionic-motion
   TEIN   =    0.0    initial temperature
   TEBEG  =    0.0;   TEEND  =   0.0 temperature during run
   SMASS  =  -3.00    Nose mass-parameter (am)
   estimated Nose-frequenzy (Omega)   =  0.10E-29 period in steps = 0.13E+47 mass=  -0.545E-26a.u.
   SCALEE = 1.0000    scale energy and forces
   NPACO  =    256;   APACO  = 16.0  distance and # of slots for P.C.
   PSTRESS=    0.0 pullay stress

  Mass of Ions in am
   POMASS =  12.01  1.00 16.00 55.85
  Ionic Valenz
   ZVAL   =   4.00  1.00  6.00 16.00
  Atomic Wigner-Seitz radii
   RWIGS  =  -1.00 -1.00 -1.00 -1.00
  virtual crystal weights 
   VCA    =   1.00  1.00  1.00  1.00
   NELECT =     322.0000    total number of electrons
   NUPDOWN=      -1.0000    fix difference up-down

 DOS related values:
   EMIN   =  10.00;   EMAX   =-10.00  energy-range for DOS
   EFERMI =   0.00
   ISMEAR =     0;   SIGMA  =   0.10  broadening in eV -4-tet -1-fermi 0-gaus

 Electronic relaxation 2 (details)
   IALGO  =     58    algorithm
   LDIAG  =      T    sub-space diagonalisation (order eigenvalues)
   LSUBROT=      F    optimize rotation matrix (better conditioning)
   TURBO    =      0    0=normal 1=particle mesh
   IRESTART =      0    0=no restart 2=restart with 2 vectors
   NREBOOT  =      0    no. of reboots
   NMIN     =      0    reboot dimension
   EREF     =   0.00    reference energy to select bands
   IMIX   =      4    mixing-type and parameters
     AMIX     =   0.40;   BMIX     =  1.00
     AMIX_MAG =   1.60;   BMIX_MAG =  1.00
     AMIN     =   0.10
     WC   =   100.;   INIMIX=   1;  MIXPRE=   1;  MAXMIX= -45

 Intra band minimization:
   WEIMIN = 0.0000     energy-eigenvalue tresh-hold
   EBREAK =  0.13E-08  absolut break condition
   DEPER  =   0.30     relativ break condition  

   TIME   =   0.05     timestep for ELM

  volume/ion in A,a.u.               =      24.61       166.11
  Fermi-wavevector in a.u.,A,eV,Ry     =   1.002319  1.894109 13.669007  1.004644
  Thomas-Fermi vector in A             =   2.134799
 
 Write flags
   LWAVE        =      T    write WAVECAR
   LDOWNSAMPLE  =      F    k-point downsampling of WAVECAR
   LCHARG       =      T    write CHGCAR
   LVTOT        =      F    write LOCPOT, total local potential
   LVHAR        =      F    write LOCPOT, Hartree potential only
   LELF         =      F    write electronic localiz. function (ELF)
   LORBIT       =     11    0 simple, 1 ext, 2 COOP (PROOUT), +10 PAW based schemes


 Dipole corrections
   LMONO  =      F    monopole corrections only (constant potential shift)
   LDIPOL =      F    correct potential (dipole corrections)
   IDIPOL =      0    1-x, 2-y, 3-z, 4-all directions 
   EPSILON=  1.0000000 bulk dielectric constant

 Exchange correlation treatment:
   GGA     =    --    GGA type
   LEXCH   =     8    internal setting for exchange type
   VOSKOWN=      0    Vosko Wilk Nusair interpolation
   EXXOEP  =     0    0=HF, 1=EXX-LHF (local Hartree Fock) 2=EXX OEP
   LHFCALC =     T    Hartree Fock is set to
   LSYMGRAD=     F    symmetrize gradient (conserves proper symmetry)
   PRECFOCK=normal    Normal, Fast or Accurate (Low or Medium for compatibility)
   LRHFCALC=     F    long range Hartree Fock
   LRSCOR  =     F    long range correlation only (use DFT for short range part)
   LTHOMAS =     F    Thomas Fermi screening in HF
   LMODELHF=     F    short range full HF, long range fraction AEXX
   LFOCKACE=     T    use Adeptively-Compressed-Exchange operator
   ENCUT4O =  -1.0   cutoff for four orbital integrals eV
   LMAXFOCK=     4    L truncation for augmentation on plane wave grid
   LMAXFOCKAE=  -1    L truncation for all-electron charge restoration on plane wave grid
   NMAXFOCKAE=   1    number of basis functions for all-electron charge restoration
   LFOCKAEDFT=     F  apply the AE augmentation even for DFT
   NKREDX  =     1    reduce k-point grid by
   NKREDY  =     1    reduce k-point grid by
   NKREDZ  =     1    reduce k-point grid by
   SHIFTRED=     F    shift reduced grid of Gamma
   HFKIDENT=     F    idential grid for each k-point
   ODDONLY =     F    use only odd q-grid points
   EVENONLY=     F    use only even q-grid points
   HFALPHA =   -1.0000 decay constant for conv. correction
   MCALPHA =    0.0000 extent of test-charge in conv. correction in multipole expansion
   AEXX    =    1.0000 exact exchange contribution
   HFSCREEN=    0.0000 screening length (either q_TF or 0.3 A-1)
   HFSCREENC=   0.0000 screening length for correlation (either q_TF or 0.3 A-1)
   HFRCUT  =    0.0000 spherical cutoff for potential kernel
   ALDAX   =    0.0000 LDA exchange part
   AGGAX   =    0.0000 GGA exchange part
   ALDAC   =    0.0000 LDA correlation
   AGGAC   =    0.0000 GGA correlation
   ENCUTFOCK=  -1.0 apply spherical cutoff to Coloumb kernel
   NBANDSGWLOW=     1    first orbital included in HF term
   NBLOCK_FOCK=    64    blocking factor in FOCK_ACC
 Linear response parameters
   LEPSILON=     F    determine dielectric tensor
   LRPA    =     F    only Hartree local field effects (RPA)
   LNABLA  =     F    use nabla operator in PAW spheres
   LVEL    =     F    velocity operator in full k-point grid
   CSHIFT  =0.1000    complex shift for real part using Kramers Kronig
   OMEGAMAX=  -1.0    maximum frequency
   DEG_THRESHOLD= 0.2000000E-02 threshold for treating states as degnerate
   RTIME   =   -0.100 relaxation time in fs
  (WPLASMAI=    0.000 imaginary part of plasma frequency in eV, 0.658/RTIME)
   DFIELD  = 0.0000000 0.0000000 0.0000000 field for delta impulse in time
 
  Optional k-point grid parameters
   LKPOINTS_OPT  =     F    use optional k-point grid
   KPOINTS_OPT_MODE=     1    mode for optional k-point grid
 
 Orbital magnetization related:
   ORBITALMAG=     F  switch on orbital magnetization
   LCHIMAG   =     F  perturbation theory with respect to B field
   DQ        =  0.001000  dq finite difference perturbation B field
   LLRAUG    =     F  two centre corrections for induced B field



--------------------------------------------------------------------------------------------------------


 Static calculation
 charge density and potential will be updated during run
 non-spin polarized calculation
 Conjugate gradient for all bands (Freysoldt, et al. PRB 79, 241103 (2009))
 preconditioned conjugated gradient                                        
 perform sub-space diagonalisation
    before iterative eigenvector-optimisation
 modified Broyden-mixing scheme, WC =      100.0
 initial mixing is a Kerker type mixing with AMIX =  0.4000 and BMIX =      1.0000
 Hartree-type preconditioning will be used
 using additional bands           39
 reciprocal scheme for non local part
 use partial core corrections
 no Harris-corrections to forces 
 use gradient corrections 
 use of overlap-Matrix (Vanderbilt PP)
 Gauss-broadening in eV      SIGMA  =   0.10


--------------------------------------------------------------------------------------------------------


  energy-cutoff  :      420.00
  volume of cell :     1403.01
      direct lattice vectors                 reciprocal lattice vectors
    15.439217752  0.004465832 -0.038376892     0.065085042  0.034326685  0.130688713
    -7.186282924 13.630928377 -0.001416099     0.000303919  0.073536393  0.130825479
    -7.182834812-11.890639092  6.700359279     0.000372844  0.000212151  0.150021909

  length of vectors
    15.439266094 15.409246337 15.423204220     0.149979744  0.150076646  0.150022522


 
 k-points in units of 2pi/SCALE and weight: KPOINTS                                 
   0.00000000  0.00000000  0.00000000       1.000
 
 k-points in reciprocal lattice and weights: KPOINTS                                 
   0.00000000  0.00000000  0.00000000       1.000
 
 position of ions in fractional coordinates (direct lattice) 
   0.29501950  0.94116017  0.21987596
   0.03214020  0.13159647  0.56724307
   0.08093940  0.61713662  0.16608128
   0.13131166  0.56613140  0.03207237
   0.16605247  0.08089017  0.61665695
   0.17893414  0.74713641  0.34935874
   0.19222338  0.20509913  0.67775325
   0.20481709  0.67720899  0.19217243
   0.25289544  0.65072899  0.82158385
   0.32230772  0.80759730  0.79501636
   0.34931946  0.17889111  0.74655676
   0.38292206  0.83394732  0.91929290
   0.43330622  0.96770438  0.86831417
   0.56669375  0.03229564  0.13168583
   0.61707794  0.16605269  0.08070712
   0.65068057  0.82110888  0.25344327
   0.67769228  0.19240270  0.20498365
   0.74710459  0.34927101  0.17841618
   0.79518291  0.32279104  0.80782758
   0.80777660  0.79490087  0.32224675
   0.82106584  0.25286359  0.65064123
   0.83394752  0.91910981  0.38334302
   0.86868834  0.43386860  0.96792762
   0.91906058  0.38286338  0.83391870
   0.96785982  0.86840353  0.43275693
   0.18247943  0.65556576  0.63394506
   0.34410321  0.36627052  0.81766296
   0.36579143  0.81673594  0.34408965
   0.63420857  0.18326405  0.65591038
   0.65589679  0.63372948  0.18233703
   0.81752057  0.34443421  0.36605494
   0.30963441  0.00627535  0.31689987
   0.27784513  0.87468441  0.11978224
   0.06742193  0.69601104  0.32822922
   0.07318517  0.26430120  0.63986735
   0.09766887  0.47875851  0.63349814
   0.26414833  0.63787280  0.07365918
   0.30271532  0.67149634  0.93284699
   0.32849056  0.06748410  0.69647902
   0.36135303  0.92637320  0.73554137
   0.36730219  0.90336947  0.52141375
   0.47894577  0.63302380  0.09816102
   0.52105423  0.36697617  0.90183896
   0.63269781  0.09663054  0.47858622
   0.63864697  0.07362678  0.26445863
   0.67150947  0.93251592  0.30352101
   0.69728471  0.32850363  0.06715302
   0.73585167  0.36212720  0.92634082
   0.90233115  0.52124152  0.36650188
   0.92681485  0.73569880  0.36013268
   0.93257809  0.30398899  0.67177081
   0.10717448  0.78330733  0.51533456
   0.51533716  0.10679532  0.78280146
   0.78337232  0.51577130  0.10635646
   0.21662770  0.48422870  0.89364353
   0.48466284  0.89320467  0.21719851
   0.89282551  0.21669267  0.48466541
 
 position of ions in cartesian coordinates  (Angst):
  -3.78790563 10.21573870  1.46059321
  -4.52388317 -4.95095705  3.79931260
  -4.37821175  6.43769394  1.10882413
  -2.27140164  7.33612202  0.20905537
  -2.44692449 -6.22909552  4.12533600
  -5.11591652  6.03086322  2.33290413
  -3.37431139 -5.26236927  4.53352292
  -3.08474249  6.94684887  1.27880509
  -6.67311603 -0.89798737  5.49428014
  -6.53791475  1.55648768  5.31338245
  -1.25473680 -6.43702504  4.98853936
  -6.68409337  0.43820617  6.14371640
  -6.50124571  2.86783369  5.80001762
   7.57134513 -1.12307831  0.86054867
   7.75419311  1.30654888  0.51685004
   2.32483717  8.18177960  1.67202713
   7.60801466  0.18826726  1.34718394
   7.74321629  2.64274213  1.16628635
   4.15484218 -5.20209353  5.38176130
   4.44441119  7.00712439  2.12704337
   6.18601652 -4.28610774  4.32766196
   3.51702459  7.97385078  2.53523010
   3.34150173 -5.59136678  6.45151085
   5.44831152 -4.69293864  5.55174206
   5.59398355  6.69571217  2.86125369
  -6.44726406  1.39877301  4.23972831
  -3.19257720 -4.72839114  5.46491130
  -2.69330113  7.04305679  2.29032977
   3.76340103 -5.29830223  4.37023672
   4.26267732  6.47314643  1.19565489
   7.51736429  0.34598169  2.42083798
   2.45917722 -3.68122035  2.11145126
  -2.85639420 10.49971397  0.79068259
  -6.31840665  5.58472248  2.19568066
  -5.36548293 -4.00543421  4.28415826
  -6.48287571 -1.00633871  4.24023897
  -1.03477259  7.82012327  0.48250251
  -6.85236078 -1.93767650  6.23784180
  -0.41601639 -7.36024271  4.65395766
  -6.36144396  3.88288350  4.91321202
  -4.56623892  6.11546212  3.47828427
   2.14038562  7.46364369  0.63843721
  -1.07028522 -5.71888870  6.02212893
   5.63633910 -4.37070655  3.18228181
   7.43154408 -2.13812859  1.74735427
   1.48611650  9.10499778  2.00660882
   7.92246143  3.68243113  0.42272453
   2.10487260 -6.07536816  6.17806378
   7.55297553  2.75109390  2.42032751
   6.43558307  5.75018897  2.37640822
   7.38850658 -3.83996731  4.46488582
  -7.67594086  4.55002746  3.44770442
   1.56620766 -7.84998885  5.22512277
   7.62423645  5.76929366  0.68183275
  -6.55413615 -4.02453846  5.97873350
  -0.49610738  9.59474423  1.43544332
   8.74604099 -2.80527198  3.21286166
 


--------------------------------------------------------------------------------------------------------


 use serial FFT for orbitals x direction half grid
 k-point   1 :   0.0000 0.0000 0.0000  plane waves:   13714

 maximum and minimum number of plane-waves per node :     13714    13714

 maximum number of plane-waves:     13714
 maximum index in each direction: 
   IXMAX=   25   IYMAX=   22   IZMAX=   22
   IXMIN=    0   IYMIN=  -25   IZMIN=  -25


 serial   3D FFT for wavefunctions
 parallel 3D FFT for charge:
    minimum data exchange during FFTs selected (reduces bandwidth)


 FFT grid for exact exchange (Hartree Fock) 
  NGX = 80; NGY = 80; NGZ = 80

 use serial FFT for orbitals x direction half grid
 
 Radii for the augmentation spheres in the non-local exchange
 for species   1 augmentation radius   0.874 (default was   0.699)
       energy cutoff for augmentation   1680.0
 for species   2 augmentation radius   0.735 (default was   0.588)
       energy cutoff for augmentation   1680.0
 for species   3 augmentation radius   0.902 (default was   0.722)
       energy cutoff for augmentation   1680.0
 for species   4 augmentation radius   1.117 (default was   0.893)
       energy cutoff for augmentation   1680.0
 Maximum index for augmentation-charges in exchange         2121
  SETUP_FOCK is finished

 total amount of memory used by VASP MPI-rank0   160175. kBytes
=======================================================================

   base      :      30000. kBytes
   nonl-proj :      30513. kBytes
   fftplans  :      14365. kBytes
   grid      :      70875. kBytes
   one-center:       2299. kBytes
   HF        :       1344. kBytes
   nonlr-proj:       7401. kBytes
   wavefun   :       3378. kBytes
 
     INWAV:  cpu time      0.0001: real time      0.0002
 Broyden mixing: mesh for mixing (old mesh)
   NGX = 51   NGY = 51   NGZ = 51
  (NGX  =216   NGY  =216   NGZ  =216)
  gives a total of 132651 points

 initial charge density was supplied:
 charge density of overlapping atoms calculated
 number of electron     322.0000000 magnetization 
 keeping initial charge density in first step


--------------------------------------------------------------------------------------------------------


 Maximum index for augmentation-charges          724 (set IRDMAX)


--------------------------------------------------------------------------------------------------------


    FEWALD:  cpu time      0.0019: real time      0.0021


--------------------------------------- Iteration      1(   1)  ---------------------------------------


    POTLOK:  cpu time      0.2509: real time      0.2524
    SETDIJ:  cpu time      0.4374: real time      0.4388
    TRIAL :  cpu time      2.0644: real time      2.1035
    CORREC:  cpu time      0.0004: real time      0.0003
    --------------------------------------------
      LOOP:  cpu time      2.7565: real time      2.7999

 eigenvalue-minimisations  :   520
 total energy-change (2. order) :-0.7915893E+04  (-0.1641319E+05)
 number of electron     322.0000000 magnetization 
 augmentation part      322.0000000 magnetization 

 Free energy of the ion-electron system (eV)
  ---------------------------------------------------
  alpha Z        PSCENC =       379.72439301
  Ewald energy   TEWEN  =     18509.04670523
  -Hartree energ DENC   =    -46903.64212730
  -exchange      EXHF   =         0.00000000
  -V(xc)+E(xc)   XCENC  =      1551.41831133
  PAW double counting   =     26302.84469486   -38407.83587587
  entropy T*S    EENTRO =        -0.01865352
  eigenvalues    EBANDS =     -1033.05716914
  atomic energy  EATOM  =     31685.62717035
  ---------------------------------------------------
  free energy    TOTEN  =     -7915.89255104 eV

  energy without entropy =    -7915.87389753  energy(sigma->0) =    -7915.88322429
  exchange ACFDT corr.  =         0.00000000  see jH, gK, PRB 81, 115126


--------------------------------------------------------------------------------------------------------




--------------------------------------- Iteration      1(   2)  ---------------------------------------


    TRIAL :  cpu time      2.5040: real time      2.5115
    CORREC:  cpu time      0.0001: real time      0.0001
    --------------------------------------------
      LOOP:  cpu time      2.5101: real time      2.5186

 eigenvalue-minimisations  :   680
 total energy-change (2. order) :-0.4838343E+04  (-0.4614680E+04)
 number of electron     322.0000000 magnetization 
 augmentation part      322.0000000 magnetization 

 Free energy of the ion-electron system (eV)
  ---------------------------------------------------
  alpha Z        PSCENC =       379.72439301
  Ewald energy   TEWEN  =     18509.04670523
  -Hartree energ DENC   =    -46903.64212730
  -exchange      EXHF   =         0.00000000
  -V(xc)+E(xc)   XCENC  =      1551.41831133
  PAW double counting   =     26302.84469486   -38407.83587587
  entropy T*S    EENTRO =        -0.00552865
  eigenvalues    EBANDS =     -5871.41290352
  atomic energy  EATOM  =     31685.62717035
  ---------------------------------------------------
  free energy    TOTEN  =    -12754.23516055 eV

  energy without entropy =   -12754.22963190  energy(sigma->0) =   -12754.23239623
  exchange ACFDT corr.  =         0.00000000  see jH, gK, PRB 81, 115126


--------------------------------------------------------------------------------------------------------




--------------------------------------- Iteration      1(   3)  ---------------------------------------


    TRIAL :  cpu time      2.6082: real time      2.6707
    CORREC:  cpu time      0.0002: real time      0.0002
    --------------------------------------------
      LOOP:  cpu time      2.6097: real time      2.6780

 eigenvalue-minimisations  :   720
 total energy-change (2. order) :-0.8552129E+03  (-0.7946370E+03)
 number of electron     322.0000000 magnetization 
 augmentation part      322.0000000 magnetization 

 Free energy of the ion-electron system (eV)
  ---------------------------------------------------
  alpha Z        PSCENC =       379.72439301
  Ewald energy   TEWEN  =     18509.04670523
  -Hartree energ DENC   =    -46903.64212730
  -exchange      EXHF   =         0.00000000
  -V(xc)+E(xc)   XCENC  =      1551.41831133
  PAW double counting   =     26302.84469486   -38407.83587587
  entropy T*S    EENTRO =        -0.18192885
  eigenvalues    EBANDS =     -6726.44936593
  atomic energy  EATOM  =     31685.62717035
  ---------------------------------------------------
  free energy    TOTEN  =    -13609.44802316 eV

  energy without entropy =   -13609.26609431  energy(sigma->0) =   -13609.35705874
  exchange ACFDT corr.  =         0.00000000  see jH, gK, PRB 81, 115126


--------------------------------------------------------------------------------------------------------




--------------------------------------- Iteration      1(   4)  ---------------------------------------


    TRIAL :  cpu time      2.2608: real time      2.2678
    CORREC:  cpu time      0.0001: real time      0.0001
    --------------------------------------------
      LOOP:  cpu time      2.2626: real time      2.2746

 eigenvalue-minimisations  :   600
 total energy-change (2. order) :-0.7843032E+02  (-0.6854758E+02)
 number of electron     322.0000000 magnetization 
 augmentation part      322.0000000 magnetization 

 Free energy of the ion-electron system (eV)
  ---------------------------------------------------
  alpha Z        PSCENC =       379.72439301
  Ewald energy   TEWEN  =     18509.04670523
  -Hartree energ DENC   =    -46903.64212730
  -exchange      EXHF   =         0.00000000
  -V(xc)+E(xc)   XCENC  =      1551.41831133
  PAW double counting   =     26302.84469486   -38407.83587587
  entropy T*S    EENTRO =        -0.27775485
  eigenvalues    EBANDS =     -6804.78386371
  atomic energy  EATOM  =     31685.62717035
  ---------------------------------------------------
  free energy    TOTEN  =    -13687.87834695 eV

  energy without entropy =   -13687.60059210  energy(sigma->0) =   -13687.73946952
  exchange ACFDT corr.  =         0.00000000  see jH, gK, PRB 81, 115126


--------------------------------------------------------------------------------------------------------




--------------------------------------- Iteration      1(   5)  ---------------------------------------


    POTLOK:  cpu time      0.2249: real time      0.2258
    SETDIJ:  cpu time      0.4439: real time      0.4450
    TRIAL :  cpu time     34.3632: real time     34.7600
    CORREC:  cpu time      0.0002: real time      0.0002
    CHARGE:  cpu time      0.2196: real time      0.2201
    --------------------------------------------
      LOOP:  cpu time     35.2522: real time     35.6579

 eigenvalue-minimisations  :   600
 total energy-change (2. order) : 0.1268054E+05  (-0.6127728E+02)
 number of electron     322.0000002 magnetization 
 augmentation part       44.0630147 magnetization 

 Free energy of the ion-electron system (eV)
  ---------------------------------------------------
  alpha Z        PSCENC =       379.72439301
  Ewald energy   TEWEN  =     18509.04670523
  -Hartree energ DENC   =    -46903.64212730
  -exchange      EXHF   =      4542.30936358
  -V(xc)+E(xc)   XCENC  =         0.00000000
  PAW double counting   =     27745.95066816   -27959.40190248
  entropy T*S    EENTRO =        -0.00393717
  eigenvalues    EBANDS =     -9006.95310785
  atomic energy  EATOM  =     31685.62717035
  ---------------------------------------------------
  free energy    TOTEN  =     -1007.34277447 eV

  energy without entropy =    -1007.33883729  energy(sigma->0) =    -1007.34080588
  exchange ACFDT corr.  =       -13.51087115  see jH, gK, PRB 81, 115126


--------------------------------------------------------------------------------------------------------




--------------------------------------- Iteration      1(   6)  ---------------------------------------


    POTLOK:  cpu time      0.2294: real time      0.2301
    SETDIJ:  cpu time      0.4458: real time      0.4471
    TRIAL :  cpu time     31.4001: real time     31.4931
    CORREC:  cpu time     30.8422: real time     31.2033
    CHARGE:  cpu time      0.2146: real time      0.2154
    --------------------------------------------
      LOOP:  cpu time     63.1355: real time     63.5974

 eigenvalue-minimisations  :     0
 total energy-change (2. order) : 0.1092582E+04  (-0.3242734E+03)
 number of electron     321.9999991 magnetization 
 augmentation part       53.3836400 magnetization 

 Free energy of the ion-electron system (eV)
  ---------------------------------------------------
  alpha Z        PSCENC =       379.72439301
  Ewald energy   TEWEN  =     18509.04670523
  -Hartree energ DENC   =    -43683.73388919
  -exchange      EXHF   =      4541.33314718
  -V(xc)+E(xc)   XCENC  =         0.00000000
  PAW double counting   =     29517.54848787   -29661.60151321
  entropy T*S    EENTRO =        -0.00114115
  eigenvalues    EBANDS =    -11202.70137794
  atomic energy  EATOM  =     31685.62717035
  ---------------------------------------------------
  free energy    TOTEN  =        85.23918614 eV

  energy without entropy =       85.24032729  energy(sigma->0) =       85.23975672
  exchange ACFDT corr.  =        -0.06104289  see jH, gK, PRB 81, 115126


--------------------------------------------------------------------------------------------------------




--------------------------------------- Iteration      1(   7)  ---------------------------------------


    POTLOK:  cpu time      0.2292: real time      0.2299
    SETDIJ:  cpu time      0.4474: real time      0.4485
    TRIAL :  cpu time     30.8096: real time     30.9096
    CORREC:  cpu time    123.9347: real time    125.0180
    CHARGE:  cpu time      0.2186: real time      0.2193
    --------------------------------------------
      LOOP:  cpu time    155.6423: real time    156.8333

 eigenvalue-minimisations  :     0
 total energy-change (2. order) :-0.3153281E+03  (-0.4581973E+02)
 number of electron     321.9999970 magnetization 
 augmentation part       55.0665016 magnetization 

 Free energy of the ion-electron system (eV)
  ---------------------------------------------------
  alpha Z        PSCENC =       379.72439301
  Ewald energy   TEWEN  =     18509.04670523
  -Hartree energ DENC   =    -45169.72505511
  -exchange      EXHF   =      4523.62221315
  -V(xc)+E(xc)   XCENC  =         0.00000000
  PAW double counting   =     31048.83543961   -31509.30547379
  entropy T*S    EENTRO =        -0.08333408
  eigenvalues    EBANDS =     -9697.91313220
  atomic energy  EATOM  =     31685.62717035
  ---------------------------------------------------
  free energy    TOTEN  =      -230.08888089 eV

  energy without entropy =     -230.00554681  energy(sigma->0) =     -230.04721385
  exchange ACFDT corr.  =       -25.01652227  see jH, gK, PRB 81, 115126


--------------------------------------------------------------------------------------------------------




--------------------------------------- Iteration      1(   8)  ---------------------------------------


    POTLOK:  cpu time      0.2297: real time      0.2307
    SETDIJ:  cpu time      0.4567: real time      0.4578
    TRIAL :  cpu time     30.4849: real time     31.0183
    CORREC:  cpu time     30.8824: real time     30.9959
    CHARGE:  cpu time      0.2175: real time      0.2180
    --------------------------------------------
      LOOP:  cpu time     62.2722: real time     62.9284

 eigenvalue-minimisations  :     0
 total energy-change (2. order) : 0.4036099E+01  (-0.3926701E+03)
 number of electron     321.9999980 magnetization 
 augmentation part       48.0412301 magnetization 

 Free energy of the ion-electron system (eV)
  ---------------------------------------------------
  alpha Z        PSCENC =       379.72439301
  Ewald energy   TEWEN  =     18509.04670523
  -Hartree energ DENC   =    -47228.17055130
  -exchange      EXHF   =      4329.69370441
  -V(xc)+E(xc)   XCENC  =         0.00000000
  PAW double counting   =     31591.82257384   -32289.62260488
  entropy T*S    EENTRO =        -0.00282452
  eigenvalues    EBANDS =     -7204.09083863
  atomic energy  EATOM  =     31685.62717035
  ---------------------------------------------------
  free energy    TOTEN  =      -226.05278205 eV

  energy without entropy =     -226.04995753  energy(sigma->0) =     -226.05136979
  exchange ACFDT corr.  =       -41.23587715  see jH, gK, PRB 81, 115126


--------------------------------------------------------------------------------------------------------




--------------------------------------- Iteration      1(   9)  ---------------------------------------


    POTLOK:  cpu time      0.2281: real time      0.2291
    SETDIJ:  cpu time      0.4486: real time      0.4498
    TRIAL :  cpu time     30.9022: real time     31.3030
    CORREC:  cpu time     30.8691: real time     31.0547
    CHARGE:  cpu time      0.2161: real time      0.2169
    --------------------------------------------
      LOOP:  cpu time     62.6666: real time     63.2616

 eigenvalue-minimisations  :     0
 total energy-change (2. order) :-0.3933381E+03  (-0.5754760E+02)
 number of electron     321.9999980 magnetization 
 augmentation part       47.2609106 magnetization 

 Free energy of the ion-electron system (eV)
  ---------------------------------------------------
  alpha Z        PSCENC =       379.72439301
  Ewald energy   TEWEN  =     18509.04670523
  -Hartree energ DENC   =    -45807.61214028
  -exchange      EXHF   =      4344.25485595
  -V(xc)+E(xc)   XCENC  =         0.00000000
  PAW double counting   =     30184.32638543   -30500.34944712
  entropy T*S    EENTRO =        -0.00067748
  eigenvalues    EBANDS =     -9414.40600416
  atomic energy  EATOM  =     31685.62717035
  ---------------------------------------------------
  free energy    TOTEN  =      -619.39090610 eV

  energy without entropy =     -619.39022863  energy(sigma->0) =     -619.39056737
  exchange ACFDT corr.  =        -2.56288883  see jH, gK, PRB 81, 115126


--------------------------------------------------------------------------------------------------------




--------------------------------------- Iteration      1(  10)  ---------------------------------------


    POTLOK:  cpu time      0.2281: real time      0.2287
    SETDIJ:  cpu time      0.4512: real time      0.4525
    TRIAL :  cpu time     31.0618: real time     31.3952
    CORREC:  cpu time     31.1277: real time     31.2420
    CHARGE:  cpu time      0.2190: real time      0.2195
    --------------------------------------------
      LOOP:  cpu time     63.0907: real time     63.5459

 eigenvalue-minimisations  :     0
 total energy-change (2. order) :-0.5545061E+02  (-0.5450380E+02)
 number of electron     321.9999979 magnetization 
 augmentation part       48.4043310 magnetization 

 Free energy of the ion-electron system (eV)
  ---------------------------------------------------
  alpha Z        PSCENC =       379.72439301
  Ewald energy   TEWEN  =     18509.04670523
  -Hartree energ DENC   =    -45733.88035614
  -exchange      EXHF   =      4368.30268209
  -V(xc)+E(xc)   XCENC  =         0.00000000
  PAW double counting   =     30153.12952744   -30415.78975923
  entropy T*S    EENTRO =        -0.00256083
  eigenvalues    EBANDS =     -9621.00120422
  atomic energy  EATOM  =     31685.62717035
  ---------------------------------------------------
  free energy    TOTEN  =      -674.84151895 eV

  energy without entropy =     -674.83895811  energy(sigma->0) =     -674.84023853
  exchange ACFDT corr.  =        -3.68553410  see jH, gK, PRB 81, 115126


--------------------------------------------------------------------------------------------------------




--------------------------------------- Iteration      1(  11)  ---------------------------------------


    POTLOK:  cpu time      0.2296: real time      0.2301
    SETDIJ:  cpu time      0.4455: real time      0.4469
    TRIAL :  cpu time     30.8332: real time     31.2327
    CORREC:  cpu time     30.9097: real time     31.0476
    CHARGE:  cpu time      0.2179: real time      0.2185
    --------------------------------------------
      LOOP:  cpu time     62.6388: real time     63.1847

 eigenvalue-minimisations  :     0
 total energy-change (2. order) :-0.5465792E+02  (-0.3139536E+02)
 number of electron     321.9999979 magnetization 
 augmentation part       49.7173412 magnetization 

 Free energy of the ion-electron system (eV)
  ---------------------------------------------------
  alpha Z        PSCENC =       379.72439301
  Ewald energy   TEWEN  =     18509.04670523
  -Hartree energ DENC   =    -46055.65829936
  -exchange      EXHF   =      4415.84373996
  -V(xc)+E(xc)   XCENC  =         0.00000000
  PAW double counting   =     30582.92674788   -30838.86922426
  entropy T*S    EENTRO =        -0.00607759
  eigenvalues    EBANDS =     -9408.13811570
  atomic energy  EATOM  =     31685.62717035
  ---------------------------------------------------
  free energy    TOTEN  =      -729.49944372 eV

  energy without entropy =     -729.49336614  energy(sigma->0) =     -729.49640493
  exchange ACFDT corr.  =        -5.69854397  see jH, gK, PRB 81, 115126


--------------------------------------------------------------------------------------------------------




--------------------------------------- Iteration      1(  12)  ---------------------------------------


    POTLOK:  cpu time      0.2309: real time      0.2318
    SETDIJ:  cpu time      0.4487: real time      0.4498
    TRIAL :  cpu time     30.7893: real time     31.1910
    CORREC:  cpu time     30.8725: real time     31.0786
    CHARGE:  cpu time      0.2184: real time      0.2189
    --------------------------------------------
      LOOP:  cpu time     62.5626: real time     63.1790

 eigenvalue-minimisations  :     0
 total energy-change (2. order) :-0.3049723E+02  (-0.2594505E+02)
 number of electron     321.9999980 magnetization 
 augmentation part       50.6388806 magnetization 

 Free energy of the ion-electron system (eV)
  ---------------------------------------------------
  alpha Z        PSCENC =       379.72439301
  Ewald energy   TEWEN  =     18509.04670523
  -Hartree energ DENC   =    -46411.11435351
  -exchange      EXHF   =      4450.90844331
  -V(xc)+E(xc)   XCENC  =         0.00000000
  PAW double counting   =     31019.91143890   -31290.62509798
  entropy T*S    EENTRO =        -0.01019203
  eigenvalues    EBANDS =     -9103.46929263
  atomic energy  EATOM  =     31685.62717035
  ---------------------------------------------------
  free energy    TOTEN  =      -759.99667090 eV

  energy without entropy =     -759.98647888  energy(sigma->0) =     -759.99157489
  exchange ACFDT corr.  =        -4.86066424  see jH, gK, PRB 81, 115126


--------------------------------------------------------------------------------------------------------




--------------------------------------- Iteration      1(  13)  ---------------------------------------


    POTLOK:  cpu time      0.2302: real time      0.2313
    SETDIJ:  cpu time      0.4311: real time      0.4592
    TRIAL :  cpu time     31.1993: real time     31.5093
    CORREC:  cpu time     30.9055: real time     31.2211
    CHARGE:  cpu time      0.2179: real time      0.2184
    --------------------------------------------
      LOOP:  cpu time     62.9863: real time     63.6471

 eigenvalue-minimisations  :     0
 total energy-change (2. order) :-0.2596250E+02  (-0.1784156E+02)
 number of electron     321.9999980 magnetization 
 augmentation part       50.6712032 magnetization 

 Free energy of the ion-electron system (eV)
  ---------------------------------------------------
  alpha Z        PSCENC =       379.72439301
  Ewald energy   TEWEN  =     18509.04670523
  -Hartree energ DENC   =    -46711.51738739
  -exchange      EXHF   =      4479.33535620
  -V(xc)+E(xc)   XCENC  =         0.00000000
  PAW double counting   =     31398.35718006   -31673.93069243
  entropy T*S    EENTRO =        -0.01071237
  eigenvalues    EBANDS =     -8852.59170568
  atomic energy  EATOM  =     31685.62717035
  ---------------------------------------------------
  free energy    TOTEN  =      -785.95917267 eV

  energy without entropy =     -785.94846031  energy(sigma->0) =     -785.95381649
  exchange ACFDT corr.  =        -1.86316378  see jH, gK, PRB 81, 115126


--------------------------------------------------------------------------------------------------------




--------------------------------------- Iteration      1(  14)  ---------------------------------------


    POTLOK:  cpu time      0.2323: real time      0.2329
    SETDIJ:  cpu time      0.4618: real time      0.4633
    TRIAL :  cpu time     30.8896: real time     30.9795
    CORREC:  cpu time     30.4737: real time     30.9299
    CHARGE:  cpu time      0.2176: real time      0.2182
    --------------------------------------------
      LOOP:  cpu time     62.2781: real time     62.8316

 eigenvalue-minimisations  :     0
 total energy-change (2. order) :-0.1782685E+02  (-0.1642209E+02)
 number of electron     321.9999980 magnetization 
 augmentation part       50.6282074 magnetization 

 Free energy of the ion-electron system (eV)
  ---------------------------------------------------
  alpha Z        PSCENC =       379.72439301
  Ewald energy   TEWEN  =     18509.04670523
  -Hartree energ DENC   =    -46827.30667281
  -exchange      EXHF   =      4491.86290509
  -V(xc)+E(xc)   XCENC  =         0.00000000
  PAW double counting   =     31565.13957662   -31826.38268754
  entropy T*S    EENTRO =        -0.01829038
  eigenvalues    EBANDS =     -8781.48669644
  atomic energy  EATOM  =     31685.62717035
  ---------------------------------------------------
  free energy    TOTEN  =      -803.78601885 eV

  energy without entropy =     -803.76772846  energy(sigma->0) =     -803.77687366
  exchange ACFDT corr.  =        -0.84298973  see jH, gK, PRB 81, 115126


--------------------------------------------------------------------------------------------------------




--------------------------------------- Iteration      1(  15)  ---------------------------------------


    POTLOK:  cpu time      0.2355: real time      0.2360
    SETDIJ:  cpu time      0.4479: real time      0.4493
    TRIAL :  cpu time     30.8634: real time     31.0262
    CORREC:  cpu time     30.4545: real time     30.9859
    CHARGE:  cpu time      0.2171: real time      0.2176
    --------------------------------------------
      LOOP:  cpu time     62.2217: real time     62.9232

 eigenvalue-minimisations  :     0
 total energy-change (2. order) :-0.1714256E+02  (-0.1624432E+02)
 number of electron     321.9999979 magnetization 
 augmentation part       50.9137801 magnetization 

 Free energy of the ion-electron system (eV)
  ---------------------------------------------------
  alpha Z        PSCENC =       379.72439301
  Ewald energy   TEWEN  =     18509.04670523
  -Hartree energ DENC   =    -47017.77463128
  -exchange      EXHF   =      4501.82974376
  -V(xc)+E(xc)   XCENC  =         0.00000000
  PAW double counting   =     31809.06919300   -32053.05671076
  entropy T*S    EENTRO =        -0.00001158
  eigenvalues    EBANDS =     -8635.37615518
  atomic energy  EATOM  =     31685.62717035
  ---------------------------------------------------
  free energy    TOTEN  =      -820.92858225 eV

  energy without entropy =     -820.92857067  energy(sigma->0) =     -820.92857646
  exchange ACFDT corr.  =        -0.48768444  see jH, gK, PRB 81, 115126


--------------------------------------------------------------------------------------------------------




--------------------------------------- Iteration      1(  16)  ---------------------------------------


    POTLOK:  cpu time      0.2282: real time      0.2289
    SETDIJ:  cpu time      0.4443: real time      0.4457
    TRIAL :  cpu time     30.7020: real time     30.8761
    CORREC:  cpu time     30.6401: real time     31.1082
    CHARGE:  cpu time      0.2179: real time      0.2185
    --------------------------------------------
      LOOP:  cpu time     62.2351: real time     62.8856

 eigenvalue-minimisations  :     0
 total energy-change (2. order) :-0.1693526E+02  (-0.1447025E+02)
 number of electron     321.9999977 magnetization 
 augmentation part       51.1643474 magnetization 

 Free energy of the ion-electron system (eV)
  ---------------------------------------------------
  alpha Z        PSCENC =       379.72439301
  Ewald energy   TEWEN  =     18509.04670523
  -Hartree energ DENC   =    -47342.20948236
  -exchange      EXHF   =      4516.57251387
  -V(xc)+E(xc)   XCENC  =         0.00000000
  PAW double counting   =     32195.50250368   -32432.08816324
  entropy T*S    EENTRO =        -0.00000000
  eigenvalues    EBANDS =     -8350.03946898
  atomic energy  EATOM  =     31685.62717035
  ---------------------------------------------------
  free energy    TOTEN  =      -837.86384001 eV

  energy without entropy =     -837.86384001  energy(sigma->0) =     -837.86384001
  exchange ACFDT corr.  =        -0.71622872  see jH, gK, PRB 81, 115126


--------------------------------------------------------------------------------------------------------




--------------------------------------- Iteration      1(  17)  ---------------------------------------


    POTLOK:  cpu time      0.2350: real time      0.2356
    SETDIJ:  cpu time      0.4608: real time      0.4619
    TRIAL :  cpu time     30.7433: real time     30.9347
    CORREC:  cpu time     30.7469: real time     31.1242
    CHARGE:  cpu time      0.2162: real time      0.2168
    --------------------------------------------
      LOOP:  cpu time     62.4051: real time     62.9810

 eigenvalue-minimisations  :     0
 total energy-change (2. order) :-0.1491529E+02  (-0.1298942E+02)
 number of electron     321.9999976 magnetization 
 augmentation part       51.0057817 magnetization 

 Free energy of the ion-electron system (eV)
  ---------------------------------------------------
  alpha Z        PSCENC =       379.72439301
  Ewald energy   TEWEN  =     18509.04670523
  -Hartree energ DENC   =    -47504.74726495
  -exchange      EXHF   =      4526.29181553
  -V(xc)+E(xc)   XCENC  =         0.00000000
  PAW double counting   =     32393.68284142   -32633.58619126
  entropy T*S    EENTRO =        -0.00000000
  eigenvalues    EBANDS =     -8208.81859904
  atomic energy  EATOM  =     31685.62717035
  ---------------------------------------------------
  free energy    TOTEN  =      -852.77912970 eV

  energy without entropy =     -852.77912970  energy(sigma->0) =     -852.77912970
  exchange ACFDT corr.  =        -0.00000000  see jH, gK, PRB 81, 115126


--------------------------------------------------------------------------------------------------------




--------------------------------------- Iteration      1(  18)  ---------------------------------------


    POTLOK:  cpu time      0.2287: real time      0.2293
    SETDIJ:  cpu time      0.4441: real time      0.4452
    TRIAL :  cpu time     30.7770: real time     31.0033
    CORREC:  cpu time     30.7409: real time     31.0242
    CHARGE:  cpu time      0.2140: real time      0.2148
    --------------------------------------------
      LOOP:  cpu time     62.4073: real time     62.9247

 eigenvalue-minimisations  :     0
 total energy-change (2. order) :-0.1358954E+02  (-0.9015091E+01)
 number of electron     321.9999976 magnetization 
 augmentation part       50.6790816 magnetization 

 Free energy of the ion-electron system (eV)
  ---------------------------------------------------
  alpha Z        PSCENC =       379.72439301
  Ewald energy   TEWEN  =     18509.04670523
  -Hartree energ DENC   =    -47458.19069590
  -exchange      EXHF   =      4530.94924446
  -V(xc)+E(xc)   XCENC  =         0.00000000
  PAW double counting   =     32347.09184691   -32588.57103946
  entropy T*S    EENTRO =        -0.00000000
  eigenvalues    EBANDS =     -8272.04629442
  atomic energy  EATOM  =     31685.62717035
  ---------------------------------------------------
  free energy    TOTEN  =      -866.36866981 eV

  energy without entropy =     -866.36866981  energy(sigma->0) =     -866.36866981
  exchange ACFDT corr.  =         0.00000000  see jH, gK, PRB 81, 115126


--------------------------------------------------------------------------------------------------------




--------------------------------------- Iteration      1(  19)  ---------------------------------------


    POTLOK:  cpu time      0.2326: real time      0.2331
    SETDIJ:  cpu time      0.4472: real time      0.4482
    TRIAL :  cpu time     31.0930: real time     31.2244
    CORREC:  cpu time     30.6261: real time     31.2486
    CHARGE:  cpu time      0.2173: real time      0.2178
    --------------------------------------------
      LOOP:  cpu time     62.6189: real time     63.3799

 eigenvalue-minimisations  :     0
 total energy-change (2. order) :-0.9304676E+01  (-0.6745537E+01)
 number of electron     321.9999976 magnetization 
 augmentation part       50.4883808 magnetization 

 Free energy of the ion-electron system (eV)
  ---------------------------------------------------
  alpha Z        PSCENC =       379.72439301
  Ewald energy   TEWEN  =     18509.04670523
  -Hartree energ DENC   =    -47339.21990363
  -exchange      EXHF   =      4530.90324022
  -V(xc)+E(xc)   XCENC  =         0.00000000
  PAW double counting   =     32210.52613640   -32449.72914546
  entropy T*S    EENTRO =        -0.00000000
  eigenvalues    EBANDS =     -8402.55194172
  atomic energy  EATOM  =     31685.62717035
  ---------------------------------------------------
  free energy    TOTEN  =      -875.67334560 eV

  energy without entropy =     -875.67334560  energy(sigma->0) =     -875.67334560
  exchange ACFDT corr.  =         0.00000000  see jH, gK, PRB 81, 115126


--------------------------------------------------------------------------------------------------------




--------------------------------------- Iteration      1(  20)  ---------------------------------------


    POTLOK:  cpu time      0.2296: real time      0.2302
    SETDIJ:  cpu time      0.4568: real time      0.4581
    TRIAL :  cpu time     31.1679: real time     31.3119
    CORREC:  cpu time     30.8850: real time     31.3169
    CHARGE:  cpu time      0.2140: real time      0.2149
    --------------------------------------------
      LOOP:  cpu time     62.9559: real time     63.5402

 eigenvalue-minimisations  :     0
 total energy-change (2. order) :-0.7108096E+01  (-0.5734427E+01)
 number of electron     321.9999976 magnetization 
 augmentation part       50.4223603 magnetization 

 Free energy of the ion-electron system (eV)
  ---------------------------------------------------
  alpha Z        PSCENC =       379.72439301
  Ewald energy   TEWEN  =     18509.04670523
  -Hartree energ DENC   =    -47247.85222918
  -exchange      EXHF   =      4531.85736128
  -V(xc)+E(xc)   XCENC  =         0.00000000
  PAW double counting   =     32105.37855346   -32343.80055691
  entropy T*S    EENTRO =        -0.00000000
  eigenvalues    EBANDS =     -8502.76283923
  atomic energy  EATOM  =     31685.62717035
  ---------------------------------------------------
  free energy    TOTEN  =      -882.78144200 eV

  energy without entropy =     -882.78144200  energy(sigma->0) =     -882.78144200
  exchange ACFDT corr.  =        -0.00000000  see jH, gK, PRB 81, 115126


--------------------------------------------------------------------------------------------------------




--------------------------------------- Iteration      1(  21)  ---------------------------------------


    POTLOK:  cpu time      0.2285: real time      0.2291
    SETDIJ:  cpu time      0.4487: real time      0.4498
    TRIAL :  cpu time     31.0240: real time     31.3652
    CORREC:  cpu time     30.8347: real time     31.4239
    CHARGE:  cpu time      0.2149: real time      0.2154
    --------------------------------------------
      LOOP:  cpu time     62.7533: real time     63.6916

 eigenvalue-minimisations  :     0
 total energy-change (2. order) :-0.5985526E+01  (-0.4545787E+01)
 number of electron     321.9999975 magnetization 
 augmentation part       50.4316899 magnetization 

 Free energy of the ion-electron system (eV)
  ---------------------------------------------------
  alpha Z        PSCENC =       379.72439301
  Ewald energy   TEWEN  =     18509.04670523
  -Hartree energ DENC   =    -47178.96447771
  -exchange      EXHF   =      4534.88961548
  -V(xc)+E(xc)   XCENC  =         0.00000000
  PAW double counting   =     32027.73808865   -32266.85246281
  entropy T*S    EENTRO =        -0.00000000
  eigenvalues    EBANDS =     -8579.97599992
  atomic energy  EATOM  =     31685.62717035
  ---------------------------------------------------
  free energy    TOTEN  =      -888.76696773 eV

  energy without entropy =     -888.76696773  energy(sigma->0) =     -888.76696773
  exchange ACFDT corr.  =         0.00000000  see jH, gK, PRB 81, 115126


--------------------------------------------------------------------------------------------------------




--------------------------------------- Iteration      1(  22)  ---------------------------------------


    POTLOK:  cpu time      0.2285: real time      0.2293
    SETDIJ:  cpu time      0.4030: real time      0.4468
    TRIAL :  cpu time     30.8810: real time     31.0308
    CORREC:  cpu time     30.9541: real time     31.3904
    CHARGE:  cpu time      0.2138: real time      0.2147
    --------------------------------------------
      LOOP:  cpu time     62.6830: real time     63.3203

 eigenvalue-minimisations  :     0
 total energy-change (2. order) :-0.4733495E+01  (-0.3647254E+01)
 number of electron     321.9999975 magnetization 
 augmentation part       50.5336379 magnetization 

 Free energy of the ion-electron system (eV)
  ---------------------------------------------------
  alpha Z        PSCENC =       379.72439301
  Ewald energy   TEWEN  =     18509.04670523
  -Hartree energ DENC   =    -47132.25927063
  -exchange      EXHF   =      4540.43832654
  -V(xc)+E(xc)   XCENC  =         0.00000000
  PAW double counting   =     31971.89065915   -32212.23095112
  entropy T*S    EENTRO =        -0.00000000
  eigenvalues    EBANDS =     -8635.73749504
  atomic energy  EATOM  =     31685.62717035
  ---------------------------------------------------
  free energy    TOTEN  =      -893.50046250 eV

  energy without entropy =     -893.50046250  energy(sigma->0) =     -893.50046250
  exchange ACFDT corr.  =        -0.00000000  see jH, gK, PRB 81, 115126


--------------------------------------------------------------------------------------------------------




--------------------------------------- Iteration      1(  23)  ---------------------------------------


    POTLOK:  cpu time      0.2318: real time      0.2326
    SETDIJ:  cpu time      0.4481: real time      0.4491
    TRIAL :  cpu time     30.6317: real time     31.1686
    CORREC:  cpu time     30.8552: real time     30.9919
    CHARGE:  cpu time      0.2161: real time      0.2170
    --------------------------------------------
      LOOP:  cpu time     62.3852: real time     63.0669

 eigenvalue-minimisations  :     0
 total energy-change (2. order) :-0.3746673E+01  (-0.2653080E+01)
 number of electron     321.9999975 magnetization 
 augmentation part       50.7051666 magnetization 

 Free energy of the ion-electron system (eV)
  ---------------------------------------------------
  alpha Z        PSCENC =       379.72439301
  Ewald energy   TEWEN  =     18509.04670523
  -Hartree energ DENC   =    -47118.24072539
  -exchange      EXHF   =      4547.09827224
  -V(xc)+E(xc)   XCENC  =         0.00000000
  PAW double counting   =     31950.06492633   -32192.68382443
  entropy T*S    EENTRO =        -0.00000000
  eigenvalues    EBANDS =     -8657.88405251
  atomic energy  EATOM  =     31685.62717035
  ---------------------------------------------------
  free energy    TOTEN  =      -897.24713516 eV

  energy without entropy =     -897.24713516  energy(sigma->0) =     -897.24713516
  exchange ACFDT corr.  =         0.00000000  see jH, gK, PRB 81, 115126


--------------------------------------------------------------------------------------------------------




--------------------------------------- Iteration      1(  24)  ---------------------------------------


    POTLOK:  cpu time      0.2297: real time      0.2305
    SETDIJ:  cpu time      0.4443: real time      0.4454
    TRIAL :  cpu time     30.7696: real time     31.1721
    CORREC:  cpu time     30.8238: real time     30.9475
    CHARGE:  cpu time      0.2142: real time      0.2152
    --------------------------------------------
      LOOP:  cpu time     62.4842: real time     63.0191

 eigenvalue-minimisations  :     0
 total energy-change (2. order) :-0.2716842E+01  (-0.1919099E+01)
 number of electron     321.9999975 magnetization 
 augmentation part       50.8424472 magnetization 

 Free energy of the ion-electron system (eV)
  ---------------------------------------------------
  alpha Z        PSCENC =       379.72439301
  Ewald energy   TEWEN  =     18509.04670523
  -Hartree energ DENC   =    -47134.86488147
  -exchange      EXHF   =      4552.98489598
  -V(xc)+E(xc)   XCENC  =         0.00000000
  PAW double counting   =     31962.71029875   -32208.31857444
  entropy T*S    EENTRO =        -0.00000000
  eigenvalues    EBANDS =     -8646.87398482
  atomic energy  EATOM  =     31685.62717035
  ---------------------------------------------------
  free energy    TOTEN  =      -899.96397740 eV

  energy without entropy =     -899.96397740  energy(sigma->0) =     -899.96397740
  exchange ACFDT corr.  =         0.00000000  see jH, gK, PRB 81, 115126


--------------------------------------------------------------------------------------------------------




--------------------------------------- Iteration      1(  25)  ---------------------------------------


    POTLOK:  cpu time      0.2299: real time      0.2306
    SETDIJ:  cpu time      0.4398: real time      0.4409
    TRIAL :  cpu time     30.7537: real time     31.4041
    CORREC:  cpu time     30.7453: real time     30.8765
    CHARGE:  cpu time      0.2145: real time      0.2150
    --------------------------------------------
      LOOP:  cpu time     62.3866: real time     63.1756

 eigenvalue-minimisations  :     0
 total energy-change (2. order) :-0.1955628E+01  (-0.1344486E+01)
 number of electron     321.9999975 magnetization 
 augmentation part       50.8997805 magnetization 

 Free energy of the ion-electron system (eV)
  ---------------------------------------------------
  alpha Z        PSCENC =       379.72439301
  Ewald energy   TEWEN  =     18509.04670523
  -Hartree energ DENC   =    -47159.14566106
  -exchange      EXHF   =      4556.94870789
  -V(xc)+E(xc)   XCENC  =         0.00000000
  PAW double counting   =     31983.73106651   -32230.99830231
  entropy T*S    EENTRO =        -0.00000000
  eigenvalues    EBANDS =     -8626.85368553
  atomic energy  EATOM  =     31685.62717035
  ---------------------------------------------------
  free energy    TOTEN  =      -901.91960590 eV

  energy without entropy =     -901.91960590  energy(sigma->0) =     -901.91960590
  exchange ACFDT corr.  =        -0.00000000  see jH, gK, PRB 81, 115126


--------------------------------------------------------------------------------------------------------




--------------------------------------- Iteration      1(  26)  ---------------------------------------


    POTLOK:  cpu time      0.2296: real time      0.2302
    SETDIJ:  cpu time      0.4932: real time      0.5005
    TRIAL :  cpu time     30.5496: real time     30.9413
    CORREC:  cpu time     31.0021: real time     31.1657
    CHARGE:  cpu time      0.2151: real time      0.2157
    --------------------------------------------
      LOOP:  cpu time     62.4927: real time     63.0615

 eigenvalue-minimisations  :     0
 total energy-change (2. order) :-0.1374347E+01  (-0.1072220E+01)
 number of electron     321.9999975 magnetization 
 augmentation part       50.9376789 magnetization 

 Free energy of the ion-electron system (eV)
  ---------------------------------------------------
  alpha Z        PSCENC =       379.72439301
  Ewald energy   TEWEN  =     18509.04670523
  -Hartree energ DENC   =    -47178.37496340
  -exchange      EXHF   =      4559.28949031
  -V(xc)+E(xc)   XCENC  =         0.00000000
  PAW double counting   =     31997.53896529   -32244.73914733
  entropy T*S    EENTRO =        -0.00000000
  eigenvalues    EBANDS =     -8611.40656617
  atomic energy  EATOM  =     31685.62717035
  ---------------------------------------------------
  free energy    TOTEN  =      -903.29395271 eV

  energy without entropy =     -903.29395271  energy(sigma->0) =     -903.29395271
  exchange ACFDT corr.  =         0.00000000  see jH, gK, PRB 81, 115126


--------------------------------------------------------------------------------------------------------




--------------------------------------- Iteration      1(  27)  ---------------------------------------


    POTLOK:  cpu time      0.2308: real time      0.2315
    SETDIJ:  cpu time      0.4464: real time      0.4479
    TRIAL :  cpu time     30.5546: real time     30.9633
    CORREC:  cpu time     31.1990: real time     31.3204
    CHARGE:  cpu time      0.2161: real time      0.2166
    --------------------------------------------
      LOOP:  cpu time     62.6562: real time     63.1941

 eigenvalue-minimisations  :     0
 total energy-change (2. order) :-0.1098520E+01  (-0.8150094E+00)
 number of electron     321.9999975 magnetization 
 augmentation part       50.9749451 magnetization 

 Free energy of the ion-electron system (eV)
  ---------------------------------------------------
  alpha Z        PSCENC =       379.72439301
  Ewald energy   TEWEN  =     18509.04670523
  -Hartree energ DENC   =    -47198.34532747
  -exchange      EXHF   =      4561.24353124
  -V(xc)+E(xc)   XCENC  =         0.00000000
  PAW double counting   =     32010.90733323   -32258.14934561
  entropy T*S    EENTRO =        -0.00000000
  eigenvalues    EBANDS =     -8594.44693296
  atomic energy  EATOM  =     31685.62717035
  ---------------------------------------------------
  free energy    TOTEN  =      -904.39247297 eV

  energy without entropy =     -904.39247297  energy(sigma->0) =     -904.39247297
  exchange ACFDT corr.  =         0.00000000  see jH, gK, PRB 81, 115126


--------------------------------------------------------------------------------------------------------




--------------------------------------- Iteration      1(  28)  ---------------------------------------


    POTLOK:  cpu time      0.2287: real time      0.2292
    SETDIJ:  cpu time      0.4470: real time      0.4484
    TRIAL :  cpu time     30.6975: real time     31.1315
    CORREC:  cpu time     30.8017: real time     30.9423
    CHARGE:  cpu time      0.2144: real time      0.2149
    --------------------------------------------
      LOOP:  cpu time     62.3916: real time     62.9744

 eigenvalue-minimisations  :     0
 total energy-change (2. order) :-0.8340378E+00  (-0.5575269E+00)
 number of electron     321.9999975 magnetization 
 augmentation part       50.9802316 magnetization 

 Free energy of the ion-electron system (eV)
  ---------------------------------------------------
  alpha Z        PSCENC =       379.72439301
  Ewald energy   TEWEN  =     18509.04670523
  -Hartree energ DENC   =    -47219.02189221
  -exchange      EXHF   =      4562.88796642
  -V(xc)+E(xc)   XCENC  =         0.00000000
  PAW double counting   =     32026.23776276   -32274.06850322
  entropy T*S    EENTRO =        -0.00000000
  eigenvalues    EBANDS =     -8575.66011310
  atomic energy  EATOM  =     31685.62717035
  ---------------------------------------------------
  free energy    TOTEN  =      -905.22651076 eV

  energy without entropy =     -905.22651076  energy(sigma->0) =     -905.22651076
  exchange ACFDT corr.  =        -0.00000000  see jH, gK, PRB 81, 115126


--------------------------------------------------------------------------------------------------------




--------------------------------------- Iteration      1(  29)  ---------------------------------------


    POTLOK:  cpu time      0.2290: real time      0.2295
    SETDIJ:  cpu time      0.4479: real time      0.4494
    TRIAL :  cpu time     30.9264: real time     31.2609
    CORREC:  cpu time     30.8271: real time     30.9565
    CHARGE:  cpu time      0.2175: real time      0.2181
    --------------------------------------------
      LOOP:  cpu time     62.6505: real time     63.1225

 eigenvalue-minimisations  :     0
 total energy-change (2. order) :-0.5692331E+00  (-0.4381539E+00)
 number of electron     321.9999975 magnetization 
 augmentation part       50.9422168 magnetization 

 Free energy of the ion-electron system (eV)
  ---------------------------------------------------
  alpha Z        PSCENC =       379.72439301
  Ewald energy   TEWEN  =     18509.04670523
  -Hartree energ DENC   =    -47233.80053414
  -exchange      EXHF   =      4563.91128799
  -V(xc)+E(xc)   XCENC  =         0.00000000
  PAW double counting   =     32037.11637908   -32284.93971776
  entropy T*S    EENTRO =        -0.00000000
  eigenvalues    EBANDS =     -8562.48142767
  atomic energy  EATOM  =     31685.62717035
  ---------------------------------------------------
  free energy    TOTEN  =      -905.79574390 eV

  energy without entropy =     -905.79574390  energy(sigma->0) =     -905.79574390
  exchange ACFDT corr.  =         0.00000000  see jH, gK, PRB 81, 115126


--------------------------------------------------------------------------------------------------------




--------------------------------------- Iteration      1(  30)  ---------------------------------------


    POTLOK:  cpu time      0.2296: real time      0.2304
    SETDIJ:  cpu time      0.4390: real time      0.4403
    TRIAL :  cpu time     30.8882: real time     31.2876
    CORREC:  cpu time     30.7222: real time     30.8397
    CHARGE:  cpu time      0.2147: real time      0.2155
    --------------------------------------------
      LOOP:  cpu time     62.4960: real time     63.0215

 eigenvalue-minimisations  :     0
 total energy-change (2. order) :-0.4470307E+00  (-0.3227721E+00)
 number of electron     321.9999975 magnetization 
 augmentation part       50.8994112 magnetization 

 Free energy of the ion-electron system (eV)
  ---------------------------------------------------
  alpha Z        PSCENC =       379.72439301
  Ewald energy   TEWEN  =     18509.04670523
  -Hartree energ DENC   =    -47241.75311357
  -exchange      EXHF   =      4564.56177643
  -V(xc)+E(xc)   XCENC  =         0.00000000
  PAW double counting   =     32041.21188382   -32287.87303721
  entropy T*S    EENTRO =        -0.00000000
  eigenvalues    EBANDS =     -8556.78855272
  atomic energy  EATOM  =     31685.62717035
  ---------------------------------------------------
  free energy    TOTEN  =      -906.24277465 eV

  energy without entropy =     -906.24277465  energy(sigma->0) =     -906.24277465
  exchange ACFDT corr.  =         0.00000000  see jH, gK, PRB 81, 115126


--------------------------------------------------------------------------------------------------------




--------------------------------------- Iteration      1(  31)  ---------------------------------------


    POTLOK:  cpu time      0.2309: real time      0.2315
    SETDIJ:  cpu time      0.4468: real time      0.4481
    TRIAL :  cpu time     31.0010: real time     31.3851
    CORREC:  cpu time     30.9076: real time     31.0860
    CHARGE:  cpu time      0.2147: real time      0.2158
    --------------------------------------------
      LOOP:  cpu time     62.8034: real time     63.3744

 eigenvalue-minimisations  :     0
 total energy-change (2. order) :-0.3277368E+00  (-0.2233175E+00)
 number of electron     321.9999975 magnetization 
 augmentation part       50.8882196 magnetization 

 Free energy of the ion-electron system (eV)
  ---------------------------------------------------
  alpha Z        PSCENC =       379.72439301
  Ewald energy   TEWEN  =     18509.04670523
  -Hartree energ DENC   =    -47245.57884127
  -exchange      EXHF   =      4565.21020373
  -V(xc)+E(xc)   XCENC  =         0.00000000
  PAW double counting   =     32042.08808549   -32287.42298310
  entropy T*S    EENTRO =        -0.00000000
  eigenvalues    EBANDS =     -8555.26524491
  atomic energy  EATOM  =     31685.62717035
  ---------------------------------------------------
  free energy    TOTEN  =      -906.57051146 eV

  energy without entropy =     -906.57051146  energy(sigma->0) =     -906.57051146
  exchange ACFDT corr.  =         0.00000000  see jH, gK, PRB 81, 115126


--------------------------------------------------------------------------------------------------------




--------------------------------------- Iteration      1(  32)  ---------------------------------------


    POTLOK:  cpu time      0.2357: real time      0.2376
    SETDIJ:  cpu time      0.4275: real time      0.4469
    TRIAL :  cpu time     31.0940: real time     31.4595
    CORREC:  cpu time     30.8047: real time     31.1545
    CHARGE:  cpu time      0.2147: real time      0.2153
    --------------------------------------------
      LOOP:  cpu time     62.7794: real time     63.5221

 eigenvalue-minimisations  :     0
 total energy-change (2. order) :-0.2262854E+00  (-0.1632833E+00)
 number of electron     321.9999975 magnetization 
 augmentation part       50.8940366 magnetization 

 Free energy of the ion-electron system (eV)
  ---------------------------------------------------
  alpha Z        PSCENC =       379.72439301
  Ewald energy   TEWEN  =     18509.04670523
  -Hartree energ DENC   =    -47249.41393863
  -exchange      EXHF   =      4566.06282077
  -V(xc)+E(xc)   XCENC  =         0.00000000
  PAW double counting   =     32044.49919213   -32289.33108493
  entropy T*S    EENTRO =        -0.00000000
  eigenvalues    EBANDS =     -8553.01205480
  atomic energy  EATOM  =     31685.62717035
  ---------------------------------------------------
  free energy    TOTEN  =      -906.79679687 eV

  energy without entropy =     -906.79679687  energy(sigma->0) =     -906.79679687
  exchange ACFDT corr.  =         0.00000000  see jH, gK, PRB 81, 115126


--------------------------------------------------------------------------------------------------------




--------------------------------------- Iteration      1(  33)  ---------------------------------------


    POTLOK:  cpu time      0.2279: real time      0.2284
    SETDIJ:  cpu time      0.4502: real time      0.4516
    TRIAL :  cpu time     31.2250: real time     31.3279
    CORREC:  cpu time     30.5123: real time     31.0618
    CHARGE:  cpu time      0.2145: real time      0.2152
    --------------------------------------------
      LOOP:  cpu time     62.6326: real time     63.2928

 eigenvalue-minimisations  :     0
 total energy-change (2. order) :-0.1651726E+00  (-0.1289499E+00)
 number of electron     321.9999975 magnetization 
 augmentation part       50.8910329 magnetization 

 Free energy of the ion-electron system (eV)
  ---------------------------------------------------
  alpha Z        PSCENC =       379.72439301
  Ewald energy   TEWEN  =     18509.04670523
  -Hartree energ DENC   =    -47252.11659923
  -exchange      EXHF   =      4566.91749948
  -V(xc)+E(xc)   XCENC  =         0.00000000
  PAW double counting   =     32046.48895711   -32291.15849342
  entropy T*S    EENTRO =        -0.00000000
  eigenvalues    EBANDS =     -8551.49160200
  atomic energy  EATOM  =     31685.62717035
  ---------------------------------------------------
  free energy    TOTEN  =      -906.96196946 eV

  energy without entropy =     -906.96196946  energy(sigma->0) =     -906.96196946
  exchange ACFDT corr.  =         0.00000000  see jH, gK, PRB 81, 115126


--------------------------------------------------------------------------------------------------------




--------------------------------------- Iteration      1(  34)  ---------------------------------------


    POTLOK:  cpu time      0.2288: real time      0.2296
    SETDIJ:  cpu time      0.4424: real time      0.4435
    TRIAL :  cpu time     30.9848: real time     31.0802
    CORREC:  cpu time     30.4661: real time     31.0832
    CHARGE:  cpu time      0.2162: real time      0.2168
    --------------------------------------------
      LOOP:  cpu time     62.3406: real time     63.0615

 eigenvalue-minimisations  :     0
 total energy-change (2. order) :-0.1300633E+00  (-0.1016029E+00)
 number of electron     321.9999975 magnetization 
 augmentation part       50.8898159 magnetization 

 Free energy of the ion-electron system (eV)
  ---------------------------------------------------
  alpha Z        PSCENC =       379.72439301
  Ewald energy   TEWEN  =     18509.04670523
  -Hartree energ DENC   =    -47250.99259687
  -exchange      EXHF   =      4567.48076810
  -V(xc)+E(xc)   XCENC  =         0.00000000
  PAW double counting   =     32044.46537853   -32288.57672224
  entropy T*S    EENTRO =        -0.00000000
  eigenvalues    EBANDS =     -8553.86712888
  atomic energy  EATOM  =     31685.62717035
  ---------------------------------------------------
  free energy    TOTEN  =      -907.09203277 eV

  energy without entropy =     -907.09203277  energy(sigma->0) =     -907.09203277
  exchange ACFDT corr.  =         0.00000000  see jH, gK, PRB 81, 115126


--------------------------------------------------------------------------------------------------------




--------------------------------------- Iteration      1(  35)  ---------------------------------------


    POTLOK:  cpu time      0.2329: real time      0.2337
    SETDIJ:  cpu time      0.4452: real time      0.4464
    TRIAL :  cpu time     29.8218: real time     31.3277
    CORREC:  cpu time     30.9274: real time     32.1289
    CHARGE:  cpu time      0.2178: real time      0.2185
    --------------------------------------------
      LOOP:  cpu time     61.6477: real time     64.3626

 eigenvalue-minimisations  :     0
 total energy-change (2. order) :-0.1021323E+00  (-0.7908100E-01)
 number of electron     321.9999975 magnetization 
 augmentation part       50.9051520 magnetization 

 Free energy of the ion-electron system (eV)
  ---------------------------------------------------
  alpha Z        PSCENC =       379.72439301
  Ewald energy   TEWEN  =     18509.04670523
  -Hartree energ DENC   =    -47248.46656637
  -exchange      EXHF   =      4567.78223798
  -V(xc)+E(xc)   XCENC  =         0.00000000
  PAW double counting   =     32040.90920809   -32284.54133780
  entropy T*S    EENTRO =        -0.00000000
  eigenvalues    EBANDS =     -8557.27597562
  atomic energy  EATOM  =     31685.62717035
  ---------------------------------------------------
  free energy    TOTEN  =      -907.19416512 eV

  energy without entropy =     -907.19416512  energy(sigma->0) =     -907.19416512
  exchange ACFDT corr.  =         0.00000000  see jH, gK, PRB 81, 115126


--------------------------------------------------------------------------------------------------------




--------------------------------------- Iteration      1(  36)  ---------------------------------------


    POTLOK:  cpu time      0.2340: real time      0.2346
    SETDIJ:  cpu time      0.4436: real time      0.4450
    TRIAL :  cpu time     31.1497: real time     31.3150
    CORREC:  cpu time     30.7036: real time     31.1769
    CHARGE:  cpu time      0.2178: real time      0.2183
    --------------------------------------------
      LOOP:  cpu time     62.7514: real time     63.3983

 eigenvalue-minimisations  :     0
 total energy-change (2. order) :-0.7945941E-01  (-0.6395892E-01)
 number of electron     321.9999975 magnetization 
 augmentation part       50.9225892 magnetization 

 Free energy of the ion-electron system (eV)
  ---------------------------------------------------
  alpha Z        PSCENC =       379.72439301
  Ewald energy   TEWEN  =     18509.04670523
  -Hartree energ DENC   =    -47247.33682690
  -exchange      EXHF   =      4567.96582057
  -V(xc)+E(xc)   XCENC  =         0.00000000
  PAW double counting   =     32038.99955411   -32282.79742878
  entropy T*S    EENTRO =        -0.00000000
  eigenvalues    EBANDS =     -8558.50301213
  atomic energy  EATOM  =     31685.62717035
  ---------------------------------------------------
  free energy    TOTEN  =      -907.27362453 eV

  energy without entropy =     -907.27362453  energy(sigma->0) =     -907.27362453
  exchange ACFDT corr.  =         0.00000000  see jH, gK, PRB 81, 115126


--------------------------------------------------------------------------------------------------------




--------------------------------------- Iteration      1(  37)  ---------------------------------------


    POTLOK:  cpu time      0.2284: real time      0.2292
    SETDIJ:  cpu time      0.4499: real time      0.4512
    TRIAL :  cpu time     30.9523: real time     31.0650
    CORREC:  cpu time     30.6757: real time     31.3170
    CHARGE:  cpu time      0.2150: real time      0.2157
    --------------------------------------------
      LOOP:  cpu time     62.5235: real time     63.2858

 eigenvalue-minimisations  :     0
 total energy-change (2. order) :-0.6427161E-01  (-0.4904057E-01)
 number of electron     321.9999975 magnetization 
 augmentation part       50.9241013 magnetization 

 Free energy of the ion-electron system (eV)
  ---------------------------------------------------
  alpha Z        PSCENC =       379.72439301
  Ewald energy   TEWEN  =     18509.04670523
  -Hartree energ DENC   =    -47246.18756179
  -exchange      EXHF   =      4567.97834077
  -V(xc)+E(xc)   XCENC  =         0.00000000
  PAW double counting   =     32037.18882898   -32281.39750660
  entropy T*S    EENTRO =        -0.00000000
  eigenvalues    EBANDS =     -8559.31826609
  atomic energy  EATOM  =     31685.62717035
  ---------------------------------------------------
  free energy    TOTEN  =      -907.33789614 eV

  energy without entropy =     -907.33789614  energy(sigma->0) =     -907.33789614
  exchange ACFDT corr.  =        -0.00000000  see jH, gK, PRB 81, 115126


--------------------------------------------------------------------------------------------------------




--------------------------------------- Iteration      1(  38)  ---------------------------------------


    POTLOK:  cpu time      0.2297: real time      0.2304
    SETDIJ:  cpu time      0.4464: real time      0.4475
    TRIAL :  cpu time     30.9161: real time     31.1287
    CORREC:  cpu time     30.3338: real time     31.4341
    CHARGE:  cpu time      0.2150: real time      0.2155
    --------------------------------------------
      LOOP:  cpu time     62.1440: real time     63.4649

 eigenvalue-minimisations  :     0
 total energy-change (2. order) :-0.4932949E-01  (-0.3991484E-01)
 number of electron     321.9999975 magnetization 
 augmentation part       50.9212892 magnetization 

 Free energy of the ion-electron system (eV)
  ---------------------------------------------------
  alpha Z        PSCENC =       379.72439301
  Ewald energy   TEWEN  =     18509.04670523
  -Hartree energ DENC   =    -47243.19932439
  -exchange      EXHF   =      4567.72715434
  -V(xc)+E(xc)   XCENC  =         0.00000000
  PAW double counting   =     32033.42708278   -32277.74689242
  entropy T*S    EENTRO =        -0.00000000
  eigenvalues    EBANDS =     -8561.99351453
  atomic energy  EATOM  =     31685.62717035
  ---------------------------------------------------
  free energy    TOTEN  =      -907.38722563 eV

  energy without entropy =     -907.38722563  energy(sigma->0) =     -907.38722563
  exchange ACFDT corr.  =         0.00000000  see jH, gK, PRB 81, 115126


--------------------------------------------------------------------------------------------------------




--------------------------------------- Iteration      1(  39)  ---------------------------------------


    POTLOK:  cpu time      0.2337: real time      0.2343
    SETDIJ:  cpu time      0.4478: real time      0.4491
    TRIAL :  cpu time     30.7118: real time     30.9485
    CORREC:  cpu time     30.4570: real time     31.1663
    CHARGE:  cpu time      0.2146: real time      0.2152
    --------------------------------------------
      LOOP:  cpu time     62.0680: real time     63.0214

 eigenvalue-minimisations  :     0
 total energy-change (2. order) :-0.4022790E-01  (-0.2799311E-01)
 number of electron     321.9999975 magnetization 
 augmentation part       50.9258843 magnetization 

 Free energy of the ion-electron system (eV)
  ---------------------------------------------------
  alpha Z        PSCENC =       379.72439301
  Ewald energy   TEWEN  =     18509.04670523
  -Hartree energ DENC   =    -47240.42514243
  -exchange      EXHF   =      4567.37182961
  -V(xc)+E(xc)   XCENC  =         0.00000000
  PAW double counting   =     32030.13941102   -32274.56908676
  entropy T*S    EENTRO =        -0.00000000
  eigenvalues    EBANDS =     -8564.34273356
  atomic energy  EATOM  =     31685.62717035
  ---------------------------------------------------
  free energy    TOTEN  =      -907.42745353 eV

  energy without entropy =     -907.42745353  energy(sigma->0) =     -907.42745353
  exchange ACFDT corr.  =         0.00000000  see jH, gK, PRB 81, 115126


--------------------------------------------------------------------------------------------------------




--------------------------------------- Iteration      1(  40)  ---------------------------------------


    POTLOK:  cpu time      0.2279: real time      0.2286
    SETDIJ:  cpu time      0.4432: real time      0.4446
    TRIAL :  cpu time     30.9349: real time     31.1472
    CORREC:  cpu time     31.8715: real time     32.3087
    CHARGE:  cpu time      0.2133: real time      0.2138
    --------------------------------------------
      LOOP:  cpu time     63.6942: real time     64.3513

 eigenvalue-minimisations  :     0
 total energy-change (2. order) :-0.2799016E-01  (-0.3001833E-01)
 number of electron     321.9999974 magnetization 
 augmentation part       50.9182254 magnetization 

 Free energy of the ion-electron system (eV)
  ---------------------------------------------------
  alpha Z        PSCENC =       379.72439301
  Ewald energy   TEWEN  =     18509.04670523
  -Hartree energ DENC   =    -47241.73301031
  -exchange      EXHF   =      4567.38012228
  -V(xc)+E(xc)   XCENC  =         0.00000000
  PAW double counting   =     32031.83761070   -32276.46947984
  entropy T*S    EENTRO =        -0.00000000
  eigenvalues    EBANDS =     -8562.86895512
  atomic energy  EATOM  =     31685.62717035
  ---------------------------------------------------
  free energy    TOTEN  =      -907.45544370 eV

  energy without entropy =     -907.45544370  energy(sigma->0) =     -907.45544370
  exchange ACFDT corr.  =         0.00000000  see jH, gK, PRB 81, 115126


--------------------------------------------------------------------------------------------------------




--------------------------------------- Iteration      1(  41)  ---------------------------------------


    POTLOK:  cpu time      0.2251: real time      0.2261
    SETDIJ:  cpu time      0.4472: real time      0.4483
    TRIAL :  cpu time     30.8018: real time     31.0851
    CORREC:  cpu time     31.0244: real time     31.1652
    CHARGE:  cpu time      0.2146: real time      0.2151
    --------------------------------------------
      LOOP:  cpu time     62.7149: real time     63.1477

 eigenvalue-minimisations  :     0
 total energy-change (2. order) :-0.2998866E-01  (-0.3233169E-01)
 number of electron     321.9999974 magnetization 
 augmentation part       50.9089262 magnetization 

 Free energy of the ion-electron system (eV)
  ---------------------------------------------------
  alpha Z        PSCENC =       379.72439301
  Ewald energy   TEWEN  =     18509.04670523
  -Hartree energ DENC   =    -47241.95459610
  -exchange      EXHF   =      4567.23648235
  -V(xc)+E(xc)   XCENC  =         0.00000000
  PAW double counting   =     32032.52484157   -32277.14838627
  entropy T*S    EENTRO =        -0.00000000
  eigenvalues    EBANDS =     -8562.54204250
  atomic energy  EATOM  =     31685.62717035
  ---------------------------------------------------
  free energy    TOTEN  =      -907.48543236 eV

  energy without entropy =     -907.48543236  energy(sigma->0) =     -907.48543236
  exchange ACFDT corr.  =        -0.00000000  see jH, gK, PRB 81, 115126


--------------------------------------------------------------------------------------------------------




--------------------------------------- Iteration      1(  42)  ---------------------------------------


    POTLOK:  cpu time      0.2290: real time      0.2297
    SETDIJ:  cpu time      0.4477: real time      0.4489
    TRIAL :  cpu time     30.8827: real time     31.4745
    CORREC:  cpu time     30.9893: real time     31.1007
    CHARGE:  cpu time      0.2171: real time      0.2176
    --------------------------------------------
      LOOP:  cpu time     62.7685: real time     63.4806

 eigenvalue-minimisations  :     0
 total energy-change (2. order) :-0.3232102E-01  (-0.1245417E-01)
 number of electron     321.9999974 magnetization 
 augmentation part       50.9130032 magnetization 

 Free energy of the ion-electron system (eV)
  ---------------------------------------------------
  alpha Z        PSCENC =       379.72439301
  Ewald energy   TEWEN  =     18509.04670523
  -Hartree energ DENC   =    -47242.13876330
  -exchange      EXHF   =      4567.07451680
  -V(xc)+E(xc)   XCENC  =         0.00000000
  PAW double counting   =     32033.42933873   -32278.01054465
  entropy T*S    EENTRO =        -0.00000000
  eigenvalues    EBANDS =     -8562.27056957
  atomic energy  EATOM  =     31685.62717035
  ---------------------------------------------------
  free energy    TOTEN  =      -907.51775338 eV

  energy without entropy =     -907.51775338  energy(sigma->0) =     -907.51775338
  exchange ACFDT corr.  =        -0.00000000  see jH, gK, PRB 81, 115126


--------------------------------------------------------------------------------------------------------




--------------------------------------- Iteration      1(  43)  ---------------------------------------


    POTLOK:  cpu time      0.2283: real time      0.2291
    SETDIJ:  cpu time      0.4474: real time      0.4488
    TRIAL :  cpu time     30.7138: real time     31.1754
    CORREC:  cpu time     31.0293: real time     31.1714
    CHARGE:  cpu time      0.2143: real time      0.2148
    --------------------------------------------
      LOOP:  cpu time     62.6363: real time     63.2474

 eigenvalue-minimisations  :     0
 total energy-change (2. order) :-0.1246675E-01  (-0.8875303E-02)
 number of electron     321.9999974 magnetization 
 augmentation part       50.9153730 magnetization 

 Free energy of the ion-electron system (eV)
  ---------------------------------------------------
  alpha Z        PSCENC =       379.72439301
  Ewald energy   TEWEN  =     18509.04670523
  -Hartree energ DENC   =    -47243.15589627
  -exchange      EXHF   =      4567.09791431
  -V(xc)+E(xc)   XCENC  =         0.00000000
  PAW double counting   =     32034.82187567   -32279.57621304
  entropy T*S    EENTRO =        -0.00000000
  eigenvalues    EBANDS =     -8561.11616941
  atomic energy  EATOM  =     31685.62717035
  ---------------------------------------------------
  free energy    TOTEN  =      -907.53022014 eV

  energy without entropy =     -907.53022014  energy(sigma->0) =     -907.53022014
  exchange ACFDT corr.  =         0.00000000  see jH, gK, PRB 81, 115126


--------------------------------------------------------------------------------------------------------




--------------------------------------- Iteration      1(  44)  ---------------------------------------


    POTLOK:  cpu time      0.2288: real time      0.2294
    SETDIJ:  cpu time      0.4474: real time      0.4489
    TRIAL :  cpu time     30.6777: real time     31.0989
    CORREC:  cpu time     30.8265: real time     31.0022
    CHARGE:  cpu time      0.2147: real time      0.2152
    --------------------------------------------
      LOOP:  cpu time     62.3961: real time     63.0030

 eigenvalue-minimisations  :     0
 total energy-change (2. order) :-0.8930696E-02  (-0.1078738E-01)
 number of electron     321.9999974 magnetization 
 augmentation part       50.9147811 magnetization 

 Free energy of the ion-electron system (eV)
  ---------------------------------------------------
  alpha Z        PSCENC =       379.72439301
  Ewald energy   TEWEN  =     18509.04670523
  -Hartree energ DENC   =    -47243.48505274
  -exchange      EXHF   =      4567.14887662
  -V(xc)+E(xc)   XCENC  =         0.00000000
  PAW double counting   =     32035.14927535   -32279.95690993
  entropy T*S    EENTRO =        -0.00000000
  eigenvalues    EBANDS =     -8560.79360872
  atomic energy  EATOM  =     31685.62717035
  ---------------------------------------------------
  free energy    TOTEN  =      -907.53915083 eV

  energy without entropy =     -907.53915083  energy(sigma->0) =     -907.53915083
  exchange ACFDT corr.  =         0.00000000  see jH, gK, PRB 81, 115126


--------------------------------------------------------------------------------------------------------




--------------------------------------- Iteration      1(  45)  ---------------------------------------


    POTLOK:  cpu time      0.2283: real time      0.2289
    SETDIJ:  cpu time      0.4476: real time      0.4492
    TRIAL :  cpu time     30.6371: real time     31.0399
    CORREC:  cpu time     30.8870: real time     31.0191
    CHARGE:  cpu time      0.2155: real time      0.2160
    --------------------------------------------
      LOOP:  cpu time     62.4180: real time     62.9610

 eigenvalue-minimisations  :     0
 total energy-change (2. order) :-0.1089788E-01  (-0.1533340E-01)
 number of electron     321.9999974 magnetization 
 augmentation part       50.9215059 magnetization 

 Free energy of the ion-electron system (eV)
  ---------------------------------------------------
  alpha Z        PSCENC =       379.72439301
  Ewald energy   TEWEN  =     18509.04670523
  -Hartree energ DENC   =    -47242.93336828
  -exchange      EXHF   =      4567.20687341
  -V(xc)+E(xc)   XCENC  =         0.00000000
  PAW double counting   =     32034.50019882   -32279.23239927
  entropy T*S    EENTRO =        -0.00000000
  eigenvalues    EBANDS =     -8561.48962198
  atomic energy  EATOM  =     31685.62717035
  ---------------------------------------------------
  free energy    TOTEN  =      -907.55004871 eV

  energy without entropy =     -907.55004871  energy(sigma->0) =     -907.55004871
  exchange ACFDT corr.  =         0.00000000  see jH, gK, PRB 81, 115126


--------------------------------------------------------------------------------------------------------




--------------------------------------- Iteration      1(  46)  ---------------------------------------


    POTLOK:  cpu time      0.2298: real time      0.2304
    SETDIJ:  cpu time      0.4470: real time      0.4484
    TRIAL :  cpu time     30.3374: real time     31.0374
    CORREC:  cpu time     30.8148: real time     30.9854
    CHARGE:  cpu time      0.2149: real time      0.2154
    --------------------------------------------
      LOOP:  cpu time     62.0462: real time     62.9245

 eigenvalue-minimisations  :     0
 total energy-change (2. order) :-0.1553711E-01  (-0.1455313E-01)
 number of electron     321.9999974 magnetization 
 augmentation part       50.9253579 magnetization 

 Free energy of the ion-electron system (eV)
  ---------------------------------------------------
  alpha Z        PSCENC =       379.72439301
  Ewald energy   TEWEN  =     18509.04670523
  -Hartree energ DENC   =    -47242.89326147
  -exchange      EXHF   =      4567.33448041
  -V(xc)+E(xc)   XCENC  =         0.00000000
  PAW double counting   =     32034.81986380   -32279.67357898
  entropy T*S    EENTRO =        -0.00000000
  eigenvalues    EBANDS =     -8561.55135817
  atomic energy  EATOM  =     31685.62717035
  ---------------------------------------------------
  free energy    TOTEN  =      -907.56558582 eV

  energy without entropy =     -907.56558582  energy(sigma->0) =     -907.56558582
  exchange ACFDT corr.  =         0.00000000  see jH, gK, PRB 81, 115126


--------------------------------------------------------------------------------------------------------




--------------------------------------- Iteration      1(  47)  ---------------------------------------


    POTLOK:  cpu time      0.2355: real time      0.2360
    SETDIJ:  cpu time      0.4406: real time      0.4418
    TRIAL :  cpu time     31.0326: real time     31.3528
    CORREC:  cpu time     31.2609: real time     31.3729
    CHARGE:  cpu time      0.2146: real time      0.2151
    --------------------------------------------
      LOOP:  cpu time     63.1866: real time     63.6265

 eigenvalue-minimisations  :     0
 total energy-change (2. order) :-0.1462276E-01  (-0.1194143E-01)
 number of electron     321.9999974 magnetization 
 augmentation part       50.9201637 magnetization 

 Free energy of the ion-electron system (eV)
  ---------------------------------------------------
  alpha Z        PSCENC =       379.72439301
  Ewald energy   TEWEN  =     18509.04670523
  -Hartree energ DENC   =    -47242.38694890
  -exchange      EXHF   =      4567.41322527
  -V(xc)+E(xc)   XCENC  =         0.00000000
  PAW double counting   =     32035.03132684   -32279.99053078
  entropy T*S    EENTRO =        -0.00000000
  eigenvalues    EBANDS =     -8562.04554960
  atomic energy  EATOM  =     31685.62717035
  ---------------------------------------------------
  free energy    TOTEN  =      -907.58020858 eV

  energy without entropy =     -907.58020858  energy(sigma->0) =     -907.58020858
  exchange ACFDT corr.  =         0.00000000  see jH, gK, PRB 81, 115126


--------------------------------------------------------------------------------------------------------




--------------------------------------- Iteration      1(  48)  ---------------------------------------


    POTLOK:  cpu time      0.2335: real time      0.2353
    SETDIJ:  cpu time      0.4490: real time      0.4502
    TRIAL :  cpu time     30.5801: real time     31.0158
    CORREC:  cpu time     31.2320: real time     31.3760
    CHARGE:  cpu time      0.2147: real time      0.2152
    --------------------------------------------
      LOOP:  cpu time     62.7123: real time     63.3009

 eigenvalue-minimisations  :     0
 total energy-change (2. order) :-0.1199104E-01  (-0.1056581E-01)
 number of electron     321.9999974 magnetization 
 augmentation part       50.9138848 magnetization 

 Free energy of the ion-electron system (eV)
  ---------------------------------------------------
  alpha Z        PSCENC =       379.72439301
  Ewald energy   TEWEN  =     18509.04670523
  -Hartree energ DENC   =    -47240.81992148
  -exchange      EXHF   =      4567.36040048
  -V(xc)+E(xc)   XCENC  =         0.00000000
  PAW double counting   =     32034.35249772   -32279.25723058
  entropy T*S    EENTRO =        -0.00000000
  eigenvalues    EBANDS =     -8563.62621436
  atomic energy  EATOM  =     31685.62717035
  ---------------------------------------------------
  free energy    TOTEN  =      -907.59219962 eV

  energy without entropy =     -907.59219962  energy(sigma->0) =     -907.59219962
  exchange ACFDT corr.  =         0.00000000  see jH, gK, PRB 81, 115126


--------------------------------------------------------------------------------------------------------




--------------------------------------- Iteration      1(  49)  ---------------------------------------


    POTLOK:  cpu time      0.2313: real time      0.2320
    SETDIJ:  cpu time      0.4502: real time      0.4516
    TRIAL :  cpu time     30.1027: real time     31.2761
    CORREC:  cpu time     30.6505: real time     31.1481
    CHARGE:  cpu time      0.2152: real time      0.2157
    --------------------------------------------
      LOOP:  cpu time     61.6525: real time     63.3317

 eigenvalue-minimisations  :     0
 total energy-change (2. order) :-0.1059615E-01  (-0.1169489E-01)
 number of electron     321.9999974 magnetization 
 augmentation part       50.9069680 magnetization 

 Free energy of the ion-electron system (eV)
  ---------------------------------------------------
  alpha Z        PSCENC =       379.72439301
  Ewald energy   TEWEN  =     18509.04670523
  -Hartree energ DENC   =    -47239.49189314
  -exchange      EXHF   =      4567.23339230
  -V(xc)+E(xc)   XCENC  =         0.00000000
  PAW double counting   =     32034.13076234   -32279.02793827
  entropy T*S    EENTRO =        -0.00000000
  eigenvalues    EBANDS =     -8564.84538759
  atomic energy  EATOM  =     31685.62717035
  ---------------------------------------------------
  free energy    TOTEN  =      -907.60279577 eV

  energy without entropy =     -907.60279577  energy(sigma->0) =     -907.60279577
  exchange ACFDT corr.  =        -0.00000000  see jH, gK, PRB 81, 115126


--------------------------------------------------------------------------------------------------------




--------------------------------------- Iteration      1(  50)  ---------------------------------------


    POTLOK:  cpu time      0.2224: real time      0.2747
    SETDIJ:  cpu time      0.3142: real time      0.4669
    TRIAL :  cpu time     30.4937: real time     31.0650
    CORREC:  cpu time     30.8798: real time     31.2937
    CHARGE:  cpu time      0.2142: real time      0.2150
    --------------------------------------------
      LOOP:  cpu time     62.1271: real time     63.3233

 eigenvalue-minimisations  :     0
 total energy-change (2. order) :-0.1169537E-01  (-0.1007599E-01)
 number of electron     321.9999974 magnetization 
 augmentation part       50.9008655 magnetization 

 Free energy of the ion-electron system (eV)
  ---------------------------------------------------
  alpha Z        PSCENC =       379.72439301
  Ewald energy   TEWEN  =     18509.04670523
  -Hartree energ DENC   =    -47238.41118628
  -exchange      EXHF   =      4567.07908591
  -V(xc)+E(xc)   XCENC  =         0.00000000
  PAW double counting   =     32034.16493442   -32279.08732728
  entropy T*S    EENTRO =        -0.00000000
  eigenvalues    EBANDS =     -8565.75826650
  atomic energy  EATOM  =     31685.62717035
  ---------------------------------------------------
  free energy    TOTEN  =      -907.61449114 eV

  energy without entropy =     -907.61449114  energy(sigma->0) =     -907.61449114
  exchange ACFDT corr.  =         0.00000000  see jH, gK, PRB 81, 115126


--------------------------------------------------------------------------------------------------------




--------------------------------------- Iteration      1(  51)  ---------------------------------------


    POTLOK:  cpu time      0.2312: real time      0.2317
    SETDIJ:  cpu time      0.4482: real time      0.4494
    TRIAL :  cpu time     30.8822: real time     30.9766
    CORREC:  cpu time     30.7796: real time     31.3422
    CHARGE:  cpu time      0.2144: real time      0.2150
    --------------------------------------------
      LOOP:  cpu time     62.5581: real time     63.2231

 eigenvalue-minimisations  :     0
 total energy-change (2. order) :-0.1004881E-01  (-0.7068016E-02)
 number of electron     321.9999974 magnetization 
 augmentation part       50.9004418 magnetization 

 Free energy of the ion-electron system (eV)
  ---------------------------------------------------
  alpha Z        PSCENC =       379.72439301
  Ewald energy   TEWEN  =     18509.04670523
  -Hartree energ DENC   =    -47237.97113246
  -exchange      EXHF   =      4566.97942123
  -V(xc)+E(xc)   XCENC  =         0.00000000
  PAW double counting   =     32034.13502948   -32279.01369410
  entropy T*S    EENTRO =        -0.00000000
  eigenvalues    EBANDS =     -8566.15243269
  atomic energy  EATOM  =     31685.62717035
  ---------------------------------------------------
  free energy    TOTEN  =      -907.62453995 eV

  energy without entropy =     -907.62453995  energy(sigma->0) =     -907.62453995
  exchange ACFDT corr.  =         0.00000000  see jH, gK, PRB 81, 115126


--------------------------------------------------------------------------------------------------------




--------------------------------------- Iteration      1(  52)  ---------------------------------------


    POTLOK:  cpu time      0.2310: real time      0.2319
    SETDIJ:  cpu time      0.4458: real time      0.4471
    TRIAL :  cpu time     30.9979: real time     31.2484
    CORREC:  cpu time     30.6744: real time     31.0767
    CHARGE:  cpu time      0.2193: real time      0.2202
    --------------------------------------------
      LOOP:  cpu time     62.5707: real time     63.2322

 eigenvalue-minimisations  :     0
 total energy-change (2. order) :-0.7035057E-02  (-0.7833896E-02)
 number of electron     321.9999974 magnetization 
 augmentation part       50.9050074 magnetization 

 Free energy of the ion-electron system (eV)
  ---------------------------------------------------
  alpha Z        PSCENC =       379.72439301
  Ewald energy   TEWEN  =     18509.04670523
  -Hartree energ DENC   =    -47238.83753720
  -exchange      EXHF   =      4566.98651809
  -V(xc)+E(xc)   XCENC  =         0.00000000
  PAW double counting   =     32034.68451158   -32279.52031199
  entropy T*S    EENTRO =        -0.00000000
  eigenvalues    EBANDS =     -8565.34302409
  atomic energy  EATOM  =     31685.62717035
  ---------------------------------------------------
  free energy    TOTEN  =      -907.63157500 eV

  energy without entropy =     -907.63157500  energy(sigma->0) =     -907.63157500
  exchange ACFDT corr.  =         0.00000000  see jH, gK, PRB 81, 115126


--------------------------------------------------------------------------------------------------------




--------------------------------------- Iteration      1(  53)  ---------------------------------------


    POTLOK:  cpu time      0.2314: real time      0.2320
    SETDIJ:  cpu time      0.4490: real time      0.4504
    TRIAL :  cpu time     31.0972: real time     32.0379
    CORREC:  cpu time     30.7758: real time     31.2010
    CHARGE:  cpu time      0.2178: real time      0.2184
    --------------------------------------------
      LOOP:  cpu time     62.7738: real time     64.1477

 eigenvalue-minimisations  :     0
 total energy-change (2. order) :-0.7757391E-02  (-0.8019032E-02)
 number of electron     321.9999974 magnetization 
 augmentation part       50.9122381 magnetization 

 Free energy of the ion-electron system (eV)
  ---------------------------------------------------
  alpha Z        PSCENC =       379.72439301
  Ewald energy   TEWEN  =     18509.04670523
  -Hartree energ DENC   =    -47240.91701086
  -exchange      EXHF   =      4567.11311336
  -V(xc)+E(xc)   XCENC  =         0.00000000
  PAW double counting   =     32035.68716760   -32280.49030344
  entropy T*S    EENTRO =        -0.00000000
  eigenvalues    EBANDS =     -8563.43056765
  atomic energy  EATOM  =     31685.62717035
  ---------------------------------------------------
  free energy    TOTEN  =      -907.63933240 eV

  energy without entropy =     -907.63933240  energy(sigma->0) =     -907.63933240
  exchange ACFDT corr.  =         0.00000000  see jH, gK, PRB 81, 115126


--------------------------------------------------------------------------------------------------------




--------------------------------------- Iteration      1(  54)  ---------------------------------------


    POTLOK:  cpu time      0.2301: real time      0.2312
    SETDIJ:  cpu time      0.4440: real time      0.4450
    TRIAL :  cpu time     30.8001: real time     30.9270
    CORREC:  cpu time     30.8266: real time     31.4567
    CHARGE:  cpu time      0.2157: real time      0.2165
    --------------------------------------------
      LOOP:  cpu time     62.5192: real time     63.2840

 eigenvalue-minimisations  :     0
 total energy-change (2. order) :-0.7990468E-02  (-0.5505722E-02)
 number of electron     321.9999974 magnetization 
 augmentation part       50.9163709 magnetization 

 Free energy of the ion-electron system (eV)
  ---------------------------------------------------
  alpha Z        PSCENC =       379.72439301
  Ewald energy   TEWEN  =     18509.04670523
  -Hartree energ DENC   =    -47243.48710545
  -exchange      EXHF   =      4567.30496360
  -V(xc)+E(xc)   XCENC  =         0.00000000
  PAW double counting   =     32036.77325351   -32281.54016280
  entropy T*S    EENTRO =        -0.00000000
  eigenvalues    EBANDS =     -8561.09654033
  atomic energy  EATOM  =     31685.62717035
  ---------------------------------------------------
  free energy    TOTEN  =      -907.64732286 eV

  energy without entropy =     -907.64732286  energy(sigma->0) =     -907.64732286
  exchange ACFDT corr.  =         0.00000000  see jH, gK, PRB 81, 115126


--------------------------------------------------------------------------------------------------------




--------------------------------------- Iteration      1(  55)  ---------------------------------------


    POTLOK:  cpu time      0.2355: real time      0.2362
    SETDIJ:  cpu time      0.4383: real time      0.4395
    TRIAL :  cpu time     30.8206: real time     31.0195
    CORREC:  cpu time     30.7657: real time     31.1780
    CHARGE:  cpu time      0.2174: real time      0.2183
    --------------------------------------------
      LOOP:  cpu time     62.4801: real time     63.0999

 eigenvalue-minimisations  :     0
 total energy-change (2. order) :-0.5543086E-02  (-0.4071014E-02)
 number of electron     321.9999974 magnetization 
 augmentation part       50.9193217 magnetization 

 Free energy of the ion-electron system (eV)
  ---------------------------------------------------
  alpha Z        PSCENC =       379.72439301
  Ewald energy   TEWEN  =     18509.04670523
  -Hartree energ DENC   =    -47244.84665789
  -exchange      EXHF   =      4567.43600035
  -V(xc)+E(xc)   XCENC  =         0.00000000
  PAW double counting   =     32037.05043094   -32281.77174097
  entropy T*S    EENTRO =        -0.00000000
  eigenvalues    EBANDS =     -8559.91916697
  atomic energy  EATOM  =     31685.62717035
  ---------------------------------------------------
  free energy    TOTEN  =      -907.65286595 eV

  energy without entropy =     -907.65286595  energy(sigma->0) =     -907.65286595
  exchange ACFDT corr.  =         0.00000000  see jH, gK, PRB 81, 115126


--------------------------------------------------------------------------------------------------------




--------------------------------------- Iteration      1(  56)  ---------------------------------------


    POTLOK:  cpu time      0.2300: real time      0.2305
    SETDIJ:  cpu time      0.4455: real time      0.4466
    TRIAL :  cpu time     30.8970: real time     31.0052
    CORREC:  cpu time     30.6361: real time     31.0728
    CHARGE:  cpu time      0.2143: real time      0.2152
    --------------------------------------------
      LOOP:  cpu time     62.4260: real time     62.9781

 eigenvalue-minimisations  :     0
 total energy-change (2. order) :-0.4129901E-02  (-0.4136220E-02)
 number of electron     321.9999974 magnetization 
 augmentation part       50.9197706 magnetization 

 Free energy of the ion-electron system (eV)
  ---------------------------------------------------
  alpha Z        PSCENC =       379.72439301
  Ewald energy   TEWEN  =     18509.04670523
  -Hartree energ DENC   =    -47245.51396369
  -exchange      EXHF   =      4567.49772101
  -V(xc)+E(xc)   XCENC  =         0.00000000
  PAW double counting   =     32037.16506842   -32281.88062801
  entropy T*S    EENTRO =        -0.00000000
  eigenvalues    EBANDS =     -8559.32346218
  atomic energy  EATOM  =     31685.62717035
  ---------------------------------------------------
  free energy    TOTEN  =      -907.65699585 eV

  energy without entropy =     -907.65699585  energy(sigma->0) =     -907.65699585
  exchange ACFDT corr.  =         0.00000000  see jH, gK, PRB 81, 115126


--------------------------------------------------------------------------------------------------------




--------------------------------------- Iteration      1(  57)  ---------------------------------------


    POTLOK:  cpu time      0.2337: real time      0.2342
    SETDIJ:  cpu time      0.4509: real time      0.4520
    TRIAL :  cpu time     30.8398: real time     30.9951
    CORREC:  cpu time     30.5670: real time     31.0281
    CHARGE:  cpu time      0.2144: real time      0.2152
    --------------------------------------------
      LOOP:  cpu time     62.3085: real time     62.9327

 eigenvalue-minimisations  :     0
 total energy-change (2. order) :-0.4248893E-02  (-0.5098256E-02)
 number of electron     321.9999974 magnetization 
 augmentation part       50.9174710 magnetization 

 Free energy of the ion-electron system (eV)
  ---------------------------------------------------
  alpha Z        PSCENC =       379.72439301
  Ewald energy   TEWEN  =     18509.04670523
  -Hartree energ DENC   =    -47245.28812042
  -exchange      EXHF   =      4567.50568573
  -V(xc)+E(xc)   XCENC  =         0.00000000
  PAW double counting   =     32036.63474016   -32281.33719828
  entropy T*S    EENTRO =        -0.00000000
  eigenvalues    EBANDS =     -8559.57462054
  atomic energy  EATOM  =     31685.62717035
  ---------------------------------------------------
  free energy    TOTEN  =      -907.66124474 eV

  energy without entropy =     -907.66124474  energy(sigma->0) =     -907.66124474
  exchange ACFDT corr.  =         0.00000000  see jH, gK, PRB 81, 115126


--------------------------------------------------------------------------------------------------------




--------------------------------------- Iteration      1(  58)  ---------------------------------------


    POTLOK:  cpu time      0.2297: real time      0.2302
    SETDIJ:  cpu time      0.4509: real time      0.4520
    TRIAL :  cpu time     30.6191: real time     30.9262
    CORREC:  cpu time     30.2450: real time     31.3580
    CHARGE:  cpu time      0.2143: real time      0.2148
    --------------------------------------------
      LOOP:  cpu time     61.7623: real time     63.1890

 eigenvalue-minimisations  :     0
 total energy-change (2. order) :-0.5203157E-02  (-0.3880846E-02)
 number of electron     321.9999974 magnetization 
 augmentation part       50.9163320 magnetization 

 Free energy of the ion-electron system (eV)
  ---------------------------------------------------
  alpha Z        PSCENC =       379.72439301
  Ewald energy   TEWEN  =     18509.04670523
  -Hartree energ DENC   =    -47244.12315449
  -exchange      EXHF   =      4567.46463199
  -V(xc)+E(xc)   XCENC  =         0.00000000
  PAW double counting   =     32035.23728507   -32279.90753028
  entropy T*S    EENTRO =        -0.00000000
  eigenvalues    EBANDS =     -8560.73594878
  atomic energy  EATOM  =     31685.62717035
  ---------------------------------------------------
  free energy    TOTEN  =      -907.66644790 eV

  energy without entropy =     -907.66644790  energy(sigma->0) =     -907.66644790
  exchange ACFDT corr.  =         0.00000000  see jH, gK, PRB 81, 115126


--------------------------------------------------------------------------------------------------------




--------------------------------------- Iteration      1(  59)  ---------------------------------------


    POTLOK:  cpu time      0.2295: real time      0.2301
    SETDIJ:  cpu time      0.4379: real time      0.4390
    TRIAL :  cpu time     30.7287: real time     30.9874
    CORREC:  cpu time     30.9501: real time     31.3966
    CHARGE:  cpu time      0.2149: real time      0.2154
    --------------------------------------------
      LOOP:  cpu time     62.5631: real time     63.2761

 eigenvalue-minimisations  :     0
 total energy-change (2. order) :-0.3904096E-02  (-0.2751780E-02)
 number of electron     321.9999974 magnetization 
 augmentation part       50.9146091 magnetization 

 Free energy of the ion-electron system (eV)
  ---------------------------------------------------
  alpha Z        PSCENC =       379.72439301
  Ewald energy   TEWEN  =     18509.04670523
  -Hartree energ DENC   =    -47243.20175877
  -exchange      EXHF   =      4567.40979894
  -V(xc)+E(xc)   XCENC  =         0.00000000
  PAW double counting   =     32034.22526409   -32278.91439090
  entropy T*S    EENTRO =        -0.00000000
  eigenvalues    EBANDS =     -8561.58753395
  atomic energy  EATOM  =     31685.62717035
  ---------------------------------------------------
  free energy    TOTEN  =      -907.67035200 eV

  energy without entropy =     -907.67035200  energy(sigma->0) =     -907.67035200
  exchange ACFDT corr.  =         0.00000000  see jH, gK, PRB 81, 115126


--------------------------------------------------------------------------------------------------------




--------------------------------------- Iteration      1(  60)  ---------------------------------------


    POTLOK:  cpu time      0.2290: real time      0.2300
    SETDIJ:  cpu time      0.4514: real time      0.4527
    TRIAL :  cpu time     30.7032: real time     31.2995
    CORREC:  cpu time     30.6871: real time     31.0288
    CHARGE:  cpu time      0.2149: real time      0.2155
    --------------------------------------------
      LOOP:  cpu time     62.2882: real time     63.2340

 eigenvalue-minimisations  :     0
 total energy-change (2. order) :-0.2765120E-02  (-0.3112693E-02)
 number of electron     321.9999974 magnetization 
 augmentation part       50.9128781 magnetization 

 Free energy of the ion-electron system (eV)
  ---------------------------------------------------
  alpha Z        PSCENC =       379.72439301
  Ewald energy   TEWEN  =     18509.04670523
  -Hartree energ DENC   =    -47242.36736657
  -exchange      EXHF   =      4567.36048924
  -V(xc)+E(xc)   XCENC  =         0.00000000
  PAW double counting   =     32033.20279048   -32277.89524079
  entropy T*S    EENTRO =        -0.00000000
  eigenvalues    EBANDS =     -8562.37205807
  atomic energy  EATOM  =     31685.62717035
  ---------------------------------------------------
  free energy    TOTEN  =      -907.67311712 eV

  energy without entropy =     -907.67311712  energy(sigma->0) =     -907.67311712
  exchange ACFDT corr.  =         0.00000000  see jH, gK, PRB 81, 115126


--------------------------------------------------------------------------------------------------------




--------------------------------------- Iteration      1(  61)  ---------------------------------------


    POTLOK:  cpu time      0.2285: real time      0.2295
    SETDIJ:  cpu time      0.4497: real time      0.4510
    TRIAL :  cpu time     30.3786: real time     31.1149
    CORREC:  cpu time     30.8442: real time     30.9974
    CHARGE:  cpu time      0.2147: real time      0.2153
    --------------------------------------------
      LOOP:  cpu time     62.1184: real time     63.0164

 eigenvalue-minimisations  :     0
 total energy-change (2. order) :-0.3121650E-02  (-0.3398865E-02)
 number of electron     321.9999974 magnetization 
 augmentation part       50.9115841 magnetization 

 Free energy of the ion-electron system (eV)
  ---------------------------------------------------
  alpha Z        PSCENC =       379.72439301
  Ewald energy   TEWEN  =     18509.04670523
  -Hartree energ DENC   =    -47241.59456644
  -exchange      EXHF   =      4567.30269152
  -V(xc)+E(xc)   XCENC  =         0.00000000
  PAW double counting   =     32032.08645234   -32276.78258078
  entropy T*S    EENTRO =        -0.00000000
  eigenvalues    EBANDS =     -8563.08650402
  atomic energy  EATOM  =     31685.62717035
  ---------------------------------------------------
  free energy    TOTEN  =      -907.67623877 eV

  energy without entropy =     -907.67623877  energy(sigma->0) =     -907.67623877
  exchange ACFDT corr.  =        -0.00000000  see jH, gK, PRB 81, 115126


--------------------------------------------------------------------------------------------------------




--------------------------------------- Iteration      1(  62)  ---------------------------------------


    POTLOK:  cpu time      0.2281: real time      0.2290
    SETDIJ:  cpu time      0.4413: real time      0.4425
    TRIAL :  cpu time     30.5747: real time     31.0057
    CORREC:  cpu time     30.9546: real time     31.0937
    CHARGE:  cpu time      0.2150: real time      0.2155
    --------------------------------------------
      LOOP:  cpu time     62.4157: real time     62.9947

 eigenvalue-minimisations  :     0
 total energy-change (2. order) :-0.3384811E-02  (-0.2663711E-02)
 number of electron     321.9999974 magnetization 
 augmentation part       50.9124721 magnetization 

 Free energy of the ion-electron system (eV)
  ---------------------------------------------------
  alpha Z        PSCENC =       379.72439301
  Ewald energy   TEWEN  =     18509.04670523
  -Hartree energ DENC   =    -47240.99083064
  -exchange      EXHF   =      4567.26219812
  -V(xc)+E(xc)   XCENC  =         0.00000000
  PAW double counting   =     32030.94995888   -32275.65683811
  entropy T*S    EENTRO =        -0.00000000
  eigenvalues    EBANDS =     -8563.64238041
  atomic energy  EATOM  =     31685.62717035
  ---------------------------------------------------
  free energy    TOTEN  =      -907.67962358 eV

  energy without entropy =     -907.67962358  energy(sigma->0) =     -907.67962358
  exchange ACFDT corr.  =        -0.00000000  see jH, gK, PRB 81, 115126


--------------------------------------------------------------------------------------------------------




--------------------------------------- Iteration      1(  63)  ---------------------------------------


    POTLOK:  cpu time      0.2247: real time      0.2362
    SETDIJ:  cpu time      0.4476: real time      0.4487
    TRIAL :  cpu time     30.5821: real time     31.7473
    CORREC:  cpu time     30.8129: real time     31.0072
    CHARGE:  cpu time      0.1776: real time      0.2561
    --------------------------------------------
      LOOP:  cpu time     62.2473: real time     63.7035

 eigenvalue-minimisations  :     0
 total energy-change (2. order) :-0.2655317E-02  (-0.2211474E-02)
 number of electron     321.9999974 magnetization 
 augmentation part       50.9133822 magnetization 

 Free energy of the ion-electron system (eV)
  ---------------------------------------------------
  alpha Z        PSCENC =       379.72439301
  Ewald energy   TEWEN  =     18509.04670523
  -Hartree energ DENC   =    -47241.06328856
  -exchange      EXHF   =      4567.26052617
  -V(xc)+E(xc)   XCENC  =         0.00000000
  PAW double counting   =     32030.59779673   -32275.34638069
  entropy T*S    EENTRO =        -0.00000000
  eigenvalues    EBANDS =     -8563.52920114
  atomic energy  EATOM  =     31685.62717035
  ---------------------------------------------------
  free energy    TOTEN  =      -907.68227890 eV

  energy without entropy =     -907.68227890  energy(sigma->0) =     -907.68227890
  exchange ACFDT corr.  =         0.00000000  see jH, gK, PRB 81, 115126


--------------------------------------------------------------------------------------------------------




--------------------------------------- Iteration      1(  64)  ---------------------------------------


    POTLOK:  cpu time      0.2293: real time      0.2298
    SETDIJ:  cpu time      0.4479: real time      0.4492
    TRIAL :  cpu time     30.5797: real time     30.9229
    CORREC:  cpu time     30.7414: real time     30.9324
    CHARGE:  cpu time      0.2153: real time      0.2159
    --------------------------------------------
      LOOP:  cpu time     62.2163: real time     62.7584

 eigenvalue-minimisations  :     0
 total energy-change (2. order) :-0.2191228E-02  (-0.2060387E-02)
 number of electron     321.9999974 magnetization 
 augmentation part       50.9140791 magnetization 

 Free energy of the ion-electron system (eV)
  ---------------------------------------------------
  alpha Z        PSCENC =       379.72439301
  Ewald energy   TEWEN  =     18509.04670523
  -Hartree energ DENC   =    -47241.41339157
  -exchange      EXHF   =      4567.28710899
  -V(xc)+E(xc)   XCENC  =         0.00000000
  PAW double counting   =     32030.62213963   -32275.39147406
  entropy T*S    EENTRO =        -0.00000000
  eigenvalues    EBANDS =     -8563.18712170
  atomic energy  EATOM  =     31685.62717035
  ---------------------------------------------------
  free energy    TOTEN  =      -907.68447012 eV

  energy without entropy =     -907.68447012  energy(sigma->0) =     -907.68447012
  exchange ACFDT corr.  =         0.00000000  see jH, gK, PRB 81, 115126


--------------------------------------------------------------------------------------------------------




--------------------------------------- Iteration      1(  65)  ---------------------------------------


    POTLOK:  cpu time      0.2288: real time      0.2294
    SETDIJ:  cpu time      0.1827: real time      0.4906
    TRIAL :  cpu time     31.4911: real time     31.9006
    CORREC:  cpu time     30.8694: real time     31.0104
    CHARGE:  cpu time      0.2164: real time      0.2172
    --------------------------------------------
      LOOP:  cpu time     62.9911: real time     63.8563

 eigenvalue-minimisations  :     0
 total energy-change (2. order) :-0.2048802E-02  (-0.2077818E-02)
 number of electron     321.9999974 magnetization 
 augmentation part       50.9145541 magnetization 

 Free energy of the ion-electron system (eV)
  ---------------------------------------------------
  alpha Z        PSCENC =       379.72439301
  Ewald energy   TEWEN  =     18509.04670523
  -Hartree energ DENC   =    -47241.91866435
  -exchange      EXHF   =      4567.32105138
  -V(xc)+E(xc)   XCENC  =         0.00000000
  PAW double counting   =     32030.94320766   -32275.71597643
  entropy T*S    EENTRO =        -0.00000000
  eigenvalues    EBANDS =     -8562.71440578
  atomic energy  EATOM  =     31685.62717035
  ---------------------------------------------------
  free energy    TOTEN  =      -907.68651893 eV

  energy without entropy =     -907.68651893  energy(sigma->0) =     -907.68651893
  exchange ACFDT corr.  =         0.00000000  see jH, gK, PRB 81, 115126


--------------------------------------------------------------------------------------------------------




--------------------------------------- Iteration      1(  66)  ---------------------------------------


    POTLOK:  cpu time      0.2295: real time      0.2301
    SETDIJ:  cpu time      0.4420: real time      0.4432
    TRIAL :  cpu time     30.9927: real time     31.4288
    CORREC:  cpu time     30.8459: real time     31.0403
    CHARGE:  cpu time      0.2179: real time      0.2187
    --------------------------------------------
      LOOP:  cpu time     62.7293: real time     63.3632

 eigenvalue-minimisations  :     0
 total energy-change (2. order) :-0.2075325E-02  (-0.1982851E-02)
 number of electron     321.9999974 magnetization 
 augmentation part       50.9154549 magnetization 

 Free energy of the ion-electron system (eV)
  ---------------------------------------------------
  alpha Z        PSCENC =       379.72439301
  Ewald energy   TEWEN  =     18509.04670523
  -Hartree energ DENC   =    -47242.39412635
  -exchange      EXHF   =      4567.35537296
  -V(xc)+E(xc)   XCENC  =         0.00000000
  PAW double counting   =     32031.39586589   -32276.17207490
  entropy T*S    EENTRO =        -0.00000000
  eigenvalues    EBANDS =     -8562.27190046
  atomic energy  EATOM  =     31685.62717035
  ---------------------------------------------------
  free energy    TOTEN  =      -907.68859425 eV

  energy without entropy =     -907.68859425  energy(sigma->0) =     -907.68859425
  exchange ACFDT corr.  =        -0.00000000  see jH, gK, PRB 81, 115126


--------------------------------------------------------------------------------------------------------




--------------------------------------- Iteration      1(  67)  ---------------------------------------


    POTLOK:  cpu time      0.2349: real time      0.2357
    SETDIJ:  cpu time      0.4466: real time      0.4481
    TRIAL :  cpu time     30.5540: real time     31.0126
    CORREC:  cpu time     31.0085: real time     31.1660
    CHARGE:  cpu time      0.2359: real time      0.2380
    --------------------------------------------
      LOOP:  cpu time     62.4810: real time     63.1025

 eigenvalue-minimisations  :     0
 total energy-change (2. order) :-0.1982758E-02  (-0.1970096E-02)
 number of electron     321.9999974 magnetization 
 augmentation part       50.9152725 magnetization 

 Free energy of the ion-electron system (eV)
  ---------------------------------------------------
  alpha Z        PSCENC =       379.72439301
  Ewald energy   TEWEN  =     18509.04670523
  -Hartree energ DENC   =    -47242.90564197
  -exchange      EXHF   =      4567.37577953
  -V(xc)+E(xc)   XCENC  =         0.00000000
  PAW double counting   =     32032.08742655   -32276.88501133
  entropy T*S    EENTRO =        -0.00000000
  eigenvalues    EBANDS =     -8561.76139838
  atomic energy  EATOM  =     31685.62717035
  ---------------------------------------------------
  free energy    TOTEN  =      -907.69057701 eV

  energy without entropy =     -907.69057701  energy(sigma->0) =     -907.69057701
  exchange ACFDT corr.  =        -0.00000000  see jH, gK, PRB 81, 115126


--------------------------------------------------------------------------------------------------------




--------------------------------------- Iteration      1(  68)  ---------------------------------------


    POTLOK:  cpu time      0.2627: real time      0.2876
    SETDIJ:  cpu time      0.4578: real time      0.4662
    TRIAL :  cpu time     30.9432: real time     31.2268
    CORREC:  cpu time     30.8430: real time     31.2047
    CHARGE:  cpu time      0.2369: real time      0.2698
    --------------------------------------------
      LOOP:  cpu time     62.7458: real time     63.4572

 eigenvalue-minimisations  :     0
 total energy-change (2. order) :-0.1975067E-02  (-0.2004142E-02)
 number of electron     321.9999974 magnetization 
 augmentation part       50.9142541 magnetization 

 Free energy of the ion-electron system (eV)
  ---------------------------------------------------
  alpha Z        PSCENC =       379.72439301
  Ewald energy   TEWEN  =     18509.04670523
  -Hartree energ DENC   =    -47243.08594506
  -exchange      EXHF   =      4567.37611639
  -V(xc)+E(xc)   XCENC  =         0.00000000
  PAW double counting   =     32032.58281232   -32277.38714314
  entropy T*S    EENTRO =        -0.00000000
  eigenvalues    EBANDS =     -8561.57666118
  atomic energy  EATOM  =     31685.62717035
  ---------------------------------------------------
  free energy    TOTEN  =      -907.69255208 eV

  energy without entropy =     -907.69255208  energy(sigma->0) =     -907.69255208
  exchange ACFDT corr.  =        -0.00000000  see jH, gK, PRB 81, 115126


--------------------------------------------------------------------------------------------------------




--------------------------------------- Iteration      1(  69)  ---------------------------------------


    POTLOK:  cpu time      0.2676: real time      0.3018
    SETDIJ:  cpu time      0.4239: real time      0.4457
    TRIAL :  cpu time     30.8455: real time     31.0004
    CORREC:  cpu time     30.8375: real time     31.1677
    CHARGE:  cpu time      0.2148: real time      0.2157
    --------------------------------------------
      LOOP:  cpu time     62.5968: real time     63.1388

 eigenvalue-minimisations  :     0
 total energy-change (2. order) :-0.2020053E-02  (-0.2103176E-02)
 number of electron     321.9999974 magnetization 
 augmentation part       50.9135462 magnetization 

 Free energy of the ion-electron system (eV)
  ---------------------------------------------------
  alpha Z        PSCENC =       379.72439301
  Ewald energy   TEWEN  =     18509.04670523
  -Hartree energ DENC   =    -47242.95962395
  -exchange      EXHF   =      4567.35173994
  -V(xc)+E(xc)   XCENC  =         0.00000000
  PAW double counting   =     32032.92479520   -32277.71915269
  entropy T*S    EENTRO =        -0.00000000
  eigenvalues    EBANDS =     -8561.69059923
  atomic energy  EATOM  =     31685.62717035
  ---------------------------------------------------
  free energy    TOTEN  =      -907.69457213 eV

  energy without entropy =     -907.69457213  energy(sigma->0) =     -907.69457213
  exchange ACFDT corr.  =        -0.00000000  see jH, gK, PRB 81, 115126


--------------------------------------------------------------------------------------------------------




--------------------------------------- Iteration      1(  70)  ---------------------------------------


    POTLOK:  cpu time      0.2356: real time      0.2362
    SETDIJ:  cpu time      0.4447: real time      0.4459
    TRIAL :  cpu time     30.9860: real time     31.0788
    CORREC:  cpu time     30.7184: real time     31.8635
    CHARGE:  cpu time      0.2150: real time      0.2155
    --------------------------------------------
      LOOP:  cpu time     62.6015: real time     63.8417

 eigenvalue-minimisations  :     0
 total energy-change (2. order) :-0.2119289E-02  (-0.1514866E-02)
 number of electron     321.9999974 magnetization 
 augmentation part       50.9137341 magnetization 

 Free energy of the ion-electron system (eV)
  ---------------------------------------------------
  alpha Z        PSCENC =       379.72439301
  Ewald energy   TEWEN  =     18509.04670523
  -Hartree energ DENC   =    -47242.72715724
  -exchange      EXHF   =      4567.31270497
  -V(xc)+E(xc)   XCENC  =         0.00000000
  PAW double counting   =     32033.31441341   -32278.10268531
  entropy T*S    EENTRO =        -0.00000000
  eigenvalues    EBANDS =     -8561.89223585
  atomic energy  EATOM  =     31685.62717035
  ---------------------------------------------------
  free energy    TOTEN  =      -907.69669142 eV

  energy without entropy =     -907.69669142  energy(sigma->0) =     -907.69669142
  exchange ACFDT corr.  =        -0.00000000  see jH, gK, PRB 81, 115126


--------------------------------------------------------------------------------------------------------




--------------------------------------- Iteration      1(  71)  ---------------------------------------


    POTLOK:  cpu time      0.2313: real time      0.2323
    SETDIJ:  cpu time      0.4508: real time      0.4519
    TRIAL :  cpu time     30.9098: real time     31.0025
    CORREC:  cpu time     30.7577: real time     31.0810
    CHARGE:  cpu time      0.2146: real time      0.2152
    --------------------------------------------
      LOOP:  cpu time     62.5661: real time     62.9846

 eigenvalue-minimisations  :     0
 total energy-change (2. order) :-0.1514865E-02  (-0.1291596E-02)
 number of electron     321.9999974 magnetization 
 augmentation part       50.9142123 magnetization 

 Free energy of the ion-electron system (eV)
  ---------------------------------------------------
  alpha Z        PSCENC =       379.72439301
  Ewald energy   TEWEN  =     18509.04670523
  -Hartree energ DENC   =    -47242.66302568
  -exchange      EXHF   =      4567.31273021
  -V(xc)+E(xc)   XCENC  =         0.00000000
  PAW double counting   =     32033.26033470   -32278.04785092
  entropy T*S    EENTRO =        -0.00000000
  eigenvalues    EBANDS =     -8561.95866319
  atomic energy  EATOM  =     31685.62717035
  ---------------------------------------------------
  free energy    TOTEN  =      -907.69820628 eV

  energy without entropy =     -907.69820628  energy(sigma->0) =     -907.69820628
  exchange ACFDT corr.  =        -0.00000000  see jH, gK, PRB 81, 115126


--------------------------------------------------------------------------------------------------------




--------------------------------------- Iteration      1(  72)  ---------------------------------------


    POTLOK:  cpu time      0.2307: real time      0.2316
    SETDIJ:  cpu time      0.4489: real time      0.4500
    TRIAL :  cpu time     31.0341: real time     31.2264
    CORREC:  cpu time     31.0304: real time     31.4482
    CHARGE:  cpu time      0.2145: real time      0.2152
    --------------------------------------------
      LOOP:  cpu time     62.9605: real time     63.5733

 eigenvalue-minimisations  :     0
 total energy-change (2. order) :-0.1291607E-02  (-0.1272465E-02)
 number of electron     321.9999974 magnetization 
 augmentation part       50.9140161 magnetization 

 Free energy of the ion-electron system (eV)
  ---------------------------------------------------
  alpha Z        PSCENC =       379.72439301
  Ewald energy   TEWEN  =     18509.04670523
  -Hartree energ DENC   =    -47242.60070517
  -exchange      EXHF   =      4567.30686359
  -V(xc)+E(xc)   XCENC  =         0.00000000
  PAW double counting   =     32033.24084115   -32278.02821558
  entropy T*S    EENTRO =        -0.00000000
  eigenvalues    EBANDS =     -8562.01655048
  atomic energy  EATOM  =     31685.62717035
  ---------------------------------------------------
  free energy    TOTEN  =      -907.69949789 eV

  energy without entropy =     -907.69949789  energy(sigma->0) =     -907.69949789
  exchange ACFDT corr.  =        -0.00000000  see jH, gK, PRB 81, 115126


--------------------------------------------------------------------------------------------------------




--------------------------------------- Iteration      1(  73)  ---------------------------------------


    POTLOK:  cpu time      0.2317: real time      0.2323
    SETDIJ:  cpu time      0.4468: real time      0.4482
    TRIAL :  cpu time     30.8605: real time     30.9786
    CORREC:  cpu time     30.9987: real time     31.4744
    CHARGE:  cpu time      0.2148: real time      0.2157
    --------------------------------------------
      LOOP:  cpu time     62.7545: real time     63.3512

 eigenvalue-minimisations  :     0
 total energy-change (2. order) :-0.1272494E-02  (-0.1122780E-02)
 number of electron     321.9999974 magnetization 
 augmentation part       50.9138415 magnetization 

 Free energy of the ion-electron system (eV)
  ---------------------------------------------------
  alpha Z        PSCENC =       379.72439301
  Ewald energy   TEWEN  =     18509.04670523
  -Hartree energ DENC   =    -47242.40186496
  -exchange      EXHF   =      4567.29370043
  -V(xc)+E(xc)   XCENC  =         0.00000000
  PAW double counting   =     32033.11033397   -32277.87564344
  entropy T*S    EENTRO =        -0.00000000
  eigenvalues    EBANDS =     -8562.22556497
  atomic energy  EATOM  =     31685.62717035
  ---------------------------------------------------
  free energy    TOTEN  =      -907.70077038 eV

  energy without entropy =     -907.70077038  energy(sigma->0) =     -907.70077038
  exchange ACFDT corr.  =         0.00000000  see jH, gK, PRB 81, 115126


--------------------------------------------------------------------------------------------------------




--------------------------------------- Iteration      1(  74)  ---------------------------------------


    POTLOK:  cpu time      0.2316: real time      0.2327
    SETDIJ:  cpu time      0.4500: real time      0.4512
    TRIAL :  cpu time     30.8114: real time     30.9605
    CORREC:  cpu time     31.1045: real time     31.4830
    CHARGE:  cpu time      0.2162: real time      0.2170
    --------------------------------------------
      LOOP:  cpu time     62.8154: real time     63.3464

 eigenvalue-minimisations  :     0
 total energy-change (2. order) :-0.1122782E-02  (-0.9164023E-03)
 number of electron     321.9999974 magnetization 
 augmentation part       50.9141904 magnetization 

 Free energy of the ion-electron system (eV)
  ---------------------------------------------------
  alpha Z        PSCENC =       379.72439301
  Ewald energy   TEWEN  =     18509.04670523
  -Hartree energ DENC   =    -47242.22632635
  -exchange      EXHF   =      4567.28780984
  -V(xc)+E(xc)   XCENC  =         0.00000000
  PAW double counting   =     32033.01976540   -32277.76882207
  entropy T*S    EENTRO =        -0.00000000
  eigenvalues    EBANDS =     -8562.41258857
  atomic energy  EATOM  =     31685.62717035
  ---------------------------------------------------
  free energy    TOTEN  =      -907.70189317 eV

  energy without entropy =     -907.70189317  energy(sigma->0) =     -907.70189317
  exchange ACFDT corr.  =         0.00000000  see jH, gK, PRB 81, 115126


--------------------------------------------------------------------------------------------------------




--------------------------------------- Iteration      1(  75)  ---------------------------------------


    POTLOK:  cpu time      0.2286: real time      0.2291
    SETDIJ:  cpu time      0.4490: real time      0.4502
    TRIAL :  cpu time     31.1486: real time     31.3749
    CORREC:  cpu time     30.6803: real time     31.0955
    CHARGE:  cpu time      0.2153: real time      0.2159
    --------------------------------------------
      LOOP:  cpu time     62.7225: real time     63.3674

 eigenvalue-minimisations  :     0
 total energy-change (2. order) :-0.9164116E-03  (-0.9115469E-03)
 number of electron     321.9999974 magnetization 
 augmentation part       50.9138737 magnetization 

 Free energy of the ion-electron system (eV)
  ---------------------------------------------------
  alpha Z        PSCENC =       379.72439301
  Ewald energy   TEWEN  =     18509.04670523
  -Hartree energ DENC   =    -47242.25834630
  -exchange      EXHF   =      4567.28859741
  -V(xc)+E(xc)   XCENC  =         0.00000000
  PAW double counting   =     32033.18299917   -32277.93381830
  entropy T*S    EENTRO =        -0.00000000
  eigenvalues    EBANDS =     -8562.38051016
  atomic energy  EATOM  =     31685.62717035
  ---------------------------------------------------
  free energy    TOTEN  =      -907.70280958 eV

  energy without entropy =     -907.70280958  energy(sigma->0) =     -907.70280958
  exchange ACFDT corr.  =         0.00000000  see jH, gK, PRB 81, 115126


--------------------------------------------------------------------------------------------------------




--------------------------------------- Iteration      1(  76)  ---------------------------------------


    POTLOK:  cpu time      0.2296: real time      0.2302
    SETDIJ:  cpu time      0.4488: real time      0.4501
    TRIAL :  cpu time     31.2306: real time     31.4131
    CORREC:  cpu time     30.9857: real time     31.4472
    CHARGE:  cpu time      0.2148: real time      0.2153
    --------------------------------------------
      LOOP:  cpu time     63.1113: real time     63.7579

 eigenvalue-minimisations  :     0
 total energy-change (2. order) :-0.9114712E-03  (-0.1402157E-02)
 number of electron     321.9999974 magnetization 
 augmentation part       50.9131297 magnetization 

 Free energy of the ion-electron system (eV)
  ---------------------------------------------------
  alpha Z        PSCENC =       379.72439301
  Ewald energy   TEWEN  =     18509.04670523
  -Hartree energ DENC   =    -47242.31226335
  -exchange      EXHF   =      4567.28954355
  -V(xc)+E(xc)   XCENC  =         0.00000000
  PAW double counting   =     32033.38580690   -32278.12484876
  entropy T*S    EENTRO =        -0.00000000
  eigenvalues    EBANDS =     -8562.34022798
  atomic energy  EATOM  =     31685.62717035
  ---------------------------------------------------
  free energy    TOTEN  =      -907.70372105 eV

  energy without entropy =     -907.70372105  energy(sigma->0) =     -907.70372105
  exchange ACFDT corr.  =         0.00000000  see jH, gK, PRB 81, 115126


--------------------------------------------------------------------------------------------------------




--------------------------------------- Iteration      1(  77)  ---------------------------------------


    POTLOK:  cpu time      0.2291: real time      0.2297
    SETDIJ:  cpu time      0.4483: real time      0.4497
    TRIAL :  cpu time     30.7415: real time     30.9807
    CORREC:  cpu time     31.0906: real time     31.3539
    CHARGE:  cpu time      0.2147: real time      0.2152
    --------------------------------------------
      LOOP:  cpu time     62.7262: real time     63.2312

 eigenvalue-minimisations  :     0
 total energy-change (2. order) :-0.1401850E-02  (-0.1572089E-02)
 number of electron     321.9999974 magnetization 
 augmentation part       50.9128982 magnetization 

 Free energy of the ion-electron system (eV)
  ---------------------------------------------------
  alpha Z        PSCENC =       379.72439301
  Ewald energy   TEWEN  =     18509.04670523
  -Hartree energ DENC   =    -47242.45907345
  -exchange      EXHF   =      4567.29524632
  -V(xc)+E(xc)   XCENC  =         0.00000000
  PAW double counting   =     32033.76850047   -32278.48799694
  entropy T*S    EENTRO =        -0.00000000
  eigenvalues    EBANDS =     -8562.22006789
  atomic energy  EATOM  =     31685.62717035
  ---------------------------------------------------
  free energy    TOTEN  =      -907.70512290 eV

  energy without entropy =     -907.70512290  energy(sigma->0) =     -907.70512290
  exchange ACFDT corr.  =         0.00000000  see jH, gK, PRB 81, 115126


--------------------------------------------------------------------------------------------------------




--------------------------------------- Iteration      1(  78)  ---------------------------------------


    POTLOK:  cpu time      0.2375: real time      0.2453
    SETDIJ:  cpu time      0.4334: real time      0.4479
    TRIAL :  cpu time     30.6482: real time     31.0307
    CORREC:  cpu time     30.9702: real time     31.1108
    CHARGE:  cpu time      0.2147: real time      0.2152
    --------------------------------------------
      LOOP:  cpu time     62.5057: real time     63.0517

 eigenvalue-minimisations  :     0
 total energy-change (2. order) :-0.1571870E-02  (-0.1129923E-02)
 number of electron     321.9999974 magnetization 
 augmentation part       50.9128581 magnetization 

 Free energy of the ion-electron system (eV)
  ---------------------------------------------------
  alpha Z        PSCENC =       379.72439301
  Ewald energy   TEWEN  =     18509.04670523
  -Hartree energ DENC   =    -47242.76605427
  -exchange      EXHF   =      4567.30800505
  -V(xc)+E(xc)   XCENC  =         0.00000000
  PAW double counting   =     32034.32462395   -32279.03800205
  entropy T*S    EENTRO =        -0.00000000
  eigenvalues    EBANDS =     -8561.93353604
  atomic energy  EATOM  =     31685.62717035
  ---------------------------------------------------
  free energy    TOTEN  =      -907.70669477 eV

  energy without entropy =     -907.70669477  energy(sigma->0) =     -907.70669477
  exchange ACFDT corr.  =         0.00000000  see jH, gK, PRB 81, 115126


--------------------------------------------------------------------------------------------------------




--------------------------------------- Iteration      1(  79)  ---------------------------------------


    POTLOK:  cpu time      0.2296: real time      0.2302
    SETDIJ:  cpu time      0.4486: real time      0.4500
    TRIAL :  cpu time     30.5050: real time     30.9864
    CORREC:  cpu time     30.9520: real time     31.0425
    CHARGE:  cpu time      0.2176: real time      0.2182
    --------------------------------------------
      LOOP:  cpu time     62.3547: real time     62.9291

 eigenvalue-minimisations  :     0
 total energy-change (2. order) :-0.1129892E-02  (-0.9867160E-03)
 number of electron     321.9999974 magnetization 
 augmentation part       50.9134071 magnetization 

 Free energy of the ion-electron system (eV)
  ---------------------------------------------------
  alpha Z        PSCENC =       379.72439301
  Ewald energy   TEWEN  =     18509.04670523
  -Hartree energ DENC   =    -47243.00944537
  -exchange      EXHF   =      4567.31777559
  -V(xc)+E(xc)   XCENC  =         0.00000000
  PAW double counting   =     32034.67357053   -32279.38206649
  entropy T*S    EENTRO =        -0.00000000
  eigenvalues    EBANDS =     -8561.70592752
  atomic energy  EATOM  =     31685.62717035
  ---------------------------------------------------
  free energy    TOTEN  =      -907.70782466 eV

  energy without entropy =     -907.70782466  energy(sigma->0) =     -907.70782466
  exchange ACFDT corr.  =         0.00000000  see jH, gK, PRB 81, 115126


--------------------------------------------------------------------------------------------------------




--------------------------------------- Iteration      1(  80)  ---------------------------------------


    POTLOK:  cpu time      0.2288: real time      0.2294
    SETDIJ:  cpu time      0.4483: real time      0.4497
    TRIAL :  cpu time     32.0146: real time     32.4739
    CORREC:  cpu time     30.8989: real time     31.0674
    CHARGE:  cpu time      0.2176: real time      0.2183
    --------------------------------------------
      LOOP:  cpu time     63.8102: real time     64.4406

 eigenvalue-minimisations  :     0
 total energy-change (2. order) :-0.9866937E-03  (-0.1025117E-02)
 number of electron     321.9999974 magnetization 
 augmentation part       50.9137269 magnetization 

 Free energy of the ion-electron system (eV)
  ---------------------------------------------------
  alpha Z        PSCENC =       379.72439301
  Ewald energy   TEWEN  =     18509.04670523
  -Hartree energ DENC   =    -47243.28905275
  -exchange      EXHF   =      4567.32532711
  -V(xc)+E(xc)   XCENC  =         0.00000000
  PAW double counting   =     32034.98087681   -32279.69688202
  entropy T*S    EENTRO =        -0.00000000
  eigenvalues    EBANDS =     -8561.42734909
  atomic energy  EATOM  =     31685.62717035
  ---------------------------------------------------
  free energy    TOTEN  =      -907.70881135 eV

  energy without entropy =     -907.70881135  energy(sigma->0) =     -907.70881135
  exchange ACFDT corr.  =         0.00000000  see jH, gK, PRB 81, 115126


--------------------------------------------------------------------------------------------------------




--------------------------------------- Iteration      1(  81)  ---------------------------------------


    POTLOK:  cpu time      0.2314: real time      0.2320
    SETDIJ:  cpu time      0.4496: real time      0.4507
    TRIAL :  cpu time     30.5702: real time     31.0542
    CORREC:  cpu time     30.8950: real time     31.1499
    CHARGE:  cpu time      0.2176: real time      0.2186
    --------------------------------------------
      LOOP:  cpu time     62.3658: real time     63.1074

 eigenvalue-minimisations  :     0
 total energy-change (2. order) :-0.1025110E-02  (-0.1127824E-02)
 number of electron     321.9999974 magnetization 
 augmentation part       50.9143307 magnetization 

 Free energy of the ion-electron system (eV)
  ---------------------------------------------------
  alpha Z        PSCENC =       379.72439301
  Ewald energy   TEWEN  =     18509.04670523
  -Hartree energ DENC   =    -47243.42800546
  -exchange      EXHF   =      4567.32953875
  -V(xc)+E(xc)   XCENC  =         0.00000000
  PAW double counting   =     32035.07506783   -32279.79429565
  entropy T*S    EENTRO =        -0.00000000
  eigenvalues    EBANDS =     -8561.29041052
  atomic energy  EATOM  =     31685.62717035
  ---------------------------------------------------
  free energy    TOTEN  =      -907.70983646 eV

  energy without entropy =     -907.70983646  energy(sigma->0) =     -907.70983646
  exchange ACFDT corr.  =         0.00000000  see jH, gK, PRB 81, 115126


--------------------------------------------------------------------------------------------------------




--------------------------------------- Iteration      1(  82)  ---------------------------------------


    POTLOK:  cpu time      0.2307: real time      0.2313
    SETDIJ:  cpu time      0.4456: real time      0.4467
    TRIAL :  cpu time     30.8962: real time     31.3821
    CORREC:  cpu time     31.0304: real time     31.1433
    CHARGE:  cpu time      0.2149: real time      0.2155
    --------------------------------------------
      LOOP:  cpu time     62.8199: real time     63.4209

 eigenvalue-minimisations  :     0
 total energy-change (2. order) :-0.1127733E-02  (-0.1128571E-02)
 number of electron     321.9999974 magnetization 
 augmentation part       50.9144416 magnetization 

 Free energy of the ion-electron system (eV)
  ---------------------------------------------------
  alpha Z        PSCENC =       379.72439301
  Ewald energy   TEWEN  =     18509.04670523
  -Hartree energ DENC   =    -47243.55920593
  -exchange      EXHF   =      4567.32598004
  -V(xc)+E(xc)   XCENC  =         0.00000000
  PAW double counting   =     32035.16755612   -32279.89566339
  entropy T*S    EENTRO =        -0.00000000
  eigenvalues    EBANDS =     -8561.14789963
  atomic energy  EATOM  =     31685.62717035
  ---------------------------------------------------
  free energy    TOTEN  =      -907.71096420 eV

  energy without entropy =     -907.71096420  energy(sigma->0) =     -907.71096420
  exchange ACFDT corr.  =         0.00000000  see jH, gK, PRB 81, 115126


--------------------------------------------------------------------------------------------------------




--------------------------------------- Iteration      1(  83)  ---------------------------------------


    POTLOK:  cpu time      0.2308: real time      0.2314
    SETDIJ:  cpu time      0.4449: real time      0.4463
    TRIAL :  cpu time     31.0105: real time     31.3121
    CORREC:  cpu time     30.8606: real time     31.0860
    CHARGE:  cpu time      0.2180: real time      0.2185
    --------------------------------------------
      LOOP:  cpu time     62.7666: real time     63.2962

 eigenvalue-minimisations  :     0
 total energy-change (2. order) :-0.1128404E-02  (-0.1289937E-02)
 number of electron     321.9999974 magnetization 
 augmentation part       50.9149363 magnetization 

 Free energy of the ion-electron system (eV)
  ---------------------------------------------------
  alpha Z        PSCENC =       379.72439301
  Ewald energy   TEWEN  =     18509.04670523
  -Hartree energ DENC   =    -47243.49601277
  -exchange      EXHF   =      4567.32028236
  -V(xc)+E(xc)   XCENC  =         0.00000000
  PAW double counting   =     32035.06971502   -32279.80185514
  entropy T*S    EENTRO =        -0.00000000
  eigenvalues    EBANDS =     -8561.20249067
  atomic energy  EATOM  =     31685.62717035
  ---------------------------------------------------
  free energy    TOTEN  =      -907.71209260 eV

  energy without entropy =     -907.71209260  energy(sigma->0) =     -907.71209260
  exchange ACFDT corr.  =         0.00000000  see jH, gK, PRB 81, 115126


--------------------------------------------------------------------------------------------------------




--------------------------------------- Iteration      1(  84)  ---------------------------------------


    POTLOK:  cpu time      0.2312: real time      0.2321
    SETDIJ:  cpu time      0.4475: real time      0.4486
    TRIAL :  cpu time     30.6488: real time     31.0290
    CORREC:  cpu time     30.9373: real time     31.0683
    CHARGE:  cpu time      0.2183: real time      0.2188
    --------------------------------------------
      LOOP:  cpu time     62.4850: real time     62.9986

 eigenvalue-minimisations  :     0
 total energy-change (2. order) :-0.1289416E-02  (-0.1402428E-02)
 number of electron     321.9999974 magnetization 
 augmentation part       50.9146482 magnetization 

 Free energy of the ion-electron system (eV)
  ---------------------------------------------------
  alpha Z        PSCENC =       379.72439301
  Ewald energy   TEWEN  =     18509.04670523
  -Hartree energ DENC   =    -47243.40372368
  -exchange      EXHF   =      4567.30995352
  -V(xc)+E(xc)   XCENC  =         0.00000000
  PAW double counting   =     32035.03159601   -32279.78676700
  entropy T*S    EENTRO =        -0.00000000
  eigenvalues    EBANDS =     -8561.26270946
  atomic energy  EATOM  =     31685.62717035
  ---------------------------------------------------
  free energy    TOTEN  =      -907.71338202 eV

  energy without entropy =     -907.71338202  energy(sigma->0) =     -907.71338202
  exchange ACFDT corr.  =         0.00000000  see jH, gK, PRB 81, 115126


--------------------------------------------------------------------------------------------------------




--------------------------------------- Iteration      1(  85)  ---------------------------------------


    POTLOK:  cpu time      0.2307: real time      0.2316
    SETDIJ:  cpu time      0.4504: real time      0.4515
    TRIAL :  cpu time     30.8163: real time     31.3243
    CORREC:  cpu time     31.0165: real time     31.1944
    CHARGE:  cpu time      0.2243: real time      0.2273
    --------------------------------------------
      LOOP:  cpu time     62.7402: real time     63.4309

 eigenvalue-minimisations  :     0
 total energy-change (2. order) :-0.1401939E-02  (-0.1451598E-02)
 number of electron     321.9999974 magnetization 
 augmentation part       50.9138197 magnetization 

 Free energy of the ion-electron system (eV)
  ---------------------------------------------------
  alpha Z        PSCENC =       379.72439301
  Ewald energy   TEWEN  =     18509.04670523
  -Hartree energ DENC   =    -47243.13777593
  -exchange      EXHF   =      4567.29103699
  -V(xc)+E(xc)   XCENC  =         0.00000000
  PAW double counting   =     32034.82073989   -32279.59096104
  entropy T*S    EENTRO =        -0.00000000
  eigenvalues    EBANDS =     -8561.49609245
  atomic energy  EATOM  =     31685.62717035
  ---------------------------------------------------
  free energy    TOTEN  =      -907.71478396 eV

  energy without entropy =     -907.71478396  energy(sigma->0) =     -907.71478396
  exchange ACFDT corr.  =         0.00000000  see jH, gK, PRB 81, 115126


--------------------------------------------------------------------------------------------------------




--------------------------------------- Iteration      1(  86)  ---------------------------------------


    POTLOK:  cpu time      0.2287: real time      0.2729
    SETDIJ:  cpu time      0.4204: real time      0.4520
    TRIAL :  cpu time     31.1978: real time     31.3892
    CORREC:  cpu time     30.8910: real time     31.2155
    CHARGE:  cpu time      0.2183: real time      0.2188
    --------------------------------------------
      LOOP:  cpu time     62.9670: real time     63.5616

 eigenvalue-minimisations  :     0
 total energy-change (2. order) :-0.1451451E-02  (-0.1283486E-02)
 number of electron     321.9999974 magnetization 
 augmentation part       50.9132608 magnetization 

 Free energy of the ion-electron system (eV)
  ---------------------------------------------------
  alpha Z        PSCENC =       379.72439301
  Ewald energy   TEWEN  =     18509.04670523
  -Hartree energ DENC   =    -47242.78539080
  -exchange      EXHF   =      4567.26477132
  -V(xc)+E(xc)   XCENC  =         0.00000000
  PAW double counting   =     32034.53213402   -32279.31067383
  entropy T*S    EENTRO =        -0.00000000
  eigenvalues    EBANDS =     -8561.81534471
  atomic energy  EATOM  =     31685.62717035
  ---------------------------------------------------
  free energy    TOTEN  =      -907.71623541 eV

  energy without entropy =     -907.71623541  energy(sigma->0) =     -907.71623541
  exchange ACFDT corr.  =         0.00000000  see jH, gK, PRB 81, 115126


--------------------------------------------------------------------------------------------------------




--------------------------------------- Iteration      1(  87)  ---------------------------------------


    POTLOK:  cpu time      0.2356: real time      0.2680
    SETDIJ:  cpu time      0.4081: real time      0.4465
    TRIAL :  cpu time     31.1348: real time     31.2988
    CORREC:  cpu time     30.8249: real time     31.1499
    CHARGE:  cpu time      0.2241: real time      0.2278
    --------------------------------------------
      LOOP:  cpu time     62.8292: real time     63.3928

 eigenvalue-minimisations  :     0
 total energy-change (2. order) :-0.1283814E-02  (-0.1407703E-02)
 number of electron     321.9999974 magnetization 
 augmentation part       50.9125404 magnetization 

 Free energy of the ion-electron system (eV)
  ---------------------------------------------------
  alpha Z        PSCENC =       379.72439301
  Ewald energy   TEWEN  =     18509.04670523
  -Hartree energ DENC   =    -47242.53017878
  -exchange      EXHF   =      4567.24587082
  -V(xc)+E(xc)   XCENC  =         0.00000000
  PAW double counting   =     32034.31048473   -32279.10260604
  entropy T*S    EENTRO =        -0.00000000
  eigenvalues    EBANDS =     -8562.03935855
  atomic energy  EATOM  =     31685.62717035
  ---------------------------------------------------
  free energy    TOTEN  =      -907.71751922 eV

  energy without entropy =     -907.71751922  energy(sigma->0) =     -907.71751922
  exchange ACFDT corr.  =         0.00000000  see jH, gK, PRB 81, 115126


--------------------------------------------------------------------------------------------------------




--------------------------------------- Iteration      1(  88)  ---------------------------------------


    POTLOK:  cpu time      0.2259: real time      0.2304
    SETDIJ:  cpu time      0.4538: real time      0.4727
    TRIAL :  cpu time     30.9275: real time     31.0408
    CORREC:  cpu time     30.9343: real time     31.3679
    CHARGE:  cpu time      0.2161: real time      0.2166
    --------------------------------------------
      LOOP:  cpu time     62.7597: real time     63.3304

 eigenvalue-minimisations  :     0
 total energy-change (2. order) :-0.1409875E-02  (-0.1409812E-02)
 number of electron     321.9999974 magnetization 
 augmentation part       50.9121289 magnetization 

 Free energy of the ion-electron system (eV)
  ---------------------------------------------------
  alpha Z        PSCENC =       379.72439301
  Ewald energy   TEWEN  =     18509.04670523
  -Hartree energ DENC   =    -47242.30877009
  -exchange      EXHF   =      4567.23190607
  -V(xc)+E(xc)   XCENC  =         0.00000000
  PAW double counting   =     32034.02534487   -32278.82435866
  entropy T*S    EENTRO =        -0.00000000
  eigenvalues    EBANDS =     -8562.24131988
  atomic energy  EATOM  =     31685.62717035
  ---------------------------------------------------
  free energy    TOTEN  =      -907.71892910 eV

  energy without entropy =     -907.71892910  energy(sigma->0) =     -907.71892910
  exchange ACFDT corr.  =         0.00000000  see jH, gK, PRB 81, 115126


--------------------------------------------------------------------------------------------------------




--------------------------------------- Iteration      1(  89)  ---------------------------------------


    POTLOK:  cpu time      0.2286: real time      0.2291
    SETDIJ:  cpu time      0.4484: real time      0.4497
    TRIAL :  cpu time     30.7484: real time     30.9591
    CORREC:  cpu time     31.7353: real time     32.0370
    CHARGE:  cpu time      0.2164: real time      0.2169
    --------------------------------------------
      LOOP:  cpu time     63.3791: real time     63.8939

 eigenvalue-minimisations  :     0
 total energy-change (2. order) :-0.1412464E-02  (-0.1428594E-02)
 number of electron     321.9999974 magnetization 
 augmentation part       50.9118807 magnetization 

 Free energy of the ion-electron system (eV)
  ---------------------------------------------------
  alpha Z        PSCENC =       379.72439301
  Ewald energy   TEWEN  =     18509.04670523
  -Hartree energ DENC   =    -47242.25988363
  -exchange      EXHF   =      4567.22213961
  -V(xc)+E(xc)   XCENC  =         0.00000000
  PAW double counting   =     32033.85471111   -32278.65236051
  entropy T*S    EENTRO =        -0.00000000
  eigenvalues    EBANDS =     -8562.28321673
  atomic energy  EATOM  =     31685.62717035
  ---------------------------------------------------
  free energy    TOTEN  =      -907.72034156 eV

  energy without entropy =     -907.72034156  energy(sigma->0) =     -907.72034156
  exchange ACFDT corr.  =         0.00000000  see jH, gK, PRB 81, 115126


--------------------------------------------------------------------------------------------------------




--------------------------------------- Iteration      1(  90)  ---------------------------------------


    POTLOK:  cpu time      0.2313: real time      0.2321
    SETDIJ:  cpu time      0.4423: real time      0.4436
    TRIAL :  cpu time     30.8218: real time     30.9217
    CORREC:  cpu time     30.6312: real time     31.0526
    CHARGE:  cpu time      0.2162: real time      0.2167
    --------------------------------------------
      LOOP:  cpu time     62.3448: real time     62.8686

 eigenvalue-minimisations  :     0
 total energy-change (2. order) :-0.1430581E-02  (-0.1140725E-02)
 number of electron     321.9999974 magnetization 
 augmentation part       50.9122702 magnetization 

 Free energy of the ion-electron system (eV)
  ---------------------------------------------------
  alpha Z        PSCENC =       379.72439301
  Ewald energy   TEWEN  =     18509.04670523
  -Hartree energ DENC   =    -47242.27309566
  -exchange      EXHF   =      4567.22505894
  -V(xc)+E(xc)   XCENC  =         0.00000000
  PAW double counting   =     32033.67040193   -32278.46315012
  entropy T*S    EENTRO =        -0.00000000
  eigenvalues    EBANDS =     -8562.27925582
  atomic energy  EATOM  =     31685.62717035
  ---------------------------------------------------
  free energy    TOTEN  =      -907.72177214 eV

  energy without entropy =     -907.72177214  energy(sigma->0) =     -907.72177214
  exchange ACFDT corr.  =         0.00000000  see jH, gK, PRB 81, 115126


--------------------------------------------------------------------------------------------------------




--------------------------------------- Iteration      1(  91)  ---------------------------------------


    POTLOK:  cpu time      0.2310: real time      0.2318
    SETDIJ:  cpu time      0.4486: real time      0.4497
    TRIAL :  cpu time     30.8784: real time     31.0053
    CORREC:  cpu time     31.5899: real time     32.0218
    CHARGE:  cpu time      0.2166: real time      0.2172
    --------------------------------------------
      LOOP:  cpu time     63.3665: real time     63.9277

 eigenvalue-minimisations  :     0
 total energy-change (2. order) :-0.1141268E-02  (-0.9137214E-03)
 number of electron     321.9999974 magnetization 
 augmentation part       50.9125528 magnetization 

 Free energy of the ion-electron system (eV)
  ---------------------------------------------------
  alpha Z        PSCENC =       379.72439301
  Ewald energy   TEWEN  =     18509.04670523
  -Hartree energ DENC   =    -47242.41612679
  -exchange      EXHF   =      4567.23827670
  -V(xc)+E(xc)   XCENC  =         0.00000000
  PAW double counting   =     32033.65108845   -32278.44681529
  entropy T*S    EENTRO =        -0.00000000
  eigenvalues    EBANDS =     -8562.14760508
  atomic energy  EATOM  =     31685.62717035
  ---------------------------------------------------
  free energy    TOTEN  =      -907.72291341 eV

  energy without entropy =     -907.72291341  energy(sigma->0) =     -907.72291341
  exchange ACFDT corr.  =         0.00000000  see jH, gK, PRB 81, 115126


--------------------------------------------------------------------------------------------------------




--------------------------------------- Iteration      1(  92)  ---------------------------------------


    POTLOK:  cpu time      0.2320: real time      0.2326
    SETDIJ:  cpu time      0.4501: real time      0.4512
    TRIAL :  cpu time     30.9119: real time     31.0571
    CORREC:  cpu time     30.7716: real time     31.1431
    CHARGE:  cpu time      0.2150: real time      0.2157
    --------------------------------------------
      LOOP:  cpu time     62.5824: real time     63.1015

 eigenvalue-minimisations  :     0
 total energy-change (2. order) :-0.9137057E-03  (-0.7730492E-03)
 number of electron     321.9999974 magnetization 
 augmentation part       50.9126538 magnetization 

 Free energy of the ion-electron system (eV)
  ---------------------------------------------------
  alpha Z        PSCENC =       379.72439301
  Ewald energy   TEWEN  =     18509.04670523
  -Hartree energ DENC   =    -47242.58359260
  -exchange      EXHF   =      4567.25070762
  -V(xc)+E(xc)   XCENC  =         0.00000000
  PAW double counting   =     32033.71614574   -32278.50398750
  entropy T*S    EENTRO =        -0.00000000
  eigenvalues    EBANDS =     -8562.00136898
  atomic energy  EATOM  =     31685.62717035
  ---------------------------------------------------
  free energy    TOTEN  =      -907.72382711 eV

  energy without entropy =     -907.72382711  energy(sigma->0) =     -907.72382711
  exchange ACFDT corr.  =         0.00000000  see jH, gK, PRB 81, 115126


--------------------------------------------------------------------------------------------------------




--------------------------------------- Iteration      1(  93)  ---------------------------------------


    POTLOK:  cpu time      0.2289: real time      0.2294
    SETDIJ:  cpu time      0.4519: real time      0.4532
    TRIAL :  cpu time     30.7201: real time     30.8636
    CORREC:  cpu time     29.6916: real time     30.9627
    CHARGE:  cpu time      0.2150: real time      0.2158
    --------------------------------------------
      LOOP:  cpu time     61.3092: real time     62.7265

 eigenvalue-minimisations  :     0
 total energy-change (2. order) :-0.7730422E-03  (-0.7285624E-03)
 number of electron     321.9999974 magnetization 
 augmentation part       50.9124165 magnetization 

 Free energy of the ion-electron system (eV)
  ---------------------------------------------------
  alpha Z        PSCENC =       379.72439301
  Ewald energy   TEWEN  =     18509.04670523
  -Hartree energ DENC   =    -47242.72873403
  -exchange      EXHF   =      4567.26080333
  -V(xc)+E(xc)   XCENC  =         0.00000000
  PAW double counting   =     32033.82417197   -32278.59814358
  entropy T*S    EENTRO =        -0.00000000
  eigenvalues    EBANDS =     -8561.88096644
  atomic energy  EATOM  =     31685.62717035
  ---------------------------------------------------
  free energy    TOTEN  =      -907.72460016 eV

  energy without entropy =     -907.72460016  energy(sigma->0) =     -907.72460016
  exchange ACFDT corr.  =         0.00000000  see jH, gK, PRB 81, 115126


--------------------------------------------------------------------------------------------------------




--------------------------------------- Iteration      1(  94)  ---------------------------------------


    POTLOK:  cpu time      0.2288: real time      0.2294
    SETDIJ:  cpu time      0.4498: real time      0.4509
    TRIAL :  cpu time     30.9453: real time     31.0842
    CORREC:  cpu time     31.0863: real time     31.3641
    CHARGE:  cpu time      0.2139: real time      0.2170
    --------------------------------------------
      LOOP:  cpu time     62.9270: real time     63.3484

 eigenvalue-minimisations  :     0
 total energy-change (2. order) :-0.7284448E-03  (-0.6073310E-03)
 number of electron     321.9999974 magnetization 
 augmentation part       50.9126018 magnetization 

 Free energy of the ion-electron system (eV)
  ---------------------------------------------------
  alpha Z        PSCENC =       379.72439301
  Ewald energy   TEWEN  =     18509.04670523
  -Hartree energ DENC   =    -47242.77930666
  -exchange      EXHF   =      4567.27181019
  -V(xc)+E(xc)   XCENC  =         0.00000000
  PAW double counting   =     32033.85280852   -32278.61077693
  entropy T*S    EENTRO =        -0.00000000
  eigenvalues    EBANDS =     -8561.85813231
  atomic energy  EATOM  =     31685.62717035
  ---------------------------------------------------
  free energy    TOTEN  =      -907.72532860 eV

  energy without entropy =     -907.72532860  energy(sigma->0) =     -907.72532860
  exchange ACFDT corr.  =         0.00000000  see jH, gK, PRB 81, 115126


--------------------------------------------------------------------------------------------------------




--------------------------------------- Iteration      1(  95)  ---------------------------------------


    POTLOK:  cpu time      0.2700: real time      0.2954
    SETDIJ:  cpu time      0.4477: real time      0.4490
    TRIAL :  cpu time     30.7459: real time     30.9653
    CORREC:  cpu time     31.1555: real time     31.3425
    CHARGE:  cpu time      0.2161: real time      0.2167
    --------------------------------------------
      LOOP:  cpu time     62.8420: real time     63.2766

 eigenvalue-minimisations  :     0
 total energy-change (2. order) :-0.6081577E-03  (-0.5755979E-03)
 number of electron     321.9999974 magnetization 
 augmentation part       50.9125879 magnetization 

 Free energy of the ion-electron system (eV)
  ---------------------------------------------------
  alpha Z        PSCENC =       379.72439301
  Ewald energy   TEWEN  =     18509.04670523
  -Hartree energ DENC   =    -47242.87563053
  -exchange      EXHF   =      4567.27863562
  -V(xc)+E(xc)   XCENC  =         0.00000000
  PAW double counting   =     32033.98750309   -32278.74344435
  entropy T*S    EENTRO =        -0.00000000
  eigenvalues    EBANDS =     -8561.77126918
  atomic energy  EATOM  =     31685.62717035
  ---------------------------------------------------
  free energy    TOTEN  =      -907.72593676 eV

  energy without entropy =     -907.72593676  energy(sigma->0) =     -907.72593676
  exchange ACFDT corr.  =         0.00000000  see jH, gK, PRB 81, 115126


--------------------------------------------------------------------------------------------------------




--------------------------------------- Iteration      1(  96)  ---------------------------------------


    POTLOK:  cpu time      0.2287: real time      0.2292
    SETDIJ:  cpu time      0.4484: real time      0.4498
    TRIAL :  cpu time     30.6137: real time     31.0626
    CORREC:  cpu time     30.8375: real time     30.9297
    CHARGE:  cpu time      0.2148: real time      0.2153
    --------------------------------------------
      LOOP:  cpu time     62.3449: real time     62.8885

 eigenvalue-minimisations  :     0
 total energy-change (2. order) :-0.5758575E-03  (-0.6094904E-03)
 number of electron     321.9999974 magnetization 
 augmentation part       50.9122137 magnetization 

 Free energy of the ion-electron system (eV)
  ---------------------------------------------------
  alpha Z        PSCENC =       379.72439301
  Ewald energy   TEWEN  =     18509.04670523
  -Hartree energ DENC   =    -47242.92508901
  -exchange      EXHF   =      4567.28233110
  -V(xc)+E(xc)   XCENC  =         0.00000000
  PAW double counting   =     32034.06097558   -32278.81322752
  entropy T*S    EENTRO =        -0.00000000
  eigenvalues    EBANDS =     -8561.72977135
  atomic energy  EATOM  =     31685.62717035
  ---------------------------------------------------
  free energy    TOTEN  =      -907.72651262 eV

  energy without entropy =     -907.72651262  energy(sigma->0) =     -907.72651262
  exchange ACFDT corr.  =         0.00000000  see jH, gK, PRB 81, 115126


--------------------------------------------------------------------------------------------------------




--------------------------------------- Iteration      1(  97)  ---------------------------------------


    POTLOK:  cpu time      0.2292: real time      0.2297
    SETDIJ:  cpu time      0.4493: real time      0.4508
    TRIAL :  cpu time     30.5086: real time     31.0000
    CORREC:  cpu time     30.8626: real time     31.0012
    CHARGE:  cpu time      0.2148: real time      0.2156
    --------------------------------------------
      LOOP:  cpu time     62.2664: real time     62.8992

 eigenvalue-minimisations  :     0
 total energy-change (2. order) :-0.6082937E-03  (-0.5298718E-03)
 number of electron     321.9999974 magnetization 
 augmentation part       50.9118487 magnetization 

 Free energy of the ion-electron system (eV)
  ---------------------------------------------------
  alpha Z        PSCENC =       379.72439301
  Ewald energy   TEWEN  =     18509.04670523
  -Hartree energ DENC   =    -47242.90104061
  -exchange      EXHF   =      4567.28082845
  -V(xc)+E(xc)   XCENC  =         0.00000000
  PAW double counting   =     32034.04544460   -32278.78492731
  entropy T*S    EENTRO =        -0.00000000
  eigenvalues    EBANDS =     -8561.76569463
  atomic energy  EATOM  =     31685.62717035
  ---------------------------------------------------
  free energy    TOTEN  =      -907.72712091 eV

  energy without entropy =     -907.72712091  energy(sigma->0) =     -907.72712091
  exchange ACFDT corr.  =         0.00000000  see jH, gK, PRB 81, 115126


--------------------------------------------------------------------------------------------------------




--------------------------------------- Iteration      1(  98)  ---------------------------------------


    POTLOK:  cpu time      0.2298: real time      0.2304
    SETDIJ:  cpu time      0.4472: real time      0.4486
    TRIAL :  cpu time     30.7398: real time     31.1465
    CORREC:  cpu time     31.2738: real time     31.3714
    CHARGE:  cpu time      0.2152: real time      0.2158
    --------------------------------------------
      LOOP:  cpu time     62.9079: real time     63.4145

 eigenvalue-minimisations  :     0
 total energy-change (2. order) :-0.5293720E-03  (-0.4173951E-03)
 number of electron     321.9999974 magnetization 
 augmentation part       50.9116177 magnetization 

 Free energy of the ion-electron system (eV)
  ---------------------------------------------------
  alpha Z        PSCENC =       379.72439301
  Ewald energy   TEWEN  =     18509.04670523
  -Hartree energ DENC   =    -47242.86926329
  -exchange      EXHF   =      4567.27476801
  -V(xc)+E(xc)   XCENC  =         0.00000000
  PAW double counting   =     32033.99463610   -32278.72078013
  entropy T*S    EENTRO =        -0.00000000
  eigenvalues    EBANDS =     -8561.80527955
  atomic energy  EATOM  =     31685.62717035
  ---------------------------------------------------
  free energy    TOTEN  =      -907.72765028 eV

  energy without entropy =     -907.72765028  energy(sigma->0) =     -907.72765028
  exchange ACFDT corr.  =         0.00000000  see jH, gK, PRB 81, 115126


--------------------------------------------------------------------------------------------------------




--------------------------------------- Iteration      1(  99)  ---------------------------------------


    POTLOK:  cpu time      0.2287: real time      0.2295
    SETDIJ:  cpu time      0.4472: real time      0.4483
    TRIAL :  cpu time     31.5281: real time     31.9138
    CORREC:  cpu time     30.9924: real time     31.0977
    CHARGE:  cpu time      0.2167: real time      0.2172
    --------------------------------------------
      LOOP:  cpu time     63.4149: real time     63.9082

 eigenvalue-minimisations  :     0
 total energy-change (2. order) :-0.4174559E-03  (-0.5048900E-03)
 number of electron     321.9999974 magnetization 
 augmentation part       50.9117604 magnetization 

 Free energy of the ion-electron system (eV)
  ---------------------------------------------------
  alpha Z        PSCENC =       379.72439301
  Ewald energy   TEWEN  =     18509.04670523
  -Hartree energ DENC   =    -47242.83636286
  -exchange      EXHF   =      4567.27185485
  -V(xc)+E(xc)   XCENC  =         0.00000000
  PAW double counting   =     32033.89659181   -32278.61572402
  entropy T*S    EENTRO =        -0.00000000
  eigenvalues    EBANDS =     -8561.84269611
  atomic energy  EATOM  =     31685.62717035
  ---------------------------------------------------
  free energy    TOTEN  =      -907.72806774 eV

  energy without entropy =     -907.72806774  energy(sigma->0) =     -907.72806774
  exchange ACFDT corr.  =         0.00000000  see jH, gK, PRB 81, 115126


--------------------------------------------------------------------------------------------------------




--------------------------------------- Iteration      1( 100)  ---------------------------------------


    POTLOK:  cpu time      0.2289: real time      0.2298
    SETDIJ:  cpu time      0.4495: real time      0.4505
    TRIAL :  cpu time     30.2297: real time     31.4259
    CORREC:  cpu time     31.3029: real time     31.4669
    CHARGE:  cpu time      0.2155: real time      0.2160
    --------------------------------------------
      LOOP:  cpu time     62.4284: real time     63.7910

 eigenvalue-minimisations  :     0
 total energy-change (2. order) :-0.5050792E-03  (-0.5168279E-03)
 number of electron     321.9999974 magnetization 
 augmentation part       50.9119006 magnetization 

 Free energy of the ion-electron system (eV)
  ---------------------------------------------------
  alpha Z        PSCENC =       379.72439301
  Ewald energy   TEWEN  =     18509.04670523
  -Hartree energ DENC   =    -47242.85977692
  -exchange      EXHF   =      4567.27052655
  -V(xc)+E(xc)   XCENC  =         0.00000000
  PAW double counting   =     32033.82756229   -32278.54848591
  entropy T*S    EENTRO =        -0.00000000
  eigenvalues    EBANDS =     -8561.81666743
  atomic energy  EATOM  =     31685.62717035
  ---------------------------------------------------
  free energy    TOTEN  =      -907.72857282 eV

  energy without entropy =     -907.72857282  energy(sigma->0) =     -907.72857282
  exchange ACFDT corr.  =         0.00000000  see jH, gK, PRB 81, 115126


--------------------------------------------------------------------------------------------------------




--------------------------------------- Iteration      1( 101)  ---------------------------------------


    POTLOK:  cpu time      0.2893: real time      0.2906
    SETDIJ:  cpu time      0.4448: real time      0.4461
    TRIAL :  cpu time     31.1689: real time     31.5160
    CORREC:  cpu time     31.2268: real time     31.3510
    CHARGE:  cpu time      0.2148: real time      0.2153
    --------------------------------------------
      LOOP:  cpu time     63.3464: real time     63.8209

 eigenvalue-minimisations  :     0
 total energy-change (2. order) :-0.5171350E-03  (-0.2988643E-03)
 number of electron     321.9999974 magnetization 
 augmentation part       50.9117807 magnetization 

 Free energy of the ion-electron system (eV)
  ---------------------------------------------------
  alpha Z        PSCENC =       379.72439301
  Ewald energy   TEWEN  =     18509.04670523
  -Hartree energ DENC   =    -47242.88452161
  -exchange      EXHF   =      4567.27036328
  -V(xc)+E(xc)   XCENC  =         0.00000000
  PAW double counting   =     32033.75026525   -32278.47112867
  entropy T*S    EENTRO =        -0.00000000
  eigenvalues    EBANDS =     -8561.79233680
  atomic energy  EATOM  =     31685.62717035
  ---------------------------------------------------
  free energy    TOTEN  =      -907.72908995 eV

  energy without entropy =     -907.72908995  energy(sigma->0) =     -907.72908995
  exchange ACFDT corr.  =         0.00000000  see jH, gK, PRB 81, 115126


--------------------------------------------------------------------------------------------------------




--------------------------------------- Iteration      1( 102)  ---------------------------------------


    POTLOK:  cpu time      0.2290: real time      0.2296
    SETDIJ:  cpu time      0.4473: real time      0.4486
    TRIAL :  cpu time     31.1275: real time     31.4968
    CORREC:  cpu time     30.9140: real time     31.0424
    CHARGE:  cpu time      0.2143: real time      0.2155
    --------------------------------------------
      LOOP:  cpu time     62.9341: real time     63.4350

 eigenvalue-minimisations  :     0
 total energy-change (2. order) :-0.2988607E-03  (-0.2410308E-03)
 number of electron     321.9999974 magnetization 
 augmentation part       50.9120813 magnetization 

 Free energy of the ion-electron system (eV)
  ---------------------------------------------------
  alpha Z        PSCENC =       379.72439301
  Ewald energy   TEWEN  =     18509.04670523
  -Hartree energ DENC   =    -47242.86184157
  -exchange      EXHF   =      4567.27156354
  -V(xc)+E(xc)   XCENC  =         0.00000000
  PAW double counting   =     32033.73436351   -32278.45101359
  entropy T*S    EENTRO =        -0.00000000
  eigenvalues    EBANDS =     -8561.82072931
  atomic energy  EATOM  =     31685.62717035
  ---------------------------------------------------
  free energy    TOTEN  =      -907.72938881 eV

  energy without entropy =     -907.72938881  energy(sigma->0) =     -907.72938881
  exchange ACFDT corr.  =         0.00000000  see jH, gK, PRB 81, 115126


--------------------------------------------------------------------------------------------------------




--------------------------------------- Iteration      1( 103)  ---------------------------------------


    POTLOK:  cpu time      0.2287: real time      0.2303
    SETDIJ:  cpu time      0.4451: real time      0.4468
    TRIAL :  cpu time     30.9720: real time     31.3344
    CORREC:  cpu time     31.0871: real time     31.3232
    CHARGE:  cpu time      0.2154: real time      0.2159
    --------------------------------------------
      LOOP:  cpu time     62.9492: real time     63.5524

 eigenvalue-minimisations  :     0
 total energy-change (2. order) :-0.2410304E-03  (-0.2599216E-03)
 number of electron     321.9999974 magnetization 
 augmentation part       50.9122177 magnetization 

 Free energy of the ion-electron system (eV)
  ---------------------------------------------------
  alpha Z        PSCENC =       379.72439301
  Ewald energy   TEWEN  =     18509.04670523
  -Hartree energ DENC   =    -47242.91617722
  -exchange      EXHF   =      4567.27482680
  -V(xc)+E(xc)   XCENC  =         0.00000000
  PAW double counting   =     32033.82607147   -32278.54841717
  entropy T*S    EENTRO =        -0.00000000
  eigenvalues    EBANDS =     -8561.76420231
  atomic energy  EATOM  =     31685.62717035
  ---------------------------------------------------
  free energy    TOTEN  =      -907.72962984 eV

  energy without entropy =     -907.72962984  energy(sigma->0) =     -907.72962984
  exchange ACFDT corr.  =         0.00000000  see jH, gK, PRB 81, 115126


--------------------------------------------------------------------------------------------------------




--------------------------------------- Iteration      1( 104)  ---------------------------------------


    POTLOK:  cpu time      0.2319: real time      0.2337
    SETDIJ:  cpu time      0.4401: real time      0.4449
    TRIAL :  cpu time     31.0154: real time     31.1741
    CORREC:  cpu time     30.6618: real time     31.1220
    CHARGE:  cpu time      0.2167: real time      0.2173
    --------------------------------------------
      LOOP:  cpu time     62.5679: real time     63.1941

 eigenvalue-minimisations  :     0
 total energy-change (2. order) :-0.2599229E-03  (-0.2501812E-03)
 number of electron     321.9999974 magnetization 
 augmentation part       50.9125064 magnetization 

 Free energy of the ion-electron system (eV)
  ---------------------------------------------------
  alpha Z        PSCENC =       379.72439301
  Ewald energy   TEWEN  =     18509.04670523
  -Hartree energ DENC   =    -47242.91925030
  -exchange      EXHF   =      4567.28056894
  -V(xc)+E(xc)   XCENC  =         0.00000000
  PAW double counting   =     32033.85806802   -32278.58442608
  entropy T*S    EENTRO =        -0.00000000
  eigenvalues    EBANDS =     -8561.76311894
  atomic energy  EATOM  =     31685.62717035
  ---------------------------------------------------
  free energy    TOTEN  =      -907.72988977 eV

  energy without entropy =     -907.72988977  energy(sigma->0) =     -907.72988977
  exchange ACFDT corr.  =         0.00000000  see jH, gK, PRB 81, 115126


--------------------------------------------------------------------------------------------------------




--------------------------------------- Iteration      1( 105)  ---------------------------------------


    POTLOK:  cpu time      0.2294: real time      0.2300
    SETDIJ:  cpu time      0.4466: real time      0.4479
    TRIAL :  cpu time     30.8836: real time     30.9741
    CORREC:  cpu time     30.5366: real time     31.0293
    CHARGE:  cpu time      0.2150: real time      0.2155
    --------------------------------------------
      LOOP:  cpu time     62.3131: real time     62.8987

 eigenvalue-minimisations  :     0
 total energy-change (2. order) :-0.2501847E-03  (-0.2664038E-03)
 number of electron     321.9999974 magnetization 
 augmentation part       50.9127147 magnetization 

 Free energy of the ion-electron system (eV)
  ---------------------------------------------------
  alpha Z        PSCENC =       379.72439301
  Ewald energy   TEWEN  =     18509.04670523
  -Hartree energ DENC   =    -47242.94786385
  -exchange      EXHF   =      4567.28369453
  -V(xc)+E(xc)   XCENC  =         0.00000000
  PAW double counting   =     32033.91958591   -32278.65449755
  entropy T*S    EENTRO =        -0.00000000
  eigenvalues    EBANDS =     -8561.72932760
  atomic energy  EATOM  =     31685.62717035
  ---------------------------------------------------
  free energy    TOTEN  =      -907.73013995 eV

  energy without entropy =     -907.73013995  energy(sigma->0) =     -907.73013995
  exchange ACFDT corr.  =         0.00000000  see jH, gK, PRB 81, 115126


--------------------------------------------------------------------------------------------------------




--------------------------------------- Iteration      1( 106)  ---------------------------------------


    POTLOK:  cpu time      0.2297: real time      0.2303
    SETDIJ:  cpu time      0.4471: real time      0.4484
    TRIAL :  cpu time     30.8713: real time     30.9959
    CORREC:  cpu time     30.7868: real time     31.3127
    CHARGE:  cpu time      0.2155: real time      0.2160
    --------------------------------------------
      LOOP:  cpu time     62.5524: real time     63.2053

 eigenvalue-minimisations  :     0
 total energy-change (2. order) :-0.2664248E-03  (-0.3001229E-03)
 number of electron     321.9999974 magnetization 
 augmentation part       50.9127262 magnetization 

 Free energy of the ion-electron system (eV)
  ---------------------------------------------------
  alpha Z        PSCENC =       379.72439301
  Ewald energy   TEWEN  =     18509.04670523
  -Hartree energ DENC   =    -47242.95267980
  -exchange      EXHF   =      4567.28280097
  -V(xc)+E(xc)   XCENC  =         0.00000000
  PAW double counting   =     32033.94776196   -32278.69193415
  entropy T*S    EENTRO =        -0.00000000
  eigenvalues    EBANDS =     -8561.71462395
  atomic energy  EATOM  =     31685.62717035
  ---------------------------------------------------
  free energy    TOTEN  =      -907.73040638 eV

  energy without entropy =     -907.73040638  energy(sigma->0) =     -907.73040638
  exchange ACFDT corr.  =         0.00000000  see jH, gK, PRB 81, 115126


--------------------------------------------------------------------------------------------------------




--------------------------------------- Iteration      1( 107)  ---------------------------------------


    POTLOK:  cpu time      0.2295: real time      0.2300
    SETDIJ:  cpu time      0.4497: real time      0.4511
    TRIAL :  cpu time     30.8974: real time     30.9974
    CORREC:  cpu time     31.5140: real time     32.0604
    CHARGE:  cpu time      0.2161: real time      0.2166
    --------------------------------------------
      LOOP:  cpu time     63.3086: real time     63.9574

 eigenvalue-minimisations  :     0
 total energy-change (2. order) :-0.3001730E-03  (-0.3094841E-03)
 number of electron     321.9999974 magnetization 
 augmentation part       50.9127040 magnetization 

 Free energy of the ion-electron system (eV)
  ---------------------------------------------------
  alpha Z        PSCENC =       379.72439301
  Ewald energy   TEWEN  =     18509.04670523
  -Hartree energ DENC   =    -47242.89638265
  -exchange      EXHF   =      4567.27765341
  -V(xc)+E(xc)   XCENC  =         0.00000000
  PAW double counting   =     32033.91793118   -32278.66917275
  entropy T*S    EENTRO =        -0.00000000
  eigenvalues    EBANDS =     -8561.75900433
  atomic energy  EATOM  =     31685.62717035
  ---------------------------------------------------
  free energy    TOTEN  =      -907.73070655 eV

  energy without entropy =     -907.73070655  energy(sigma->0) =     -907.73070655
  exchange ACFDT corr.  =         0.00000000  see jH, gK, PRB 81, 115126


--------------------------------------------------------------------------------------------------------




--------------------------------------- Iteration      1( 108)  ---------------------------------------


    POTLOK:  cpu time      0.2291: real time      0.2296
    SETDIJ:  cpu time      0.4494: real time      0.4507
    TRIAL :  cpu time     30.8867: real time     30.9866
    CORREC:  cpu time     30.1256: real time     31.4550
    CHARGE:  cpu time      0.2162: real time      0.2167
    --------------------------------------------
      LOOP:  cpu time     61.9079: real time     63.3406

 eigenvalue-minimisations  :     0
 total energy-change (2. order) :-0.3095746E-03  (-0.2649559E-03)
 number of electron     321.9999974 magnetization 
 augmentation part       50.9126614 magnetization 

 Free energy of the ion-electron system (eV)
  ---------------------------------------------------
  alpha Z        PSCENC =       379.72439301
  Ewald energy   TEWEN  =     18509.04670523
  -Hartree energ DENC   =    -47242.82940009
  -exchange      EXHF   =      4567.26847454
  -V(xc)+E(xc)   XCENC  =         0.00000000
  PAW double counting   =     32033.88543165   -32278.64346839
  entropy T*S    EENTRO =        -0.00000000
  eigenvalues    EBANDS =     -8561.81032243
  atomic energy  EATOM  =     31685.62717035
  ---------------------------------------------------
  free energy    TOTEN  =      -907.73101612 eV

  energy without entropy =     -907.73101612  energy(sigma->0) =     -907.73101612
  exchange ACFDT corr.  =         0.00000000  see jH, gK, PRB 81, 115126


--------------------------------------------------------------------------------------------------------




--------------------------------------- Iteration      1( 109)  ---------------------------------------


    POTLOK:  cpu time      0.2299: real time      0.2308
    SETDIJ:  cpu time      0.4404: real time      0.4414
    TRIAL :  cpu time     30.8539: real time     31.0497
    CORREC:  cpu time     30.8712: real time     31.2615
    CHARGE:  cpu time      0.2151: real time      0.2160
    --------------------------------------------
      LOOP:  cpu time     62.6125: real time     63.2015

 eigenvalue-minimisations  :     0
 total energy-change (2. order) :-0.2649593E-03  (-0.2691872E-03)
 number of electron     321.9999974 magnetization 
 augmentation part       50.9125946 magnetization 

 Free energy of the ion-electron system (eV)
  ---------------------------------------------------
  alpha Z        PSCENC =       379.72439301
  Ewald energy   TEWEN  =     18509.04670523
  -Hartree energ DENC   =    -47242.76721194
  -exchange      EXHF   =      4567.26055446
  -V(xc)+E(xc)   XCENC  =         0.00000000
  PAW double counting   =     32033.84906613   -32278.61374627
  entropy T*S    EENTRO =        -0.00000000
  eigenvalues    EBANDS =     -8561.85821206
  atomic energy  EATOM  =     31685.62717035
  ---------------------------------------------------
  free energy    TOTEN  =      -907.73128108 eV

  energy without entropy =     -907.73128108  energy(sigma->0) =     -907.73128108
  exchange ACFDT corr.  =         0.00000000  see jH, gK, PRB 81, 115126


--------------------------------------------------------------------------------------------------------




--------------------------------------- Iteration      1( 110)  ---------------------------------------


    POTLOK:  cpu time      0.2307: real time      0.2314
    SETDIJ:  cpu time      0.3303: real time      0.4648
    TRIAL :  cpu time     30.7797: real time     31.8816
    CORREC:  cpu time     31.2558: real time     31.5558
    CHARGE:  cpu time      0.2145: real time      0.2151
    --------------------------------------------
      LOOP:  cpu time     62.8128: real time     64.3504

 eigenvalue-minimisations  :     0
 total energy-change (2. order) :-0.2692246E-03  (-0.2436905E-03)
 number of electron     321.9999974 magnetization 
 augmentation part       50.9126314 magnetization 

 Free energy of the ion-electron system (eV)
  ---------------------------------------------------
  alpha Z        PSCENC =       379.72439301
  Ewald energy   TEWEN  =     18509.04670523
  -Hartree energ DENC   =    -47242.69903442
  -exchange      EXHF   =      4567.25475547
  -V(xc)+E(xc)   XCENC  =         0.00000000
  PAW double counting   =     32033.79895473   -32278.57016568
  entropy T*S    EENTRO =        -0.00000000
  eigenvalues    EBANDS =     -8561.91432899
  atomic energy  EATOM  =     31685.62717035
  ---------------------------------------------------
  free energy    TOTEN  =      -907.73155031 eV

  energy without entropy =     -907.73155031  energy(sigma->0) =     -907.73155031
  exchange ACFDT corr.  =         0.00000000  see jH, gK, PRB 81, 115126


--------------------------------------------------------------------------------------------------------




--------------------------------------- Iteration      1( 111)  ---------------------------------------


    POTLOK:  cpu time      0.2304: real time      0.2309
    SETDIJ:  cpu time      0.4459: real time      0.4473
    TRIAL :  cpu time     30.8157: real time     30.9352
    CORREC:  cpu time     30.6860: real time     31.3308
    CHARGE:  cpu time      0.2164: real time      0.2169
    --------------------------------------------
      LOOP:  cpu time     62.3962: real time     63.1630

 eigenvalue-minimisations  :     0
 total energy-change (2. order) :-0.2437263E-03  (-0.2167156E-03)
 number of electron     321.9999974 magnetization 
 augmentation part       50.9124361 magnetization 

 Free energy of the ion-electron system (eV)
  ---------------------------------------------------
  alpha Z        PSCENC =       379.72439301
  Ewald energy   TEWEN  =     18509.04670523
  -Hartree energ DENC   =    -47242.67926238
  -exchange      EXHF   =      4567.25192604
  -V(xc)+E(xc)   XCENC  =         0.00000000
  PAW double counting   =     32033.79754488   -32278.57325998
  entropy T*S    EENTRO =        -0.00000000
  eigenvalues    EBANDS =     -8561.92701118
  atomic energy  EATOM  =     31685.62717035
  ---------------------------------------------------
  free energy    TOTEN  =      -907.73179403 eV

  energy without entropy =     -907.73179403  energy(sigma->0) =     -907.73179403
  exchange ACFDT corr.  =         0.00000000  see jH, gK, PRB 81, 115126


--------------------------------------------------------------------------------------------------------




--------------------------------------- Iteration      1( 112)  ---------------------------------------


    POTLOK:  cpu time      0.2301: real time      0.2307
    SETDIJ:  cpu time      0.4498: real time      0.4514
    TRIAL :  cpu time     30.6986: real time     30.9673
    CORREC:  cpu time     31.2500: real time     31.5351
    CHARGE:  cpu time      0.2198: real time      0.2207
    --------------------------------------------
      LOOP:  cpu time     62.8505: real time     63.4071

 eigenvalue-minimisations  :     0
 total energy-change (2. order) :-0.2167130E-03  (-0.2150904E-03)
 number of electron     321.9999974 magnetization 
 augmentation part       50.9122600 magnetization 

 Free energy of the ion-electron system (eV)
  ---------------------------------------------------
  alpha Z        PSCENC =       379.72439301
  Ewald energy   TEWEN  =     18509.04670523
  -Hartree energ DENC   =    -47242.63970636
  -exchange      EXHF   =      4567.25236809
  -V(xc)+E(xc)   XCENC  =         0.00000000
  PAW double counting   =     32033.76705927   -32278.53733254
  entropy T*S    EENTRO =        -0.00000000
  eigenvalues    EBANDS =     -8561.97266779
  atomic energy  EATOM  =     31685.62717035
  ---------------------------------------------------
  free energy    TOTEN  =      -907.73201075 eV

  energy without entropy =     -907.73201075  energy(sigma->0) =     -907.73201075
  exchange ACFDT corr.  =         0.00000000  see jH, gK, PRB 81, 115126


--------------------------------------------------------------------------------------------------------




--------------------------------------- Iteration      1( 113)  ---------------------------------------


    POTLOK:  cpu time      0.2319: real time      0.2325
    SETDIJ:  cpu time      0.4487: real time      0.4499
    TRIAL :  cpu time     30.6934: real time     31.1070
    CORREC:  cpu time     30.8316: real time     30.9546
    CHARGE:  cpu time      0.2146: real time      0.2154
    --------------------------------------------
      LOOP:  cpu time     62.4220: real time     62.9611

 eigenvalue-minimisations  :     0
 total energy-change (2. order) :-0.2151002E-03  (-0.2350643E-03)
 number of electron     321.9999974 magnetization 
 augmentation part       50.9122757 magnetization 

 Free energy of the ion-electron system (eV)
  ---------------------------------------------------
  alpha Z        PSCENC =       379.72439301
  Ewald energy   TEWEN  =     18509.04670523
  -Hartree energ DENC   =    -47242.62780289
  -exchange      EXHF   =      4567.25615206
  -V(xc)+E(xc)   XCENC  =         0.00000000
  PAW double counting   =     32033.75911084   -32278.52138535
  entropy T*S    EENTRO =        -0.00000000
  eigenvalues    EBANDS =     -8561.99656911
  atomic energy  EATOM  =     31685.62717035
  ---------------------------------------------------
  free energy    TOTEN  =      -907.73222585 eV

  energy without entropy =     -907.73222585  energy(sigma->0) =     -907.73222585
  exchange ACFDT corr.  =         0.00000000  see jH, gK, PRB 81, 115126


--------------------------------------------------------------------------------------------------------




--------------------------------------- Iteration      1( 114)  ---------------------------------------


    POTLOK:  cpu time      0.2316: real time      0.2321
    SETDIJ:  cpu time      0.4463: real time      0.4475
    TRIAL :  cpu time     30.7986: real time     31.2079
    CORREC:  cpu time     31.0042: real time     31.1303
    CHARGE:  cpu time      0.2143: real time      0.2148
    --------------------------------------------
      LOOP:  cpu time     62.6970: real time     63.2350

 eigenvalue-minimisations  :     0
 total energy-change (2. order) :-0.2349011E-03  (-0.2014906E-03)
 number of electron     321.9999974 magnetization 
 augmentation part       50.9124734 magnetization 

 Free energy of the ion-electron system (eV)
  ---------------------------------------------------
  alpha Z        PSCENC =       379.72439301
  Ewald energy   TEWEN  =     18509.04670523
  -Hartree energ DENC   =    -47242.67486868
  -exchange      EXHF   =      4567.26505556
  -V(xc)+E(xc)   XCENC  =         0.00000000
  PAW double counting   =     32033.80140176   -32278.55929885
  entropy T*S    EENTRO =        -0.00000000
  eigenvalues    EBANDS =     -8561.96301913
  atomic energy  EATOM  =     31685.62717035
  ---------------------------------------------------
  free energy    TOTEN  =      -907.73246075 eV

  energy without entropy =     -907.73246075  energy(sigma->0) =     -907.73246075
  exchange ACFDT corr.  =         0.00000000  see jH, gK, PRB 81, 115126


--------------------------------------------------------------------------------------------------------




--------------------------------------- Iteration      1( 115)  ---------------------------------------


    POTLOK:  cpu time      0.2290: real time      0.2295
    SETDIJ:  cpu time      0.4511: real time      0.4522
    TRIAL :  cpu time     30.4369: real time     31.0185
    CORREC:  cpu time     30.9898: real time     31.0861
    CHARGE:  cpu time      0.2171: real time      0.2176
    --------------------------------------------
      LOOP:  cpu time     62.3260: real time     63.0059

 eigenvalue-minimisations  :     0
 total energy-change (2. order) :-0.2014707E-03  (-0.1760372E-03)
 number of electron     321.9999974 magnetization 
 augmentation part       50.9123223 magnetization 

 Free energy of the ion-electron system (eV)
  ---------------------------------------------------
  alpha Z        PSCENC =       379.72439301
  Ewald energy   TEWEN  =     18509.04670523
  -Hartree energ DENC   =    -47242.77826862
  -exchange      EXHF   =      4567.27226941
  -V(xc)+E(xc)   XCENC  =         0.00000000
  PAW double counting   =     32033.90971649   -32278.66616262
  entropy T*S    EENTRO =        -0.00000000
  eigenvalues    EBANDS =     -8561.86848548
  atomic energy  EATOM  =     31685.62717035
  ---------------------------------------------------
  free energy    TOTEN  =      -907.73266222 eV

  energy without entropy =     -907.73266222  energy(sigma->0) =     -907.73266222
  exchange ACFDT corr.  =         0.00000000  see jH, gK, PRB 81, 115126


--------------------------------------------------------------------------------------------------------




--------------------------------------- Iteration      1( 116)  ---------------------------------------


    POTLOK:  cpu time      0.2302: real time      0.2311
    SETDIJ:  cpu time      0.4496: real time      0.4507
    TRIAL :  cpu time     30.3590: real time     31.0202
    CORREC:  cpu time     30.9927: real time     31.0919
    CHARGE:  cpu time      0.2173: real time      0.2178
    --------------------------------------------
      LOOP:  cpu time     62.2497: real time     63.0135

 eigenvalue-minimisations  :     0
 total energy-change (2. order) :-0.1760225E-03  (-0.1552021E-03)
 number of electron     321.9999974 magnetization 
 augmentation part       50.9121901 magnetization 

 Free energy of the ion-electron system (eV)
  ---------------------------------------------------
  alpha Z        PSCENC =       379.72439301
  Ewald energy   TEWEN  =     18509.04670523
  -Hartree energ DENC   =    -47242.81927870
  -exchange      EXHF   =      4567.27755658
  -V(xc)+E(xc)   XCENC  =         0.00000000
  PAW double counting   =     32033.94119717   -32278.68796006
  entropy T*S    EENTRO =        -0.00000000
  eigenvalues    EBANDS =     -8561.84262182
  atomic energy  EATOM  =     31685.62717035
  ---------------------------------------------------
  free energy    TOTEN  =      -907.73283824 eV

  energy without entropy =     -907.73283824  energy(sigma->0) =     -907.73283824
  exchange ACFDT corr.  =         0.00000000  see jH, gK, PRB 81, 115126


--------------------------------------------------------------------------------------------------------




--------------------------------------- Iteration      1( 117)  ---------------------------------------


    POTLOK:  cpu time      0.2313: real time      0.2319
    SETDIJ:  cpu time      0.4488: real time      0.4500
    TRIAL :  cpu time     30.6889: real time     31.1269
    CORREC:  cpu time     30.8108: real time     31.0167
    CHARGE:  cpu time      0.2163: real time      0.2169
    --------------------------------------------
      LOOP:  cpu time     62.3973: real time     63.0446

 eigenvalue-minimisations  :     0
 total energy-change (2. order) :-0.1552033E-03  (-0.1233810E-03)
 number of electron     321.9999974 magnetization 
 augmentation part       50.9123394 magnetization 

 Free energy of the ion-electron system (eV)
  ---------------------------------------------------
  alpha Z        PSCENC =       379.72439301
  Ewald energy   TEWEN  =     18509.04670523
  -Hartree energ DENC   =    -47242.85050431
  -exchange      EXHF   =      4567.28237120
  -V(xc)+E(xc)   XCENC  =         0.00000000
  PAW double counting   =     32033.95933985   -32278.69865611
  entropy T*S    EENTRO =        -0.00000000
  eigenvalues    EBANDS =     -8561.82381267
  atomic energy  EATOM  =     31685.62717035
  ---------------------------------------------------
  free energy    TOTEN  =      -907.73299345 eV

  energy without entropy =     -907.73299345  energy(sigma->0) =     -907.73299345
  exchange ACFDT corr.  =         0.00000000  see jH, gK, PRB 81, 115126


--------------------------------------------------------------------------------------------------------




--------------------------------------- Iteration      1( 118)  ---------------------------------------


    POTLOK:  cpu time      0.2284: real time      0.2290
    SETDIJ:  cpu time      0.4494: real time      0.4507
    TRIAL :  cpu time     30.6296: real time     31.2260
    CORREC:  cpu time     32.0346: real time     32.1577
    CHARGE:  cpu time      0.2164: real time      0.2169
    --------------------------------------------
      LOOP:  cpu time     63.5594: real time     64.2824

 eigenvalue-minimisations  :     0
 total energy-change (2. order) :-0.1233605E-03  (-0.1221943E-03)
 number of electron     321.9999974 magnetization 
 augmentation part       50.9123985 magnetization 

 Free energy of the ion-electron system (eV)
  ---------------------------------------------------
  alpha Z        PSCENC =       379.72439301
  Ewald energy   TEWEN  =     18509.04670523
  -Hartree energ DENC   =    -47242.92097145
  -exchange      EXHF   =      4567.28582720
  -V(xc)+E(xc)   XCENC  =         0.00000000
  PAW double counting   =     32034.02680815   -32278.76657012
  entropy T*S    EENTRO =        -0.00000000
  eigenvalues    EBANDS =     -8561.75647918
  atomic energy  EATOM  =     31685.62717035
  ---------------------------------------------------
  free energy    TOTEN  =      -907.73311681 eV

  energy without entropy =     -907.73311681  energy(sigma->0) =     -907.73311681
  exchange ACFDT corr.  =         0.00000000  see jH, gK, PRB 81, 115126


--------------------------------------------------------------------------------------------------------




--------------------------------------- Iteration      1( 119)  ---------------------------------------


    POTLOK:  cpu time      0.2290: real time      0.2295
    SETDIJ:  cpu time      0.4470: real time      0.4484
    TRIAL :  cpu time     30.7667: real time     31.2113
    CORREC:  cpu time     30.8964: real time     31.0008
    CHARGE:  cpu time      0.2168: real time      0.2173
    --------------------------------------------
      LOOP:  cpu time     62.5578: real time     63.1092

 eigenvalue-minimisations  :     0
 total energy-change (2. order) :-0.1222215E-03  (-0.1158889E-03)
 number of electron     321.9999974 magnetization 
 augmentation part       50.9124042 magnetization 

 Free energy of the ion-electron system (eV)
  ---------------------------------------------------
  alpha Z        PSCENC =       379.72439301
  Ewald energy   TEWEN  =     18509.04670523
  -Hartree energ DENC   =    -47242.96302282
  -exchange      EXHF   =      4567.28843472
  -V(xc)+E(xc)   XCENC  =         0.00000000
  PAW double counting   =     32034.06099749   -32278.79914674
  entropy T*S    EENTRO =        -0.00000000
  eigenvalues    EBANDS =     -8561.71877027
  atomic energy  EATOM  =     31685.62717035
  ---------------------------------------------------
  free energy    TOTEN  =      -907.73323903 eV

  energy without entropy =     -907.73323903  energy(sigma->0) =     -907.73323903
  exchange ACFDT corr.  =         0.00000000  see jH, gK, PRB 81, 115126


--------------------------------------------------------------------------------------------------------




--------------------------------------- Iteration      1( 120)  ---------------------------------------


    POTLOK:  cpu time      0.2288: real time      0.2295
    SETDIJ:  cpu time      0.4451: real time      0.4464
    TRIAL :  cpu time     30.9769: real time     31.4259
    CORREC:  cpu time     31.0503: real time     31.3553
    CHARGE:  cpu time      0.2301: real time      0.2328
    --------------------------------------------
      LOOP:  cpu time     62.9331: real time     63.6918

 eigenvalue-minimisations  :     0
 total energy-change (2. order) :-0.1159772E-03  (-0.9637493E-04)
 number of electron     321.9999974 magnetization 
 augmentation part       50.9125759 magnetization 

 Free energy of the ion-electron system (eV)
  ---------------------------------------------------
  alpha Z        PSCENC =       379.72439301
  Ewald energy   TEWEN  =     18509.04670523
  -Hartree energ DENC   =    -47242.97921572
  -exchange      EXHF   =      4567.28955510
  -V(xc)+E(xc)   XCENC  =         0.00000000
  PAW double counting   =     32034.07270690   -32278.80742340
  entropy T*S    EENTRO =        -0.00000000
  eigenvalues    EBANDS =     -8561.70724648
  atomic energy  EATOM  =     31685.62717035
  ---------------------------------------------------
  free energy    TOTEN  =      -907.73335500 eV

  energy without entropy =     -907.73335500  energy(sigma->0) =     -907.73335500
  exchange ACFDT corr.  =         0.00000000  see jH, gK, PRB 81, 115126


--------------------------------------------------------------------------------------------------------




--------------------------------------- Iteration      1( 121)  ---------------------------------------


    POTLOK:  cpu time      0.2557: real time      0.2740
    SETDIJ:  cpu time      0.4646: real time      0.4839
    TRIAL :  cpu time     31.0342: real time     31.3846
    CORREC:  cpu time     31.3615: real time     31.7136
    CHARGE:  cpu time      0.2299: real time      0.2529
    --------------------------------------------
      LOOP:  cpu time     63.3471: real time     64.1111

 eigenvalue-minimisations  :     0
 total energy-change (2. order) :-0.9633323E-04  (-0.9097684E-04)
 number of electron     321.9999974 magnetization 
 augmentation part       50.9126815 magnetization 

 Free energy of the ion-electron system (eV)
  ---------------------------------------------------
  alpha Z        PSCENC =       379.72439301
  Ewald energy   TEWEN  =     18509.04670523
  -Hartree energ DENC   =    -47243.01254039
  -exchange      EXHF   =      4567.29043254
  -V(xc)+E(xc)   XCENC  =         0.00000000
  PAW double counting   =     32034.10886825   -32278.84471080
  entropy T*S    EENTRO =        -0.00000000
  eigenvalues    EBANDS =     -8561.67376953
  atomic energy  EATOM  =     31685.62717035
  ---------------------------------------------------
  free energy    TOTEN  =      -907.73345134 eV

  energy without entropy =     -907.73345134  energy(sigma->0) =     -907.73345134
  exchange ACFDT corr.  =         0.00000000  see jH, gK, PRB 81, 115126


--------------------------------------------------------------------------------------------------------




--------------------------------------- Iteration      1( 122)  ---------------------------------------


    POTLOK:  cpu time      0.2314: real time      0.2405
    SETDIJ:  cpu time      0.4482: real time      0.4524
    TRIAL :  cpu time     30.9584: real time     31.1295
    CORREC:  cpu time     30.5627: real time     31.0379
    CHARGE:  cpu time      0.2177: real time      0.2183
    --------------------------------------------
      LOOP:  cpu time     62.4192: real time     63.0812

 eigenvalue-minimisations  :     0
 total energy-change (2. order) :-0.9096621E-04  (-0.7568850E-04)
 number of electron     321.9999974 magnetization 
 augmentation part       50.9127203 magnetization 

 Free energy of the ion-electron system (eV)
  ---------------------------------------------------
  alpha Z        PSCENC =       379.72439301
  Ewald energy   TEWEN  =     18509.04670523
  -Hartree energ DENC   =    -47243.01662100
  -exchange      EXHF   =      4567.29225156
  -V(xc)+E(xc)   XCENC  =         0.00000000
  PAW double counting   =     32034.10852757   -32278.84499052
  entropy T*S    EENTRO =        -0.00000000
  eigenvalues    EBANDS =     -8561.67097850
  atomic energy  EATOM  =     31685.62717035
  ---------------------------------------------------
  free energy    TOTEN  =      -907.73354230 eV

  energy without entropy =     -907.73354230  energy(sigma->0) =     -907.73354230
  exchange ACFDT corr.  =         0.00000000  see jH, gK, PRB 81, 115126


--------------------------------------------------------------------------------------------------------




--------------------------------------- Iteration      1( 123)  ---------------------------------------


    POTLOK:  cpu time      0.2286: real time      0.2293
    SETDIJ:  cpu time      0.4498: real time      0.4511
    TRIAL :  cpu time     30.8882: real time     31.0469
    CORREC:  cpu time     30.6074: real time     31.0774
    CHARGE:  cpu time      0.2177: real time      0.2182
    --------------------------------------------
      LOOP:  cpu time     62.3936: real time     63.0249

 eigenvalue-minimisations  :     0
 total energy-change (2. order) :-0.7568807E-04  (-0.7452768E-04)
 number of electron     321.9999974 magnetization 
 augmentation part       50.9128342 magnetization 

 Free energy of the ion-electron system (eV)
  ---------------------------------------------------
  alpha Z        PSCENC =       379.72439301
  Ewald energy   TEWEN  =     18509.04670523
  -Hartree energ DENC   =    -47243.00465666
  -exchange      EXHF   =      4567.29365563
  -V(xc)+E(xc)   XCENC  =         0.00000000
  PAW double counting   =     32034.08549379   -32278.82172401
  entropy T*S    EENTRO =        -0.00000000
  eigenvalues    EBANDS =     -8561.68465534
  atomic energy  EATOM  =     31685.62717035
  ---------------------------------------------------
  free energy    TOTEN  =      -907.73361799 eV

  energy without entropy =     -907.73361799  energy(sigma->0) =     -907.73361799
  exchange ACFDT corr.  =         0.00000000  see jH, gK, PRB 81, 115126


--------------------------------------------------------------------------------------------------------




--------------------------------------- Iteration      1( 124)  ---------------------------------------


    POTLOK:  cpu time      0.2291: real time      0.2298
    SETDIJ:  cpu time      0.4491: real time      0.4505
    TRIAL :  cpu time     30.9255: real time     31.0307
    CORREC:  cpu time     30.6966: real time     31.1270
    CHARGE:  cpu time      0.2164: real time      0.2169
    --------------------------------------------
      LOOP:  cpu time     62.5186: real time     63.0568

 eigenvalue-minimisations  :     0
 total energy-change (2. order) :-0.7449558E-04  (-0.7090812E-04)
 number of electron     321.9999974 magnetization 
 augmentation part       50.9129726 magnetization 

 Free energy of the ion-electron system (eV)
  ---------------------------------------------------
  alpha Z        PSCENC =       379.72439301
  Ewald energy   TEWEN  =     18509.04670523
  -Hartree energ DENC   =    -47242.99693125
  -exchange      EXHF   =      4567.29418670
  -V(xc)+E(xc)   XCENC  =         0.00000000
  PAW double counting   =     32034.07079788   -32278.80981107
  entropy T*S    EENTRO =        -0.00000000
  eigenvalues    EBANDS =     -8561.69020335
  atomic energy  EATOM  =     31685.62717035
  ---------------------------------------------------
  free energy    TOTEN  =      -907.73369249 eV

  energy without entropy =     -907.73369249  energy(sigma->0) =     -907.73369249
  exchange ACFDT corr.  =         0.00000000  see jH, gK, PRB 81, 115126


--------------------------------------------------------------------------------------------------------




--------------------------------------- Iteration      1( 125)  ---------------------------------------


    POTLOK:  cpu time      0.2293: real time      0.2298
    SETDIJ:  cpu time      0.4471: real time      0.4484
    TRIAL :  cpu time     31.2719: real time     31.3733
    CORREC:  cpu time     30.7536: real time     31.2545
    CHARGE:  cpu time      0.2160: real time      0.2169
    --------------------------------------------
      LOOP:  cpu time     62.9197: real time     63.5247

 eigenvalue-minimisations  :     0
 total energy-change (2. order) :-0.7086791E-04  (-0.5672256E-04)
 number of electron     321.9999974 magnetization 
 augmentation part       50.9129914 magnetization 

 Free energy of the ion-electron system (eV)
  ---------------------------------------------------
  alpha Z        PSCENC =       379.72439301
  Ewald energy   TEWEN  =     18509.04670523
  -Hartree energ DENC   =    -47242.99157477
  -exchange      EXHF   =      4567.29393136
  -V(xc)+E(xc)   XCENC  =         0.00000000
  PAW double counting   =     32034.05748825   -32278.80133189
  entropy T*S    EENTRO =        -0.00000000
  eigenvalues    EBANDS =     -8561.69054491
  atomic energy  EATOM  =     31685.62717035
  ---------------------------------------------------
  free energy    TOTEN  =      -907.73376336 eV

  energy without entropy =     -907.73376336  energy(sigma->0) =     -907.73376336
  exchange ACFDT corr.  =         0.00000000  see jH, gK, PRB 81, 115126


--------------------------------------------------------------------------------------------------------




--------------------------------------- Iteration      1( 126)  ---------------------------------------


    POTLOK:  cpu time      0.2287: real time      0.2293
    SETDIJ:  cpu time      0.4534: real time      0.4546
    TRIAL :  cpu time     31.0522: real time     31.2279
    CORREC:  cpu time     30.8886: real time     31.3822
    CHARGE:  cpu time      0.2177: real time      0.2182
    --------------------------------------------
      LOOP:  cpu time     62.8425: real time     63.5140

 eigenvalue-minimisations  :     0
 total energy-change (2. order) :-0.5673263E-04  (-0.5428873E-04)
 number of electron     321.9999974 magnetization 
 augmentation part       50.9128826 magnetization 

 Free energy of the ion-electron system (eV)
  ---------------------------------------------------
  alpha Z        PSCENC =       379.72439301
  Ewald energy   TEWEN  =     18509.04670523
  -Hartree energ DENC   =    -47242.97675204
  -exchange      EXHF   =      4567.29257876
  -V(xc)+E(xc)   XCENC  =         0.00000000
  PAW double counting   =     32034.02848569   -32278.77460830
  entropy T*S    EENTRO =        -0.00000000
  eigenvalues    EBANDS =     -8561.70179279
  atomic energy  EATOM  =     31685.62717035
  ---------------------------------------------------
  free energy    TOTEN  =      -907.73382009 eV

  energy without entropy =     -907.73382009  energy(sigma->0) =     -907.73382009
  exchange ACFDT corr.  =         0.00000000  see jH, gK, PRB 81, 115126


--------------------------------------------------------------------------------------------------------




--------------------------------------- Iteration      1( 127)  ---------------------------------------


    POTLOK:  cpu time      0.2291: real time      0.2296
    SETDIJ:  cpu time      0.4419: real time      0.4432
    TRIAL :  cpu time     31.0426: real time     31.1822
    CORREC:  cpu time     30.9440: real time     31.3226
    CHARGE:  cpu time      0.2178: real time      0.2187
    --------------------------------------------
      LOOP:  cpu time     62.8773: real time     63.3982

 eigenvalue-minimisations  :     0
 total energy-change (2. order) :-0.5427618E-04  (-0.4990391E-04)
 number of electron     321.9999974 magnetization 
 augmentation part       50.9128369 magnetization 

 Free energy of the ion-electron system (eV)
  ---------------------------------------------------
  alpha Z        PSCENC =       379.72439301
  Ewald energy   TEWEN  =     18509.04670523
  -Hartree energ DENC   =    -47242.94231178
  -exchange      EXHF   =      4567.29011579
  -V(xc)+E(xc)   XCENC  =         0.00000000
  PAW double counting   =     32033.97079759   -32278.71716362
  entropy T*S    EENTRO =        -0.00000000
  eigenvalues    EBANDS =     -8561.73358094
  atomic energy  EATOM  =     31685.62717035
  ---------------------------------------------------
  free energy    TOTEN  =      -907.73387436 eV

  energy without entropy =     -907.73387436  energy(sigma->0) =     -907.73387436
  exchange ACFDT corr.  =         0.00000000  see jH, gK, PRB 81, 115126


--------------------------------------------------------------------------------------------------------




--------------------------------------- Iteration      1( 128)  ---------------------------------------


    POTLOK:  cpu time      0.2294: real time      0.2300
    SETDIJ:  cpu time      0.4490: real time      0.4502
    TRIAL :  cpu time     30.9139: real time     31.0155
    CORREC:  cpu time     30.8224: real time     31.2200
    CHARGE:  cpu time      0.2146: real time      0.2153
    --------------------------------------------
      LOOP:  cpu time     62.6314: real time     63.1330

 eigenvalue-minimisations  :     0
 total energy-change (2. order) :-0.4989553E-04  (-0.4604544E-04)
 number of electron     321.9999974 magnetization 
 augmentation part       50.9128008 magnetization 

 Free energy of the ion-electron system (eV)
  ---------------------------------------------------
  alpha Z        PSCENC =       379.72439301
  Ewald energy   TEWEN  =     18509.04670523
  -Hartree energ DENC   =    -47242.92242878
  -exchange      EXHF   =      4567.28777616
  -V(xc)+E(xc)   XCENC  =         0.00000000
  PAW double counting   =     32033.92565313   -32278.67485377
  entropy T*S    EENTRO =        -0.00000000
  eigenvalues    EBANDS =     -8561.74833960
  atomic energy  EATOM  =     31685.62717035
  ---------------------------------------------------
  free energy    TOTEN  =      -907.73392426 eV

  energy without entropy =     -907.73392426  energy(sigma->0) =     -907.73392426
  exchange ACFDT corr.  =         0.00000000  see jH, gK, PRB 81, 115126


--------------------------------------------------------------------------------------------------------




--------------------------------------- Iteration      1( 129)  ---------------------------------------


    POTLOK:  cpu time      0.2290: real time      0.2297
    SETDIJ:  cpu time      0.4504: real time      0.4516
    TRIAL :  cpu time     30.7742: real time     30.9429
    CORREC:  cpu time     31.0692: real time     31.4075
    CHARGE:  cpu time      0.2148: real time      0.2153
    --------------------------------------------
      LOOP:  cpu time     62.7394: real time     63.2489

 eigenvalue-minimisations  :     0
 total energy-change (2. order) :-0.4604663E-04  (-0.4858685E-04)
 number of electron     321.9999974 magnetization 
 augmentation part       50.9126276 magnetization 

 Free energy of the ion-electron system (eV)
  ---------------------------------------------------
  alpha Z        PSCENC =       379.72439301
  Ewald energy   TEWEN  =     18509.04670523
  -Hartree energ DENC   =    -47242.91588608
  -exchange      EXHF   =      4567.28542342
  -V(xc)+E(xc)   XCENC  =         0.00000000
  PAW double counting   =     32033.89735598   -32278.64891213
  entropy T*S    EENTRO =        -0.00000000
  eigenvalues    EBANDS =     -8561.75022009
  atomic energy  EATOM  =     31685.62717035
  ---------------------------------------------------
  free energy    TOTEN  =      -907.73397031 eV

  energy without entropy =     -907.73397031  energy(sigma->0) =     -907.73397031
  exchange ACFDT corr.  =         0.00000000  see jH, gK, PRB 81, 115126


--------------------------------------------------------------------------------------------------------




--------------------------------------- Iteration      1( 130)  ---------------------------------------


    POTLOK:  cpu time      0.2296: real time      0.2301
    SETDIJ:  cpu time      0.4161: real time      0.4582
    TRIAL :  cpu time     30.7995: real time     31.0811
    CORREC:  cpu time     31.0836: real time     31.4175
    CHARGE:  cpu time      0.2190: real time      0.2195
    --------------------------------------------
      LOOP:  cpu time     62.7498: real time     63.4084

 eigenvalue-minimisations  :     0
 total energy-change (2. order) :-0.4859636E-04  (-0.4456142E-04)
 number of electron     321.9999974 magnetization 
 augmentation part       50.9124964 magnetization 

 Free energy of the ion-electron system (eV)
  ---------------------------------------------------
  alpha Z        PSCENC =       379.72439301
  Ewald energy   TEWEN  =     18509.04670523
  -Hartree energ DENC   =    -47242.89101305
  -exchange      EXHF   =      4567.28310621
  -V(xc)+E(xc)   XCENC  =         0.00000000
  PAW double counting   =     32033.84636566   -32278.59632228
  entropy T*S    EENTRO =        -0.00000000
  eigenvalues    EBANDS =     -8561.77442404
  atomic energy  EATOM  =     31685.62717035
  ---------------------------------------------------
  free energy    TOTEN  =      -907.73401890 eV

  energy without entropy =     -907.73401890  energy(sigma->0) =     -907.73401890
  exchange ACFDT corr.  =         0.00000000  see jH, gK, PRB 81, 115126


--------------------------------------------------------------------------------------------------------




--------------------------------------- Iteration      1( 131)  ---------------------------------------


    POTLOK:  cpu time      0.2299: real time      0.2309
    SETDIJ:  cpu time      0.4497: real time      0.4507
    TRIAL :  cpu time     30.9655: real time     31.6728
    CORREC:  cpu time     30.9330: real time     31.0443
    CHARGE:  cpu time      0.2149: real time      0.2154
    --------------------------------------------
      LOOP:  cpu time     62.7949: real time     63.6160

 eigenvalue-minimisations  :     0
 total energy-change (2. order) :-0.4455843E-04  (-0.4398424E-04)
 number of electron     321.9999974 magnetization 
 augmentation part       50.9124849 magnetization 

 Free energy of the ion-electron system (eV)
  ---------------------------------------------------
  alpha Z        PSCENC =       379.72439301
  Ewald energy   TEWEN  =     18509.04670523
  -Hartree energ DENC   =    -47242.87492415
  -exchange      EXHF   =      4567.28173804
  -V(xc)+E(xc)   XCENC  =         0.00000000
  PAW double counting   =     32033.80581183   -32278.55447126
  entropy T*S    EENTRO =        -0.00000000
  eigenvalues    EBANDS =     -8561.79048651
  atomic energy  EATOM  =     31685.62717035
  ---------------------------------------------------
  free energy    TOTEN  =      -907.73406346 eV

  energy without entropy =     -907.73406346  energy(sigma->0) =     -907.73406346
  exchange ACFDT corr.  =         0.00000000  see jH, gK, PRB 81, 115126


--------------------------------------------------------------------------------------------------------




--------------------------------------- Iteration      1( 132)  ---------------------------------------


    POTLOK:  cpu time      0.2364: real time      0.2370
    SETDIJ:  cpu time      0.4272: real time      0.4564
    TRIAL :  cpu time     30.7952: real time     31.2274
    CORREC:  cpu time     30.9142: real time     31.0118
    CHARGE:  cpu time      0.2151: real time      0.2156
    --------------------------------------------
      LOOP:  cpu time     62.5902: real time     63.1502

 eigenvalue-minimisations  :     0
 total energy-change (2. order) :-0.4399194E-04  (-0.2939739E-04)
 number of electron     321.9999974 magnetization 
 augmentation part       50.9124582 magnetization 

 Free energy of the ion-electron system (eV)
  ---------------------------------------------------
  alpha Z        PSCENC =       379.72439301
  Ewald energy   TEWEN  =     18509.04670523
  -Hartree energ DENC   =    -47242.88093228
  -exchange      EXHF   =      4567.28174110
  -V(xc)+E(xc)   XCENC  =         0.00000000
  PAW double counting   =     32033.79214148   -32278.54172958
  entropy T*S    EENTRO =        -0.00000000
  eigenvalues    EBANDS =     -8561.78359677
  atomic energy  EATOM  =     31685.62717035
  ---------------------------------------------------
  free energy    TOTEN  =      -907.73410745 eV

  energy without entropy =     -907.73410745  energy(sigma->0) =     -907.73410745
  exchange ACFDT corr.  =         0.00000000  see jH, gK, PRB 81, 115126


--------------------------------------------------------------------------------------------------------




--------------------------------------- Iteration      1( 133)  ---------------------------------------


    POTLOK:  cpu time      0.2317: real time      0.2322
    SETDIJ:  cpu time      0.4449: real time      0.4463
    TRIAL :  cpu time     30.7844: real time     31.2829
    CORREC:  cpu time     30.9070: real time     31.0167
    CHARGE:  cpu time      0.2145: real time      0.2150
    --------------------------------------------
      LOOP:  cpu time     62.5845: real time     63.1952

 eigenvalue-minimisations  :     0
 total energy-change (2. order) :-0.2939688E-04  (-0.2550101E-04)
 number of electron     321.9999974 magnetization 
 augmentation part       50.9125568 magnetization 

 Free energy of the ion-electron system (eV)
  ---------------------------------------------------
  alpha Z        PSCENC =       379.72439301
  Ewald energy   TEWEN  =     18509.04670523
  -Hartree energ DENC   =    -47242.87501419
  -exchange      EXHF   =      4567.28228513
  -V(xc)+E(xc)   XCENC  =         0.00000000
  PAW double counting   =     32033.78681702   -32278.53519015
  entropy T*S    EENTRO =        -0.00000000
  eigenvalues    EBANDS =     -8561.79130326
  atomic energy  EATOM  =     31685.62717035
  ---------------------------------------------------
  free energy    TOTEN  =      -907.73413685 eV

  energy without entropy =     -907.73413685  energy(sigma->0) =     -907.73413685
  exchange ACFDT corr.  =         0.00000000  see jH, gK, PRB 81, 115126


--------------------------------------------------------------------------------------------------------




--------------------------------------- Iteration      1( 134)  ---------------------------------------


    POTLOK:  cpu time      0.2322: real time      0.2330
    SETDIJ:  cpu time      0.4467: real time      0.4478
    TRIAL :  cpu time     30.5284: real time     30.9595
    CORREC:  cpu time     30.9660: real time     31.1589
    CHARGE:  cpu time      0.2143: real time      0.2157
    --------------------------------------------
      LOOP:  cpu time     62.3895: real time     63.0168

 eigenvalue-minimisations  :     0
 total energy-change (2. order) :-0.2549950E-04  (-0.2844498E-04)
 number of electron     321.9999974 magnetization 
 augmentation part       50.9125728 magnetization 

 Free energy of the ion-electron system (eV)
  ---------------------------------------------------
  alpha Z        PSCENC =       379.72439301
  Ewald energy   TEWEN  =     18509.04670523
  -Hartree energ DENC   =    -47242.89412726
  -exchange      EXHF   =      4567.28339129
  -V(xc)+E(xc)   XCENC  =         0.00000000
  PAW double counting   =     32033.81405988   -32278.56343769
  entropy T*S    EENTRO =        -0.00000000
  eigenvalues    EBANDS =     -8561.77231716
  atomic energy  EATOM  =     31685.62717035
  ---------------------------------------------------
  free energy    TOTEN  =      -907.73416235 eV

  energy without entropy =     -907.73416235  energy(sigma->0) =     -907.73416235
  exchange ACFDT corr.  =         0.00000000  see jH, gK, PRB 81, 115126


--------------------------------------------------------------------------------------------------------




--------------------------------------- Iteration      1( 135)  ---------------------------------------


    POTLOK:  cpu time      0.2306: real time      0.2328
    SETDIJ:  cpu time      0.4470: real time      0.4485
    TRIAL :  cpu time     30.5671: real time     31.0632
    CORREC:  cpu time     31.0157: real time     31.1280
    CHARGE:  cpu time      0.2174: real time      0.2182
    --------------------------------------------
      LOOP:  cpu time     62.4795: real time     63.0924

 eigenvalue-minimisations  :     0
 total energy-change (2. order) :-0.2844384E-04  (-0.2631033E-04)
 number of electron     321.9999974 magnetization 
 augmentation part       50.9125964 magnetization 

 Free energy of the ion-electron system (eV)
  ---------------------------------------------------
  alpha Z        PSCENC =       379.72439301
  Ewald energy   TEWEN  =     18509.04670523
  -Hartree energ DENC   =    -47242.89988758
  -exchange      EXHF   =      4567.28488680
  -V(xc)+E(xc)   XCENC  =         0.00000000
  PAW double counting   =     32033.82774287   -32278.57545028
  entropy T*S    EENTRO =        -0.00000000
  eigenvalues    EBANDS =     -8561.76975119
  atomic energy  EATOM  =     31685.62717035
  ---------------------------------------------------
  free energy    TOTEN  =      -907.73419079 eV

  energy without entropy =     -907.73419079  energy(sigma->0) =     -907.73419079
  exchange ACFDT corr.  =         0.00000000  see jH, gK, PRB 81, 115126


--------------------------------------------------------------------------------------------------------




--------------------------------------- Iteration      1( 136)  ---------------------------------------


    POTLOK:  cpu time      0.2299: real time      0.2309
    SETDIJ:  cpu time      0.4462: real time      0.4473
    TRIAL :  cpu time     30.7936: real time     31.2043
    CORREC:  cpu time     31.0656: real time     31.2130
    CHARGE:  cpu time      0.2181: real time      0.2187
    --------------------------------------------
      LOOP:  cpu time     62.7544: real time     63.3160

 eigenvalue-minimisations  :     0
 total energy-change (2. order) :-0.2630940E-04  (-0.2817956E-04)
 number of electron     321.9999974 magnetization 
 augmentation part       50.9126157 magnetization 

 Free energy of the ion-electron system (eV)
  ---------------------------------------------------
  alpha Z        PSCENC =       379.72439301
  Ewald energy   TEWEN  =     18509.04670523
  -Hartree energ DENC   =    -47242.91644104
  -exchange      EXHF   =      4567.28614643
  -V(xc)+E(xc)   XCENC  =         0.00000000
  PAW double counting   =     32033.85623694   -32278.60194345
  entropy T*S    EENTRO =        -0.00000000
  eigenvalues    EBANDS =     -8561.75648458
  atomic energy  EATOM  =     31685.62717035
  ---------------------------------------------------
  free energy    TOTEN  =      -907.73421710 eV

  energy without entropy =     -907.73421710  energy(sigma->0) =     -907.73421710
  exchange ACFDT corr.  =         0.00000000  see jH, gK, PRB 81, 115126


--------------------------------------------------------------------------------------------------------




--------------------------------------- Iteration      1( 137)  ---------------------------------------


    POTLOK:  cpu time      0.2299: real time      0.2305
    SETDIJ:  cpu time      0.4500: real time      0.4511
    TRIAL :  cpu time     30.9346: real time     31.3129
    CORREC:  cpu time     30.8406: real time     31.0195
    CHARGE:  cpu time      0.2130: real time      0.2135
    --------------------------------------------
      LOOP:  cpu time     62.6699: real time     63.2293

 eigenvalue-minimisations  :     0
 total energy-change (2. order) :-0.2817877E-04  (-0.2855380E-04)
 number of electron     321.9999974 magnetization 
 augmentation part       50.9125988 magnetization 

 Free energy of the ion-electron system (eV)
  ---------------------------------------------------
  alpha Z        PSCENC =       379.72439301
  Ewald energy   TEWEN  =     18509.04670523
  -Hartree energ DENC   =    -47242.93774676
  -exchange      EXHF   =      4567.28738209
  -V(xc)+E(xc)   XCENC  =         0.00000000
  PAW double counting   =     32033.89267448   -32278.63627661
  entropy T*S    EENTRO =        -0.00000000
  eigenvalues    EBANDS =     -8561.73854708
  atomic energy  EATOM  =     31685.62717035
  ---------------------------------------------------
  free energy    TOTEN  =      -907.73424528 eV

  energy without entropy =     -907.73424528  energy(sigma->0) =     -907.73424528
  exchange ACFDT corr.  =         0.00000000  see jH, gK, PRB 81, 115126


--------------------------------------------------------------------------------------------------------




--------------------------------------- Iteration      1( 138)  ---------------------------------------


    POTLOK:  cpu time      0.2310: real time      0.2315
    SETDIJ:  cpu time      0.4448: real time      0.4522
    TRIAL :  cpu time     31.0898: real time     31.5603
    CORREC:  cpu time     30.8093: real time     30.9785
    CHARGE:  cpu time      0.2161: real time      0.2166
    --------------------------------------------
      LOOP:  cpu time     62.7928: real time     63.4412

 eigenvalue-minimisations  :     0
 total energy-change (2. order) :-0.2855274E-04  (-0.2479823E-04)
 number of electron     321.9999974 magnetization 
 augmentation part       50.9126226 magnetization 

 Free energy of the ion-electron system (eV)
  ---------------------------------------------------
  alpha Z        PSCENC =       379.72439301
  Ewald energy   TEWEN  =     18509.04670523
  -Hartree energ DENC   =    -47242.95519369
  -exchange      EXHF   =      4567.28829472
  -V(xc)+E(xc)   XCENC  =         0.00000000
  PAW double counting   =     32033.92852396   -32278.66985249
  entropy T*S    EENTRO =        -0.00000000
  eigenvalues    EBANDS =     -8561.72431493
  atomic energy  EATOM  =     31685.62717035
  ---------------------------------------------------
  free energy    TOTEN  =      -907.73427383 eV

  energy without entropy =     -907.73427383  energy(sigma->0) =     -907.73427383
  exchange ACFDT corr.  =         0.00000000  see jH, gK, PRB 81, 115126


--------------------------------------------------------------------------------------------------------




--------------------------------------- Iteration      1( 139)  ---------------------------------------


    POTLOK:  cpu time      0.2269: real time      0.2278
    SETDIJ:  cpu time      0.4600: real time      0.4612
    TRIAL :  cpu time     31.6009: real time     31.9614
    CORREC:  cpu time     30.6172: real time     31.5863
    CHARGE:  cpu time      0.2178: real time      0.2205
    --------------------------------------------
      LOOP:  cpu time     63.1250: real time     64.4593

 eigenvalue-minimisations  :     0
 total energy-change (2. order) :-0.2479732E-04  (-0.2569592E-04)
 number of electron     321.9999974 magnetization 
 augmentation part       50.9126048 magnetization 

 Free energy of the ion-electron system (eV)
  ---------------------------------------------------
  alpha Z        PSCENC =       379.72439301
  Ewald energy   TEWEN  =     18509.04670523
  -Hartree energ DENC   =    -47242.98098359
  -exchange      EXHF   =      4567.28889856
  -V(xc)+E(xc)   XCENC  =         0.00000000
  PAW double counting   =     32033.97179585   -32278.71294165
  entropy T*S    EENTRO =        -0.00000000
  eigenvalues    EBANDS =     -8561.69933639
  atomic energy  EATOM  =     31685.62717035
  ---------------------------------------------------
  free energy    TOTEN  =      -907.73429863 eV

  energy without entropy =     -907.73429863  energy(sigma->0) =     -907.73429863
  exchange ACFDT corr.  =         0.00000000  see jH, gK, PRB 81, 115126


--------------------------------------------------------------------------------------------------------




--------------------------------------- Iteration      1( 140)  ---------------------------------------


    POTLOK:  cpu time      0.2453: real time      0.2859
    SETDIJ:  cpu time      0.4136: real time      0.4662
    TRIAL :  cpu time     31.3532: real time     31.5923
    CORREC:  cpu time     30.5638: real time     30.9901
    CHARGE:  cpu time      0.2126: real time      0.2131
    --------------------------------------------
      LOOP:  cpu time     62.7914: real time     63.5504

 eigenvalue-minimisations  :     0
 total energy-change (2. order) :-0.2569528E-04  (-0.2573087E-04)
 number of electron     321.9999974 magnetization 
 augmentation part       50.9126075 magnetization 

 Free energy of the ion-electron system (eV)
  ---------------------------------------------------
  alpha Z        PSCENC =       379.72439301
  Ewald energy   TEWEN  =     18509.04670523
  -Hartree energ DENC   =    -47242.99567935
  -exchange      EXHF   =      4567.28930953
  -V(xc)+E(xc)   XCENC  =         0.00000000
  PAW double counting   =     32034.00126493   -32278.74214005
  entropy T*S    EENTRO =        -0.00000000
  eigenvalues    EBANDS =     -8561.68534799
  atomic energy  EATOM  =     31685.62717035
  ---------------------------------------------------
  free energy    TOTEN  =      -907.73432433 eV

  energy without entropy =     -907.73432433  energy(sigma->0) =     -907.73432433
  exchange ACFDT corr.  =         0.00000000  see jH, gK, PRB 81, 115126


--------------------------------------------------------------------------------------------------------




--------------------------------------- Iteration      1( 141)  ---------------------------------------


    POTLOK:  cpu time      0.2269: real time      0.2278
    SETDIJ:  cpu time      0.4490: real time      0.4502
    TRIAL :  cpu time     30.9390: real time     31.0353
    CORREC:  cpu time     30.5082: real time     31.1381
    CHARGE:  cpu time      0.2126: real time      0.2134
    --------------------------------------------
      LOOP:  cpu time     62.3377: real time     63.0668

 eigenvalue-minimisations  :     0
 total energy-change (2. order) :-0.2573011E-04  (-0.2390061E-04)
 number of electron     321.9999974 magnetization 
 augmentation part       50.9125783 magnetization 

 Free energy of the ion-electron system (eV)
  ---------------------------------------------------
  alpha Z        PSCENC =       379.72439301
  Ewald energy   TEWEN  =     18509.04670523
  -Hartree energ DENC   =    -47243.01089911
  -exchange      EXHF   =      4567.28889734
  -V(xc)+E(xc)   XCENC  =         0.00000000
  PAW double counting   =     32034.03231460   -32278.77366828
  entropy T*S    EENTRO =        -0.00000000
  eigenvalues    EBANDS =     -8561.66926320
  atomic energy  EATOM  =     31685.62717035
  ---------------------------------------------------
  free energy    TOTEN  =      -907.73435006 eV

  energy without entropy =     -907.73435006  energy(sigma->0) =     -907.73435006
  exchange ACFDT corr.  =         0.00000000  see jH, gK, PRB 81, 115126


--------------------------------------------------------------------------------------------------------




--------------------------------------- Iteration      1( 142)  ---------------------------------------


    POTLOK:  cpu time      0.2273: real time      0.2278
    SETDIJ:  cpu time      0.4470: real time      0.4481
    TRIAL :  cpu time     30.9516: real time     31.0470
    CORREC:  cpu time     29.9394: real time     31.0197
    CHARGE:  cpu time      0.2123: real time      0.2129
    --------------------------------------------
      LOOP:  cpu time     61.7797: real time     62.9576

 eigenvalue-minimisations  :     0
 total energy-change (2. order) :-0.2389937E-04  (-0.2271563E-04)
 number of electron     321.9999974 magnetization 
 augmentation part       50.9125381 magnetization 

 Free energy of the ion-electron system (eV)
  ---------------------------------------------------
  alpha Z        PSCENC =       379.72439301
  Ewald energy   TEWEN  =     18509.04670523
  -Hartree energ DENC   =    -47243.01314663
  -exchange      EXHF   =      4567.28792237
  -V(xc)+E(xc)   XCENC  =         0.00000000
  PAW double counting   =     32034.04343346   -32278.78476503
  entropy T*S    EENTRO =        -0.00000000
  eigenvalues    EBANDS =     -8561.66608672
  atomic energy  EATOM  =     31685.62717035
  ---------------------------------------------------
  free energy    TOTEN  =      -907.73437396 eV

  energy without entropy =     -907.73437396  energy(sigma->0) =     -907.73437396
  exchange ACFDT corr.  =         0.00000000  see jH, gK, PRB 81, 115126


--------------------------------------------------------------------------------------------------------




--------------------------------------- Iteration      1( 143)  ---------------------------------------


    POTLOK:  cpu time      0.2282: real time      0.2291
    SETDIJ:  cpu time      0.4516: real time      0.4527
    TRIAL :  cpu time     31.1730: real time     31.2957
    CORREC:  cpu time     30.6183: real time     31.0026
    CHARGE:  cpu time      0.2123: real time      0.2131
    --------------------------------------------
      LOOP:  cpu time     62.6858: real time     63.1955

 eigenvalue-minimisations  :     0
 total energy-change (2. order) :-0.2271486E-04  (-0.2541013E-04)
 number of electron     321.9999974 magnetization 
 augmentation part       50.9125272 magnetization 

 Free energy of the ion-electron system (eV)
  ---------------------------------------------------
  alpha Z        PSCENC =       379.72439301
  Ewald energy   TEWEN  =     18509.04670523
  -Hartree energ DENC   =    -47243.00299413
  -exchange      EXHF   =      4567.28696247
  -V(xc)+E(xc)   XCENC  =         0.00000000
  PAW double counting   =     32034.03756765   -32278.77920691
  entropy T*S    EENTRO =        -0.00000000
  eigenvalues    EBANDS =     -8561.67499433
  atomic energy  EATOM  =     31685.62717035
  ---------------------------------------------------
  free energy    TOTEN  =      -907.73439667 eV

  energy without entropy =     -907.73439667  energy(sigma->0) =     -907.73439667
  exchange ACFDT corr.  =         0.00000000  see jH, gK, PRB 81, 115126


--------------------------------------------------------------------------------------------------------




--------------------------------------- Iteration      1( 144)  ---------------------------------------


    POTLOK:  cpu time      0.2275: real time      0.2281
    SETDIJ:  cpu time      0.4456: real time      0.4467
    TRIAL :  cpu time     31.1487: real time     31.2587
    CORREC:  cpu time     30.5871: real time     31.1239
    CHARGE:  cpu time      0.2162: real time      0.2167
    --------------------------------------------
      LOOP:  cpu time     62.6316: real time     63.2806

 eigenvalue-minimisations  :     0
 total energy-change (2. order) :-0.2540887E-04  (-0.2442898E-04)
 number of electron     321.9999974 magnetization 
 augmentation part       50.9125441 magnetization 

 Free energy of the ion-electron system (eV)
  ---------------------------------------------------
  alpha Z        PSCENC =       379.72439301
  Ewald energy   TEWEN  =     18509.04670523
  -Hartree energ DENC   =    -47242.98809656
  -exchange      EXHF   =      4567.28589107
  -V(xc)+E(xc)   XCENC  =         0.00000000
  PAW double counting   =     32034.02774284   -32278.77110593
  entropy T*S    EENTRO =        -0.00000000
  eigenvalues    EBANDS =     -8561.68712209
  atomic energy  EATOM  =     31685.62717035
  ---------------------------------------------------
  free energy    TOTEN  =      -907.73442208 eV

  energy without entropy =     -907.73442208  energy(sigma->0) =     -907.73442208
  exchange ACFDT corr.  =         0.00000000  see jH, gK, PRB 81, 115126


--------------------------------------------------------------------------------------------------------




--------------------------------------- Iteration      1( 145)  ---------------------------------------


    POTLOK:  cpu time      0.2299: real time      0.2305
    SETDIJ:  cpu time      0.4493: real time      0.4507
    TRIAL :  cpu time     30.7946: real time     30.9170
    CORREC:  cpu time     31.0748: real time     31.5176
    CHARGE:  cpu time      0.2141: real time      0.2147
    --------------------------------------------
      LOOP:  cpu time     62.7648: real time     63.3325

 eigenvalue-minimisations  :     0
 total energy-change (2. order) :-0.2442819E-04  (-0.2253543E-04)
 number of electron     321.9999974 magnetization 
 augmentation part       50.9124990 magnetization 

 Free energy of the ion-electron system (eV)
  ---------------------------------------------------
  alpha Z        PSCENC =       379.72439301
  Ewald energy   TEWEN  =     18509.04670523
  -Hartree energ DENC   =    -47242.97413240
  -exchange      EXHF   =      4567.28437370
  -V(xc)+E(xc)   XCENC  =         0.00000000
  PAW double counting   =     32034.02050386   -32278.76635445
  entropy T*S    EENTRO =        -0.00000000
  eigenvalues    EBANDS =     -8561.69710581
  atomic energy  EATOM  =     31685.62717035
  ---------------------------------------------------
  free energy    TOTEN  =      -907.73444651 eV

  energy without entropy =     -907.73444651  energy(sigma->0) =     -907.73444651
  exchange ACFDT corr.  =         0.00000000  see jH, gK, PRB 81, 115126


--------------------------------------------------------------------------------------------------------




--------------------------------------- Iteration      1( 146)  ---------------------------------------


    POTLOK:  cpu time      0.2283: real time      0.2292
    SETDIJ:  cpu time      0.4471: real time      0.4482
    TRIAL :  cpu time     30.8698: real time     31.0520
    CORREC:  cpu time     31.0182: real time     31.4171
    CHARGE:  cpu time      0.2140: real time      0.2148
    --------------------------------------------
      LOOP:  cpu time     62.7796: real time     63.3635

 eigenvalue-minimisations  :     0
 total energy-change (2. order) :-0.2253474E-04  (-0.2427166E-04)
 number of electron     321.9999974 magnetization 
 augmentation part       50.9124444 magnetization 

 Free energy of the ion-electron system (eV)
  ---------------------------------------------------
  alpha Z        PSCENC =       379.72439301
  Ewald energy   TEWEN  =     18509.04670523
  -Hartree energ DENC   =    -47242.94720285
  -exchange      EXHF   =      4567.28239947
  -V(xc)+E(xc)   XCENC  =         0.00000000
  PAW double counting   =     32033.99866992   -32278.74558413
  entropy T*S    EENTRO =        -0.00000000
  eigenvalues    EBANDS =     -8561.72102005
  atomic energy  EATOM  =     31685.62717035
  ---------------------------------------------------
  free energy    TOTEN  =      -907.73446904 eV

  energy without entropy =     -907.73446904  energy(sigma->0) =     -907.73446904
  exchange ACFDT corr.  =         0.00000000  see jH, gK, PRB 81, 115126


--------------------------------------------------------------------------------------------------------




--------------------------------------- Iteration      1( 147)  ---------------------------------------


    POTLOK:  cpu time      0.2280: real time      0.2286
    SETDIJ:  cpu time      0.4493: real time      0.4505
    TRIAL :  cpu time     30.9970: real time     31.0995
    CORREC:  cpu time     30.7024: real time     31.2116
    CHARGE:  cpu time      0.2141: real time      0.2146
    --------------------------------------------
      LOOP:  cpu time     62.5926: real time     63.2065

 eigenvalue-minimisations  :     0
 total energy-change (2. order) :-0.2427106E-04  (-0.2271141E-04)
 number of electron     321.9999974 magnetization 
 augmentation part       50.9123747 magnetization 

 Free energy of the ion-electron system (eV)
  ---------------------------------------------------
  alpha Z        PSCENC =       379.72439301
  Ewald energy   TEWEN  =     18509.04670523
  -Hartree energ DENC   =    -47242.92406254
  -exchange      EXHF   =      4567.27958043
  -V(xc)+E(xc)   XCENC  =         0.00000000
  PAW double counting   =     32033.97843778   -32278.72614194
  entropy T*S    EENTRO =        -0.00000000
  eigenvalues    EBANDS =     -8561.74057562
  atomic energy  EATOM  =     31685.62717035
  ---------------------------------------------------
  free energy    TOTEN  =      -907.73449331 eV

  energy without entropy =     -907.73449331  energy(sigma->0) =     -907.73449331
  exchange ACFDT corr.  =         0.00000000  see jH, gK, PRB 81, 115126


--------------------------------------------------------------------------------------------------------




--------------------------------------- Iteration      1( 148)  ---------------------------------------


    POTLOK:  cpu time      0.2296: real time      0.2304
    SETDIJ:  cpu time      0.4471: real time      0.4485
    TRIAL :  cpu time     31.2661: real time     31.4780
    CORREC:  cpu time     31.4437: real time     31.7475
    CHARGE:  cpu time      0.2142: real time      0.2147
    --------------------------------------------
      LOOP:  cpu time     63.6027: real time     64.1210

 eigenvalue-minimisations  :     0
 total energy-change (2. order) :-0.2271013E-04  (-0.2379904E-04)
 number of electron     321.9999974 magnetization 
 augmentation part       50.9122830 magnetization 

 Free energy of the ion-electron system (eV)
  ---------------------------------------------------
  alpha Z        PSCENC =       379.72439301
  Ewald energy   TEWEN  =     18509.04670523
  -Hartree energ DENC   =    -47242.90402697
  -exchange      EXHF   =      4567.27708822
  -V(xc)+E(xc)   XCENC  =         0.00000000
  PAW double counting   =     32033.95724532   -32278.70511828
  entropy T*S    EENTRO =        -0.00000000
  eigenvalues    EBANDS =     -8561.75797290
  atomic energy  EATOM  =     31685.62717035
  ---------------------------------------------------
  free energy    TOTEN  =      -907.73451602 eV

  energy without entropy =     -907.73451602  energy(sigma->0) =     -907.73451602
  exchange ACFDT corr.  =         0.00000000  see jH, gK, PRB 81, 115126


--------------------------------------------------------------------------------------------------------




--------------------------------------- Iteration      1( 149)  ---------------------------------------


    POTLOK:  cpu time      0.2285: real time      0.2292
    SETDIJ:  cpu time      0.4488: real time      0.4501
    TRIAL :  cpu time     30.0107: real time     31.1381
    CORREC:  cpu time     30.8822: real time     31.5786
    CHARGE:  cpu time      0.2141: real time      0.2149
    --------------------------------------------
      LOOP:  cpu time     61.7863: real time     63.6129

 eigenvalue-minimisations  :     0
 total energy-change (2. order) :-0.2379934E-04  (-0.2582305E-04)
 number of electron     321.9999974 magnetization 
 augmentation part       50.9123057 magnetization 

 Free energy of the ion-electron system (eV)
  ---------------------------------------------------
  alpha Z        PSCENC =       379.72439301
  Ewald energy   TEWEN  =     18509.04670523
  -Hartree energ DENC   =    -47242.88253148
  -exchange      EXHF   =      4567.27556245
  -V(xc)+E(xc)   XCENC  =         0.00000000
  PAW double counting   =     32033.92739361   -32278.67517397
  entropy T*S    EENTRO =        -0.00000000
  eigenvalues    EBANDS =     -8561.77805903
  atomic energy  EATOM  =     31685.62717035
  ---------------------------------------------------
  free energy    TOTEN  =      -907.73453982 eV

  energy without entropy =     -907.73453982  energy(sigma->0) =     -907.73453982
  exchange ACFDT corr.  =         0.00000000  see jH, gK, PRB 81, 115126


--------------------------------------------------------------------------------------------------------




--------------------------------------- Iteration      1( 150)  ---------------------------------------


    POTLOK:  cpu time      0.2286: real time      0.2292
    SETDIJ:  cpu time      0.4480: real time      0.4493
    TRIAL :  cpu time     30.5340: real time     30.8883
    CORREC:  cpu time     30.9199: real time     31.0264
    CHARGE:  cpu time      0.2144: real time      0.2149
    --------------------------------------------
      LOOP:  cpu time     62.3470: real time     62.8103

 eigenvalue-minimisations  :     0
 total energy-change (2. order) :-0.2582247E-04  (-0.2637597E-04)
 number of electron     321.9999974 magnetization 
 augmentation part       50.9123069 magnetization 

 Free energy of the ion-electron system (eV)
  ---------------------------------------------------
  alpha Z        PSCENC =       379.72439301
  Ewald energy   TEWEN  =     18509.04670523
  -Hartree energ DENC   =    -47242.88955764
  -exchange      EXHF   =      4567.27470446
  -V(xc)+E(xc)   XCENC  =         0.00000000
  PAW double counting   =     32033.92749936   -32278.67740250
  entropy T*S    EENTRO =        -0.00000000
  eigenvalues    EBANDS =     -8561.76807792
  atomic energy  EATOM  =     31685.62717035
  ---------------------------------------------------
  free energy    TOTEN  =      -907.73456565 eV

  energy without entropy =     -907.73456565  energy(sigma->0) =     -907.73456565
  exchange ACFDT corr.  =         0.00000000  see jH, gK, PRB 81, 115126


--------------------------------------------------------------------------------------------------------




--------------------------------------- Iteration      1( 151)  ---------------------------------------


    POTLOK:  cpu time      0.2282: real time      0.2291
    SETDIJ:  cpu time      0.4505: real time      0.4517
    TRIAL :  cpu time     30.3509: real time     30.8205
    CORREC:  cpu time     30.8093: real time     30.9656
    CHARGE:  cpu time      0.2143: real time      0.2148
    --------------------------------------------
      LOOP:  cpu time     62.0549: real time     62.6834

 eigenvalue-minimisations  :     0
 total energy-change (2. order) :-0.2637598E-04  (-0.2307889E-04)
 number of electron     321.9999974 magnetization 
 augmentation part       50.9122085 magnetization 

 Free energy of the ion-electron system (eV)
  ---------------------------------------------------
  alpha Z        PSCENC =       379.72439301
  Ewald energy   TEWEN  =     18509.04670523
  -Hartree energ DENC   =    -47242.90210260
  -exchange      EXHF   =      4567.27402063
  -V(xc)+E(xc)   XCENC  =         0.00000000
  PAW double counting   =     32033.93332509   -32278.68350832
  entropy T*S    EENTRO =        -0.00000000
  eigenvalues    EBANDS =     -8561.75459543
  atomic energy  EATOM  =     31685.62717035
  ---------------------------------------------------
  free energy    TOTEN  =      -907.73459202 eV

  energy without entropy =     -907.73459202  energy(sigma->0) =     -907.73459202
  exchange ACFDT corr.  =         0.00000000  see jH, gK, PRB 81, 115126


--------------------------------------------------------------------------------------------------------




--------------------------------------- Iteration      1( 152)  ---------------------------------------


    POTLOK:  cpu time      0.2286: real time      0.2292
    SETDIJ:  cpu time      0.4503: real time      0.4517
    TRIAL :  cpu time     30.4298: real time     30.9389
    CORREC:  cpu time     30.9452: real time     31.0535
    CHARGE:  cpu time      0.2148: real time      0.2153
    --------------------------------------------
      LOOP:  cpu time     62.2705: real time     62.8906

 eigenvalue-minimisations  :     0
 total energy-change (2. order) :-0.2307814E-04  (-0.2376812E-04)
 number of electron     321.9999974 magnetization 
 augmentation part       50.9122003 magnetization 

 Free energy of the ion-electron system (eV)
  ---------------------------------------------------
  alpha Z        PSCENC =       379.72439301
  Ewald energy   TEWEN  =     18509.04670523
  -Hartree energ DENC   =    -47242.89861400
  -exchange      EXHF   =      4567.27385844
  -V(xc)+E(xc)   XCENC  =         0.00000000
  PAW double counting   =     32033.91966930   -32278.66682961
  entropy T*S    EENTRO =        -0.00000000
  eigenvalues    EBANDS =     -8561.76096781
  atomic energy  EATOM  =     31685.62717035
  ---------------------------------------------------
  free energy    TOTEN  =      -907.73461510 eV

  energy without entropy =     -907.73461510  energy(sigma->0) =     -907.73461510
  exchange ACFDT corr.  =         0.00000000  see jH, gK, PRB 81, 115126


--------------------------------------------------------------------------------------------------------




--------------------------------------- Iteration      1( 153)  ---------------------------------------


    POTLOK:  cpu time      0.2316: real time      0.2322
    SETDIJ:  cpu time      0.4431: real time      0.4445
    TRIAL :  cpu time     30.7944: real time     31.1631
    CORREC:  cpu time     30.8671: real time     30.9776
    CHARGE:  cpu time      0.2150: real time      0.2155
    --------------------------------------------
      LOOP:  cpu time     62.5532: real time     63.0348

 eigenvalue-minimisations  :     0
 total energy-change (2. order) :-0.2376887E-04  (-0.2741832E-04)
 number of electron     321.9999974 magnetization 
 augmentation part       50.9122956 magnetization 

 Free energy of the ion-electron system (eV)
  ---------------------------------------------------
  alpha Z        PSCENC =       379.72439301
  Ewald energy   TEWEN  =     18509.04670523
  -Hartree energ DENC   =    -47242.91393678
  -exchange      EXHF   =      4567.27459884
  -V(xc)+E(xc)   XCENC  =         0.00000000
  PAW double counting   =     32033.92847855   -32278.67437435
  entropy T*S    EENTRO =        -0.00000000
  eigenvalues    EBANDS =     -8561.74767373
  atomic energy  EATOM  =     31685.62717035
  ---------------------------------------------------
  free energy    TOTEN  =      -907.73463887 eV

  energy without entropy =     -907.73463887  energy(sigma->0) =     -907.73463887
  exchange ACFDT corr.  =         0.00000000  see jH, gK, PRB 81, 115126


--------------------------------------------------------------------------------------------------------




--------------------------------------- Iteration      1( 154)  ---------------------------------------


    POTLOK:  cpu time      0.2266: real time      0.2272
    SETDIJ:  cpu time      0.4485: real time      0.4498
    TRIAL :  cpu time     30.8617: real time     31.3205
    CORREC:  cpu time     30.7666: real time     30.9914
    CHARGE:  cpu time      0.2146: real time      0.2151
    --------------------------------------------
      LOOP:  cpu time     62.5200: real time     63.2060

 eigenvalue-minimisations  :     0
 total energy-change (2. order) :-0.2741482E-04  (-0.2379948E-04)
 number of electron     321.9999974 magnetization 
 augmentation part       50.9122967 magnetization 

 Free energy of the ion-electron system (eV)
  ---------------------------------------------------
  alpha Z        PSCENC =       379.72439301
  Ewald energy   TEWEN  =     18509.04670523
  -Hartree energ DENC   =    -47242.94843680
  -exchange      EXHF   =      4567.27624083
  -V(xc)+E(xc)   XCENC  =         0.00000000
  PAW double counting   =     32033.96099491   -32278.70793138
  entropy T*S    EENTRO =        -0.00000000
  eigenvalues    EBANDS =     -8561.71380244
  atomic energy  EATOM  =     31685.62717035
  ---------------------------------------------------
  free energy    TOTEN  =      -907.73466628 eV

  energy without entropy =     -907.73466628  energy(sigma->0) =     -907.73466628
  exchange ACFDT corr.  =         0.00000000  see jH, gK, PRB 81, 115126


--------------------------------------------------------------------------------------------------------




--------------------------------------- Iteration      1( 155)  ---------------------------------------


    POTLOK:  cpu time      0.2277: real time      0.2283
    SETDIJ:  cpu time      0.4467: real time      0.4481
    TRIAL :  cpu time     30.7242: real time     31.2899
    CORREC:  cpu time     30.9529: real time     31.0573
    CHARGE:  cpu time      0.2148: real time      0.2153
    --------------------------------------------
      LOOP:  cpu time     62.5682: real time     63.2409

 eigenvalue-minimisations  :     0
 total energy-change (2. order) :-0.2379832E-04  (-0.1917762E-04)
 number of electron     321.9999974 magnetization 
 augmentation part       50.9122885 magnetization 

 Free energy of the ion-electron system (eV)
  ---------------------------------------------------
  alpha Z        PSCENC =       379.72439301
  Ewald energy   TEWEN  =     18509.04670523
  -Hartree energ DENC   =    -47242.96182607
  -exchange      EXHF   =      4567.27727997
  -V(xc)+E(xc)   XCENC  =         0.00000000
  PAW double counting   =     32033.96649625   -32278.71247301
  entropy T*S    EENTRO =        -0.00000000
  eigenvalues    EBANDS =     -8561.70243582
  atomic energy  EATOM  =     31685.62717035
  ---------------------------------------------------
  free energy    TOTEN  =      -907.73469008 eV

  energy without entropy =     -907.73469008  energy(sigma->0) =     -907.73469008
  exchange ACFDT corr.  =         0.00000000  see jH, gK, PRB 81, 115126


--------------------------------------------------------------------------------------------------------




--------------------------------------- Iteration      1( 156)  ---------------------------------------


    POTLOK:  cpu time      0.2271: real time      0.2281
    SETDIJ:  cpu time      0.4559: real time      0.4570
    TRIAL :  cpu time     30.8433: real time     31.1965
    CORREC:  cpu time     30.8089: real time     30.9248
    CHARGE:  cpu time      0.2160: real time      0.2165
    --------------------------------------------
      LOOP:  cpu time     62.5533: real time     63.0249

 eigenvalue-minimisations  :     0
 total energy-change (2. order) :-0.1918241E-04  (-0.2053180E-04)
 number of electron     321.9999974 magnetization 
 augmentation part       50.9122757 magnetization 

 Free energy of the ion-electron system (eV)
  ---------------------------------------------------
  alpha Z        PSCENC =       379.72439301
  Ewald energy   TEWEN  =     18509.04670523
  -Hartree energ DENC   =    -47242.97083022
  -exchange      EXHF   =      4567.27743905
  -V(xc)+E(xc)   XCENC  =         0.00000000
  PAW double counting   =     32033.96809587   -32278.71310017
  entropy T*S    EENTRO =        -0.00000000
  eigenvalues    EBANDS =     -8561.69458241
  atomic energy  EATOM  =     31685.62717035
  ---------------------------------------------------
  free energy    TOTEN  =      -907.73470926 eV

  energy without entropy =     -907.73470926  energy(sigma->0) =     -907.73470926
  exchange ACFDT corr.  =         0.00000000  see jH, gK, PRB 81, 115126


--------------------------------------------------------------------------------------------------------




--------------------------------------- Iteration      1( 157)  ---------------------------------------


    POTLOK:  cpu time      0.2268: real time      0.2276
    SETDIJ:  cpu time      0.4514: real time      0.4546
    TRIAL :  cpu time     30.8859: real time     31.2737
    CORREC:  cpu time     31.1035: real time     31.8371
    CHARGE:  cpu time      0.2316: real time      0.2458
    --------------------------------------------
      LOOP:  cpu time     62.9002: real time     64.0413

 eigenvalue-minimisations  :     0
 total energy-change (2. order) :-0.2053027E-04  (-0.1876926E-04)
 number of electron     321.9999974 magnetization 
 augmentation part       50.9122410 magnetization 

 Free energy of the ion-electron system (eV)
  ---------------------------------------------------
  alpha Z        PSCENC =       379.72439301
  Ewald energy   TEWEN  =     18509.04670523
  -Hartree energ DENC   =    -47242.97473211
  -exchange      EXHF   =      4567.27712317
  -V(xc)+E(xc)   XCENC  =         0.00000000
  PAW double counting   =     32033.96471512   -32278.70902044
  entropy T*S    EENTRO =        -0.00000000
  eigenvalues    EBANDS =     -8561.69108413
  atomic energy  EATOM  =     31685.62717035
  ---------------------------------------------------
  free energy    TOTEN  =      -907.73472979 eV

  energy without entropy =     -907.73472979  energy(sigma->0) =     -907.73472979
  exchange ACFDT corr.  =         0.00000000  see jH, gK, PRB 81, 115126


--------------------------------------------------------------------------------------------------------




--------------------------------------- Iteration      1( 158)  ---------------------------------------


    POTLOK:  cpu time      0.2239: real time      0.2502
    SETDIJ:  cpu time      0.4518: real time      0.4777
    TRIAL :  cpu time     31.0187: real time     31.1620
    CORREC:  cpu time     30.7401: real time     31.0655
    CHARGE:  cpu time      0.2153: real time      0.2167
    --------------------------------------------
      LOOP:  cpu time     62.6594: real time     63.1819

 eigenvalue-minimisations  :     0
 total energy-change (2. order) :-0.1876817E-04  (-0.1612355E-04)
 number of electron     321.9999974 magnetization 
 augmentation part       50.9122248 magnetization 

 Free energy of the ion-electron system (eV)
  ---------------------------------------------------
  alpha Z        PSCENC =       379.72439301
  Ewald energy   TEWEN  =     18509.04670523
  -Hartree energ DENC   =    -47242.96958450
  -exchange      EXHF   =      4567.27673848
  -V(xc)+E(xc)   XCENC  =         0.00000000
  PAW double counting   =     32033.95178403   -32278.69521195
  entropy T*S    EENTRO =        -0.00000000
  eigenvalues    EBANDS =     -8561.69674322
  atomic energy  EATOM  =     31685.62717035
  ---------------------------------------------------
  free energy    TOTEN  =      -907.73474856 eV

  energy without entropy =     -907.73474856  energy(sigma->0) =     -907.73474856
  exchange ACFDT corr.  =         0.00000000  see jH, gK, PRB 81, 115126


--------------------------------------------------------------------------------------------------------




--------------------------------------- Iteration      1( 159)  ---------------------------------------


    POTLOK:  cpu time      0.2242: real time      0.2247
    SETDIJ:  cpu time      0.4508: real time      0.4519
    TRIAL :  cpu time     31.0767: real time     31.2004
    CORREC:  cpu time     30.7179: real time     31.1714
    CHARGE:  cpu time      0.2161: real time      0.2167
    --------------------------------------------
      LOOP:  cpu time     62.6879: real time     63.2672

 eigenvalue-minimisations  :     0
 total energy-change (2. order) :-0.1612193E-04  (-0.1896741E-04)
 number of electron     321.9999974 magnetization 
 augmentation part       50.9122312 magnetization 

 Free energy of the ion-electron system (eV)
  ---------------------------------------------------
  alpha Z        PSCENC =       379.72439301
  Ewald energy   TEWEN  =     18509.04670523
  -Hartree energ DENC   =    -47242.96814889
  -exchange      EXHF   =      4567.27630853
  -V(xc)+E(xc)   XCENC  =         0.00000000
  PAW double counting   =     32033.94513913   -32278.68785254
  entropy T*S    EENTRO =        -0.00000000
  eigenvalues    EBANDS =     -8561.69847951
  atomic energy  EATOM  =     31685.62717035
  ---------------------------------------------------
  free energy    TOTEN  =      -907.73476468 eV

  energy without entropy =     -907.73476468  energy(sigma->0) =     -907.73476468
  exchange ACFDT corr.  =         0.00000000  see jH, gK, PRB 81, 115126


--------------------------------------------------------------------------------------------------------




--------------------------------------- Iteration      1( 160)  ---------------------------------------


    POTLOK:  cpu time      0.2271: real time      0.2278
    SETDIJ:  cpu time      0.4478: real time      0.4491
    TRIAL :  cpu time     30.9288: real time     31.0633
    CORREC:  cpu time     30.6943: real time     31.1055
    CHARGE:  cpu time      0.2127: real time      0.2132
    --------------------------------------------
      LOOP:  cpu time     62.5127: real time     63.0610

 eigenvalue-minimisations  :     0
 total energy-change (2. order) :-0.1896613E-04  (-0.1620962E-04)
 number of electron     321.9999974 magnetization 
 augmentation part       50.9122148 magnetization 

 Free energy of the ion-electron system (eV)
  ---------------------------------------------------
  alpha Z        PSCENC =       379.72439301
  Ewald energy   TEWEN  =     18509.04670523
  -Hartree energ DENC   =    -47242.97067191
  -exchange      EXHF   =      4567.27592938
  -V(xc)+E(xc)   XCENC  =         0.00000000
  PAW double counting   =     32033.94466506   -32278.68681299
  entropy T*S    EENTRO =        -0.00000000
  eigenvalues    EBANDS =     -8561.69616178
  atomic energy  EATOM  =     31685.62717035
  ---------------------------------------------------
  free energy    TOTEN  =      -907.73478365 eV

  energy without entropy =     -907.73478365  energy(sigma->0) =     -907.73478365
  exchange ACFDT corr.  =         0.00000000  see jH, gK, PRB 81, 115126


--------------------------------------------------------------------------------------------------------




--------------------------------------- Iteration      1( 161)  ---------------------------------------


    POTLOK:  cpu time      0.2270: real time      0.2276
    SETDIJ:  cpu time      0.4492: real time      0.4505
    TRIAL :  cpu time     30.8719: real time     30.9968
    CORREC:  cpu time     30.7716: real time     31.1485
    CHARGE:  cpu time      0.2141: real time      0.2146
    --------------------------------------------
      LOOP:  cpu time     62.5359: real time     63.0401

 eigenvalue-minimisations  :     0
 total energy-change (2. order) :-0.1620599E-04  (-0.1519985E-04)
 number of electron     321.9999974 magnetization 
 augmentation part       50.9122328 magnetization 

 Free energy of the ion-electron system (eV)
  ---------------------------------------------------
  alpha Z        PSCENC =       379.72439301
  Ewald energy   TEWEN  =     18509.04670523
  -Hartree energ DENC   =    -47242.96522768
  -exchange      EXHF   =      4567.27642025
  -V(xc)+E(xc)   XCENC  =         0.00000000
  PAW double counting   =     32033.93491022   -32278.67631691
  entropy T*S    EENTRO =        -0.00000000
  eigenvalues    EBANDS =     -8561.70285434
  atomic energy  EATOM  =     31685.62717035
  ---------------------------------------------------
  free energy    TOTEN  =      -907.73479986 eV

  energy without entropy =     -907.73479986  energy(sigma->0) =     -907.73479986
  exchange ACFDT corr.  =         0.00000000  see jH, gK, PRB 81, 115126


--------------------------------------------------------------------------------------------------------




--------------------------------------- Iteration      1( 162)  ---------------------------------------


    POTLOK:  cpu time      0.2275: real time      0.2280
    SETDIJ:  cpu time      0.4492: real time      0.4505
    TRIAL :  cpu time     30.9277: real time     31.0337
    CORREC:  cpu time     30.5587: real time     31.1024
    CHARGE:  cpu time      0.2157: real time      0.2162
    --------------------------------------------
      LOOP:  cpu time     62.3806: real time     63.0327

 eigenvalue-minimisations  :     0
 total energy-change (2. order) :-0.1519647E-04  (-0.1947507E-04)
 number of electron     321.9999974 magnetization 
 augmentation part       50.9123133 magnetization 

 Free energy of the ion-electron system (eV)
  ---------------------------------------------------
  alpha Z        PSCENC =       379.72439301
  Ewald energy   TEWEN  =     18509.04670523
  -Hartree energ DENC   =    -47242.96729040
  -exchange      EXHF   =      4567.27753698
  -V(xc)+E(xc)   XCENC  =         0.00000000
  PAW double counting   =     32033.93487336   -32278.67634546
  entropy T*S    EENTRO =        -0.00000000
  eigenvalues    EBANDS =     -8561.70185812
  atomic energy  EATOM  =     31685.62717035
  ---------------------------------------------------
  free energy    TOTEN  =      -907.73481505 eV

  energy without entropy =     -907.73481505  energy(sigma->0) =     -907.73481505
  exchange ACFDT corr.  =         0.00000000  see jH, gK, PRB 81, 115126


--------------------------------------------------------------------------------------------------------




--------------------------------------- Iteration      1( 163)  ---------------------------------------


    POTLOK:  cpu time      0.2302: real time      0.2308
    SETDIJ:  cpu time      0.4502: real time      0.4516
    TRIAL :  cpu time     30.8694: real time     31.0634
    CORREC:  cpu time     31.1403: real time     31.6641
    CHARGE:  cpu time      0.2120: real time      0.2129
    --------------------------------------------
      LOOP:  cpu time     62.9042: real time     63.6248

 eigenvalue-minimisations  :     0
 total energy-change (2. order) :-0.1947654E-04  (-0.1063875E-04)
 number of electron     321.9999974 magnetization 
 augmentation part       50.9122678 magnetization 

 Free energy of the ion-electron system (eV)
  ---------------------------------------------------
  alpha Z        PSCENC =       379.72439301
  Ewald energy   TEWEN  =     18509.04670523
  -Hartree energ DENC   =    -47242.98638683
  -exchange      EXHF   =      4567.27910545
  -V(xc)+E(xc)   XCENC  =         0.00000000
  PAW double counting   =     32033.95702556   -32278.69947409
  entropy T*S    EENTRO =        -0.00000000
  eigenvalues    EBANDS =     -8561.68337321
  atomic energy  EATOM  =     31685.62717035
  ---------------------------------------------------
  free energy    TOTEN  =      -907.73483453 eV

  energy without entropy =     -907.73483453  energy(sigma->0) =     -907.73483453
  exchange ACFDT corr.  =         0.00000000  see jH, gK, PRB 81, 115126


--------------------------------------------------------------------------------------------------------




--------------------------------------- Iteration      1( 164)  ---------------------------------------


    POTLOK:  cpu time      0.2268: real time      0.2274
    SETDIJ:  cpu time      0.4492: real time      0.4502
    TRIAL :  cpu time     30.8703: real time     30.9730
    CORREC:  cpu time     30.8060: real time     31.2127
    CHARGE:  cpu time      0.2123: real time      0.2129
    --------------------------------------------
      LOOP:  cpu time     62.5669: real time     63.0784

 eigenvalue-minimisations  :     0
 total energy-change (2. order) :-0.1063856E-04  (-0.9378071E-05)
 number of electron     321.9999974 magnetization 
 augmentation part       50.9122560 magnetization 

 Free energy of the ion-electron system (eV)
  ---------------------------------------------------
  alpha Z        PSCENC =       379.72439301
  Ewald energy   TEWEN  =     18509.04670523
  -Hartree energ DENC   =    -47242.97931335
  -exchange      EXHF   =      4567.27909069
  -V(xc)+E(xc)   XCENC  =         0.00000000
  PAW double counting   =     32033.94723798   -32278.68864542
  entropy T*S    EENTRO =        -0.00000000
  eigenvalues    EBANDS =     -8561.69148366
  atomic energy  EATOM  =     31685.62717035
  ---------------------------------------------------
  free energy    TOTEN  =      -907.73484517 eV

  energy without entropy =     -907.73484517  energy(sigma->0) =     -907.73484517
  exchange ACFDT corr.  =         0.00000000  see jH, gK, PRB 81, 115126


--------------------------------------------------------------------------------------------------------




--------------------------------------- Iteration      1( 165)  ---------------------------------------


    POTLOK:  cpu time      0.2276: real time      0.2283
    SETDIJ:  cpu time      0.4464: real time      0.4475
    TRIAL :  cpu time     31.1698: real time     31.2889
    CORREC:  cpu time     30.6145: real time     31.0529
    CHARGE:  cpu time      0.2125: real time      0.2130
    --------------------------------------------
      LOOP:  cpu time     62.6725: real time     63.2323

 eigenvalue-minimisations  :     0
 total energy-change (2. order) :-0.9377261E-05  (-0.9769854E-05)
 number of electron     321.9999974 magnetization 
 augmentation part       50.9122632 magnetization 

 Free energy of the ion-electron system (eV)
  ---------------------------------------------------
  alpha Z        PSCENC =       379.72439301
  Ewald energy   TEWEN  =     18509.04670523
  -Hartree energ DENC   =    -47242.98236731
  -exchange      EXHF   =      4567.27879739
  -V(xc)+E(xc)   XCENC  =         0.00000000
  PAW double counting   =     32033.95078165   -32278.69180842
  entropy T*S    EENTRO =        -0.00000000
  eigenvalues    EBANDS =     -8561.68852645
  atomic energy  EATOM  =     31685.62717035
  ---------------------------------------------------
  free energy    TOTEN  =      -907.73485455 eV

  energy without entropy =     -907.73485455  energy(sigma->0) =     -907.73485455
  exchange ACFDT corr.  =         0.00000000  see jH, gK, PRB 81, 115126


--------------------------------------------------------------------------------------------------------




--------------------------------------- Iteration      1( 166)  ---------------------------------------


    POTLOK:  cpu time      0.2265: real time      0.2271
    SETDIJ:  cpu time      0.4486: real time      0.4499
    TRIAL :  cpu time     30.7485: real time     30.9090
    CORREC:  cpu time     30.8975: real time     31.3166
    CHARGE:  cpu time      0.2124: real time      0.2129
    --------------------------------------------
      LOOP:  cpu time     62.5356: real time     63.1175

 eigenvalue-minimisations  :     0
 total energy-change (2. order) :-0.9768813E-05  (-0.1066425E-04)
 number of electron     321.9999974 magnetization 
 augmentation part       50.9122462 magnetization 

 Free energy of the ion-electron system (eV)
  ---------------------------------------------------
  alpha Z        PSCENC =       379.72439301
  Ewald energy   TEWEN  =     18509.04670523
  -Hartree energ DENC   =    -47242.98730874
  -exchange      EXHF   =      4567.27879069
  -V(xc)+E(xc)   XCENC  =         0.00000000
  PAW double counting   =     32033.95568896   -32278.69735842
  entropy T*S    EENTRO =        -0.00000000
  eigenvalues    EBANDS =     -8561.68294539
  atomic energy  EATOM  =     31685.62717035
  ---------------------------------------------------
  free energy    TOTEN  =      -907.73486431 eV

  energy without entropy =     -907.73486431  energy(sigma->0) =     -907.73486431
  exchange ACFDT corr.  =         0.00000000  see jH, gK, PRB 81, 115126


--------------------------------------------------------------------------------------------------------




--------------------------------------- Iteration      1( 167)  ---------------------------------------


    POTLOK:  cpu time      0.2279: real time      0.2285
    SETDIJ:  cpu time      0.4471: real time      0.4484
    TRIAL :  cpu time     30.8560: real time     31.0832
    CORREC:  cpu time     31.4817: real time     31.7478
    CHARGE:  cpu time      0.2152: real time      0.2158
    --------------------------------------------
      LOOP:  cpu time     63.2299: real time     63.7257

 eigenvalue-minimisations  :     0
 total energy-change (2. order) :-0.1066359E-04  (-0.9516363E-05)
 number of electron     321.9999974 magnetization 
 augmentation part       50.9122636 magnetization 

 Free energy of the ion-electron system (eV)
  ---------------------------------------------------
  alpha Z        PSCENC =       379.72439301
  Ewald energy   TEWEN  =     18509.04670523
  -Hartree energ DENC   =    -47242.98424063
  -exchange      EXHF   =      4567.27903303
  -V(xc)+E(xc)   XCENC  =         0.00000000
  PAW double counting   =     32033.95135181   -32278.69349179
  entropy T*S    EENTRO =        -0.00000000
  eigenvalues    EBANDS =     -8561.68579600
  atomic energy  EATOM  =     31685.62717035
  ---------------------------------------------------
  free energy    TOTEN  =      -907.73487498 eV

  energy without entropy =     -907.73487498  energy(sigma->0) =     -907.73487498
  exchange ACFDT corr.  =         0.00000000  see jH, gK, PRB 81, 115126


--------------------------------------------------------------------------------------------------------




--------------------------------------- Iteration      1( 168)  ---------------------------------------


    POTLOK:  cpu time      0.2267: real time      0.2272
    SETDIJ:  cpu time      0.4481: real time      0.4495
    TRIAL :  cpu time     30.5513: real time     30.9738
    CORREC:  cpu time     31.1054: real time     31.2444
    CHARGE:  cpu time      0.2157: real time      0.2162
    --------------------------------------------
      LOOP:  cpu time     62.5501: real time     63.1140

 eigenvalue-minimisations  :     0
 total energy-change (2. order) :-0.9515556E-05  (-0.1034643E-04)
 number of electron     321.9999974 magnetization 
 augmentation part       50.9122680 magnetization 

 Free energy of the ion-electron system (eV)
  ---------------------------------------------------
  alpha Z        PSCENC =       379.72439301
  Ewald energy   TEWEN  =     18509.04670523
  -Hartree energ DENC   =    -47242.98751957
  -exchange      EXHF   =      4567.27887138
  -V(xc)+E(xc)   XCENC  =         0.00000000
  PAW double counting   =     32033.95757570   -32278.70048868
  entropy T*S    EENTRO =        -0.00000000
  eigenvalues    EBANDS =     -8561.68159193
  atomic energy  EATOM  =     31685.62717035
  ---------------------------------------------------
  free energy    TOTEN  =      -907.73488449 eV

  energy without entropy =     -907.73488449  energy(sigma->0) =     -907.73488449
  exchange ACFDT corr.  =         0.00000000  see jH, gK, PRB 81, 115126


--------------------------------------------------------------------------------------------------------




--------------------------------------- Iteration      1( 169)  ---------------------------------------


    POTLOK:  cpu time      0.2263: real time      0.2268
    SETDIJ:  cpu time      0.4492: real time      0.4505
    TRIAL :  cpu time     30.5392: real time     30.9447
    CORREC:  cpu time     30.9372: real time     31.0344
    CHARGE:  cpu time      0.2156: real time      0.2162
    --------------------------------------------
      LOOP:  cpu time     62.3695: real time     62.8746

 eigenvalue-minimisations  :     0
 total energy-change (2. order) :-0.1034562E-04  (-0.1098051E-04)
 number of electron     321.9999974 magnetization 
 augmentation part       50.9123043 magnetization 

 Free energy of the ion-electron system (eV)
  ---------------------------------------------------
  alpha Z        PSCENC =       379.72439301
  Ewald energy   TEWEN  =     18509.04670523
  -Hartree energ DENC   =    -47242.98312114
  -exchange      EXHF   =      4567.27865980
  -V(xc)+E(xc)   XCENC  =         0.00000000
  PAW double counting   =     32033.95741703   -32278.70074980
  entropy T*S    EENTRO =        -0.00000000
  eigenvalues    EBANDS =     -8561.68536933
  atomic energy  EATOM  =     31685.62717035
  ---------------------------------------------------
  free energy    TOTEN  =      -907.73489484 eV

  energy without entropy =     -907.73489484  energy(sigma->0) =     -907.73489484
  exchange ACFDT corr.  =         0.00000000  see jH, gK, PRB 81, 115126


--------------------------------------------------------------------------------------------------------




--------------------------------------- Iteration      1( 170)  ---------------------------------------


    POTLOK:  cpu time      0.2268: real time      0.2273
    SETDIJ:  cpu time      0.4471: real time      0.4484
    TRIAL :  cpu time     30.5095: real time     30.9363
    CORREC:  cpu time     31.0000: real time     31.1176
    CHARGE:  cpu time      0.2072: real time      0.2153
    --------------------------------------------
      LOOP:  cpu time     62.3926: real time     62.9471

 eigenvalue-minimisations  :     0
 total energy-change (2. order) :-0.1097931E-04  (-0.8587499E-05)
 number of electron     321.9999974 magnetization 
 augmentation part       50.9123186 magnetization 

 Free energy of the ion-electron system (eV)
  ---------------------------------------------------
  alpha Z        PSCENC =       379.72439301
  Ewald energy   TEWEN  =     18509.04670523
  -Hartree energ DENC   =    -47242.97966984
  -exchange      EXHF   =      4567.27860765
  -V(xc)+E(xc)   XCENC  =         0.00000000
  PAW double counting   =     32033.96049438   -32278.70501665
  entropy T*S    EENTRO =        -0.00000000
  eigenvalues    EBANDS =     -8561.68758996
  atomic energy  EATOM  =     31685.62717035
  ---------------------------------------------------
  free energy    TOTEN  =      -907.73490582 eV

  energy without entropy =     -907.73490582  energy(sigma->0) =     -907.73490582
  exchange ACFDT corr.  =         0.00000000  see jH, gK, PRB 81, 115126


--------------------------------------------------------------------------------------------------------




--------------------------------------- Iteration      1( 171)  ---------------------------------------


    POTLOK:  cpu time      0.2272: real time      0.2279
    SETDIJ:  cpu time      0.4496: real time      0.4508
    TRIAL :  cpu time     30.4524: real time     30.8872
    CORREC:  cpu time     30.9108: real time     31.0161
    CHARGE:  cpu time      0.2126: real time      0.2135
    --------------------------------------------
      LOOP:  cpu time     62.2545: real time     62.7974

 eigenvalue-minimisations  :     0
 total energy-change (2. order) :-0.8587023E-05  (-0.9639285E-05)
 number of electron     321.9999974 magnetization 
 augmentation part       50.9122933 magnetization 

 Free energy of the ion-electron system (eV)
  ---------------------------------------------------
  alpha Z        PSCENC =       379.72439301
  Ewald energy   TEWEN  =     18509.04670523
  -Hartree energ DENC   =    -47242.97376070
  -exchange      EXHF   =      4567.27842322
  -V(xc)+E(xc)   XCENC  =         0.00000000
  PAW double counting   =     32033.95749075   -32278.70266668
  entropy T*S    EENTRO =        -0.00000000
  eigenvalues    EBANDS =     -8561.69266959
  atomic energy  EATOM  =     31685.62717035
  ---------------------------------------------------
  free energy    TOTEN  =      -907.73491441 eV

  energy without entropy =     -907.73491441  energy(sigma->0) =     -907.73491441
  exchange ACFDT corr.  =         0.00000000  see jH, gK, PRB 81, 115126


--------------------------------------------------------------------------------------------------------




--------------------------------------- Iteration      1( 172)  ---------------------------------------


    POTLOK:  cpu time      0.2296: real time      0.2302
    SETDIJ:  cpu time      0.4493: real time      0.4504
    TRIAL :  cpu time     30.4989: real time     30.9556
    CORREC:  cpu time     30.8526: real time     31.0055
    CHARGE:  cpu time      0.2126: real time      0.2131
    --------------------------------------------
      LOOP:  cpu time     62.2450: real time     62.8568

 eigenvalue-minimisations  :     0
 total energy-change (2. order) :-0.9638527E-05  (-0.8743428E-05)
 number of electron     321.9999974 magnetization 
 augmentation part       50.9123206 magnetization 

 Free energy of the ion-electron system (eV)
  ---------------------------------------------------
  alpha Z        PSCENC =       379.72439301
  Ewald energy   TEWEN  =     18509.04670523
  -Hartree energ DENC   =    -47242.95960331
  -exchange      EXHF   =      4567.27794601
  -V(xc)+E(xc)   XCENC  =         0.00000000
  PAW double counting   =     32033.94514685   -32278.68999920
  entropy T*S    EENTRO =        -0.00000000
  eigenvalues    EBANDS =     -8561.70668299
  atomic energy  EATOM  =     31685.62717035
  ---------------------------------------------------
  free energy    TOTEN  =      -907.73492404 eV

  energy without entropy =     -907.73492404  energy(sigma->0) =     -907.73492404
  exchange ACFDT corr.  =         0.00000000  see jH, gK, PRB 81, 115126


--------------------------------------------------------------------------------------------------------




--------------------------------------- Iteration      1( 173)  ---------------------------------------


    POTLOK:  cpu time      0.2265: real time      0.2273
    SETDIJ:  cpu time      0.4480: real time      0.4491
    TRIAL :  cpu time     30.4363: real time     30.9340
    CORREC:  cpu time     30.8592: real time     30.9694
    CHARGE:  cpu time      0.2139: real time      0.2144
    --------------------------------------------
      LOOP:  cpu time     62.1860: real time     62.7963

 eigenvalue-minimisations  :     0
 total energy-change (2. order) :-0.8742551E-05  (-0.9196383E-05)
 number of electron     321.9999974 magnetization 
 augmentation part       50.9123325 magnetization 

 Free energy of the ion-electron system (eV)
  ---------------------------------------------------
  alpha Z        PSCENC =       379.72439301
  Ewald energy   TEWEN  =     18509.04670523
  -Hartree energ DENC   =    -47242.95646084
  -exchange      EXHF   =      4567.27753795
  -V(xc)+E(xc)   XCENC  =         0.00000000
  PAW double counting   =     32033.94676979   -32278.69251329
  entropy T*S    EENTRO =        -0.00000000
  eigenvalues    EBANDS =     -8561.70853500
  atomic energy  EATOM  =     31685.62717035
  ---------------------------------------------------
  free energy    TOTEN  =      -907.73493279 eV

  energy without entropy =     -907.73493279  energy(sigma->0) =     -907.73493279
  exchange ACFDT corr.  =         0.00000000  see jH, gK, PRB 81, 115126


--------------------------------------------------------------------------------------------------------




--------------------------------------- Iteration      1( 174)  ---------------------------------------


    POTLOK:  cpu time      0.2267: real time      0.2272
    SETDIJ:  cpu time      0.4489: real time      0.4503
    TRIAL :  cpu time     30.5870: real time     31.0026
    CORREC:  cpu time     31.0841: real time     31.2969
    CHARGE:  cpu time      0.2155: real time      0.2160
    --------------------------------------------
      LOOP:  cpu time     62.5659: real time     63.1968

 eigenvalue-minimisations  :     0
 total energy-change (2. order) :-0.9195657E-05  (-0.8343745E-05)
 number of electron     321.9999974 magnetization 
 augmentation part       50.9123465 magnetization 

 Free energy of the ion-electron system (eV)
  ---------------------------------------------------
  alpha Z        PSCENC =       379.72439301
  Ewald energy   TEWEN  =     18509.04670523
  -Hartree energ DENC   =    -47242.94857538
  -exchange      EXHF   =      4567.27769080
  -V(xc)+E(xc)   XCENC  =         0.00000000
  PAW double counting   =     32033.93921320   -32278.68606329
  entropy T*S    EENTRO =        -0.00000000
  eigenvalues    EBANDS =     -8561.71547590
  atomic energy  EATOM  =     31685.62717035
  ---------------------------------------------------
  free energy    TOTEN  =      -907.73494198 eV

  energy without entropy =     -907.73494198  energy(sigma->0) =     -907.73494198
  exchange ACFDT corr.  =         0.00000000  see jH, gK, PRB 81, 115126


--------------------------------------------------------------------------------------------------------




--------------------------------------- Iteration      1( 175)  ---------------------------------------


    POTLOK:  cpu time      0.2314: real time      0.2323
    SETDIJ:  cpu time      0.4491: real time      0.4502
    TRIAL :  cpu time     30.6278: real time     31.0270
    CORREC:  cpu time     31.2240: real time     31.3334
    CHARGE:  cpu time      0.2162: real time      0.2171
    --------------------------------------------
      LOOP:  cpu time     62.7501: real time     63.2741

 eigenvalue-minimisations  :     0
 total energy-change (2. order) :-0.8343228E-05  (-0.6175535E-05)
 number of electron     321.9999974 magnetization 
 augmentation part       50.9123165 magnetization 

 Free energy of the ion-electron system (eV)
  ---------------------------------------------------
  alpha Z        PSCENC =       379.72439301
  Ewald energy   TEWEN  =     18509.04670523
  -Hartree energ DENC   =    -47242.94889050
  -exchange      EXHF   =      4567.27762055
  -V(xc)+E(xc)   XCENC  =         0.00000000
  PAW double counting   =     32033.94152312   -32278.68881566
  entropy T*S    EENTRO =        -0.00000000
  eigenvalues    EBANDS =     -8561.71465643
  atomic energy  EATOM  =     31685.62717035
  ---------------------------------------------------
  free energy    TOTEN  =      -907.73495033 eV

  energy without entropy =     -907.73495033  energy(sigma->0) =     -907.73495033
  exchange ACFDT corr.  =         0.00000000  see jH, gK, PRB 81, 115126


--------------------------------------------------------------------------------------------------------




--------------------------------------- Iteration      1( 176)  ---------------------------------------


    POTLOK:  cpu time      0.2296: real time      0.2301
    SETDIJ:  cpu time      0.4466: real time      0.4484
    TRIAL :  cpu time     30.7132: real time     31.1635
    CORREC:  cpu time     30.8139: real time     31.0233
    CHARGE:  cpu time      0.2125: real time      0.2484
    --------------------------------------------
      LOOP:  cpu time     62.4177: real time     63.1156

 eigenvalue-minimisations  :     0
 total energy-change (2. order) :-0.6175247E-05  (-0.6873116E-05)
 number of electron     321.9999974 magnetization 
 augmentation part       50.9123117 magnetization 

 Free energy of the ion-electron system (eV)
  ---------------------------------------------------
  alpha Z        PSCENC =       379.72439301
  Ewald energy   TEWEN  =     18509.04670523
  -Hartree energ DENC   =    -47242.94397568
  -exchange      EXHF   =      4567.27765511
  -V(xc)+E(xc)   XCENC  =         0.00000000
  PAW double counting   =     32033.93665828   -32278.68301108
  entropy T*S    EENTRO =        -0.00000000
  eigenvalues    EBANDS =     -8561.72055172
  atomic energy  EATOM  =     31685.62717035
  ---------------------------------------------------
  free energy    TOTEN  =      -907.73495650 eV

  energy without entropy =     -907.73495650  energy(sigma->0) =     -907.73495650
  exchange ACFDT corr.  =         0.00000000  see jH, gK, PRB 81, 115126


--------------------------------------------------------------------------------------------------------




--------------------------------------- Iteration      1( 177)  ---------------------------------------


    POTLOK:  cpu time      0.2356: real time      0.2375
    SETDIJ:  cpu time      0.6261: real time      0.6538
    TRIAL :  cpu time     31.0295: real time     31.2601
    CORREC:  cpu time     30.7614: real time     31.0761
    CHARGE:  cpu time      0.2157: real time      0.2163
    --------------------------------------------
      LOOP:  cpu time     62.8696: real time     63.4458

 eigenvalue-minimisations  :     0
 total energy-change (2. order) :-0.6872418E-05  (-0.7002586E-05)
 number of electron     321.9999974 magnetization 
 augmentation part       50.9123299 magnetization 

 Free energy of the ion-electron system (eV)
  ---------------------------------------------------
  alpha Z        PSCENC =       379.72439301
  Ewald energy   TEWEN  =     18509.04670523
  -Hartree energ DENC   =    -47242.94701846
  -exchange      EXHF   =      4567.27799822
  -V(xc)+E(xc)   XCENC  =         0.00000000
  PAW double counting   =     32033.93974649   -32278.68565165
  entropy T*S    EENTRO =        -0.00000000
  eigenvalues    EBANDS =     -8561.71830657
  atomic energy  EATOM  =     31685.62717035
  ---------------------------------------------------
  free energy    TOTEN  =      -907.73496337 eV

  energy without entropy =     -907.73496337  energy(sigma->0) =     -907.73496337
  exchange ACFDT corr.  =         0.00000000  see jH, gK, PRB 81, 115126


--------------------------------------------------------------------------------------------------------




--------------------------------------- Iteration      1( 178)  ---------------------------------------


    POTLOK:  cpu time      0.2258: real time      0.2263
    SETDIJ:  cpu time      0.4452: real time      0.4465
    TRIAL :  cpu time     30.8667: real time     30.9612
    CORREC:  cpu time     30.5973: real time     31.0438
    CHARGE:  cpu time      0.2156: real time      0.2161
    --------------------------------------------
      LOOP:  cpu time     62.3525: real time     62.8960

 eigenvalue-minimisations  :     0
 total energy-change (2. order) :-0.7001698E-05  (-0.6290682E-05)
 number of electron     321.9999974 magnetization 
 augmentation part       50.9123010 magnetization 

 Free energy of the ion-electron system (eV)
  ---------------------------------------------------
  alpha Z        PSCENC =       379.72439301
  Ewald energy   TEWEN  =     18509.04670523
  -Hartree energ DENC   =    -47242.95497610
  -exchange      EXHF   =      4567.27880202
  -V(xc)+E(xc)   XCENC  =         0.00000000
  PAW double counting   =     32033.94842129   -32278.69438920
  entropy T*S    EENTRO =        -0.00000000
  eigenvalues    EBANDS =     -8561.71109698
  atomic energy  EATOM  =     31685.62717035
  ---------------------------------------------------
  free energy    TOTEN  =      -907.73497038 eV

  energy without entropy =     -907.73497038  energy(sigma->0) =     -907.73497038
  exchange ACFDT corr.  =         0.00000000  see jH, gK, PRB 81, 115126


--------------------------------------------------------------------------------------------------------




--------------------------------------- Iteration      1( 179)  ---------------------------------------


    POTLOK:  cpu time      0.2271: real time      0.2276
    SETDIJ:  cpu time      0.4418: real time      0.4431
    TRIAL :  cpu time     31.1165: real time     31.2258
    CORREC:  cpu time     30.6560: real time     31.0020
    CHARGE:  cpu time      0.2157: real time      0.2163
    --------------------------------------------
      LOOP:  cpu time     62.6590: real time     63.1168

 eigenvalue-minimisations  :     0
 total energy-change (2. order) :-0.6290080E-05  (-0.5643270E-05)
 number of electron     321.9999974 magnetization 
 augmentation part       50.9123139 magnetization 

 Free energy of the ion-electron system (eV)
  ---------------------------------------------------
  alpha Z        PSCENC =       379.72439301
  Ewald energy   TEWEN  =     18509.04670523
  -Hartree energ DENC   =    -47242.95605191
  -exchange      EXHF   =      4567.27966626
  -V(xc)+E(xc)   XCENC  =         0.00000000
  PAW double counting   =     32033.94704623   -32278.69177979
  entropy T*S    EENTRO =        -0.00000000
  eigenvalues    EBANDS =     -8561.71212605
  atomic energy  EATOM  =     31685.62717035
  ---------------------------------------------------
  free energy    TOTEN  =      -907.73497667 eV

  energy without entropy =     -907.73497667  energy(sigma->0) =     -907.73497667
  exchange ACFDT corr.  =         0.00000000  see jH, gK, PRB 81, 115126


--------------------------------------------------------------------------------------------------------




--------------------------------------- Iteration      1( 180)  ---------------------------------------


    POTLOK:  cpu time      0.2277: real time      0.2283
    SETDIJ:  cpu time      0.4483: real time      0.4497
    TRIAL :  cpu time     31.0790: real time     31.2405
    CORREC:  cpu time     30.7214: real time     31.0909
    CHARGE:  cpu time      0.2161: real time      0.2166
    --------------------------------------------
      LOOP:  cpu time     62.6943: real time     63.2279

 eigenvalue-minimisations  :     0
 total energy-change (2. order) :-0.5642607E-05  (-0.5441422E-05)
 number of electron     321.9999974 magnetization 
 augmentation part       50.9123473 magnetization 

 Free energy of the ion-electron system (eV)
  ---------------------------------------------------
  alpha Z        PSCENC =       379.72439301
  Ewald energy   TEWEN  =     18509.04670523
  -Hartree energ DENC   =    -47242.96446055
  -exchange      EXHF   =      4567.28051081
  -V(xc)+E(xc)   XCENC  =         0.00000000
  PAW double counting   =     32033.95450570   -32278.69906737
  entropy T*S    EENTRO =        -0.00000000
  eigenvalues    EBANDS =     -8561.70473950
  atomic energy  EATOM  =     31685.62717035
  ---------------------------------------------------
  free energy    TOTEN  =      -907.73498231 eV

  energy without entropy =     -907.73498231  energy(sigma->0) =     -907.73498231
  exchange ACFDT corr.  =         0.00000000  see jH, gK, PRB 81, 115126


--------------------------------------------------------------------------------------------------------




--------------------------------------- Iteration      1( 181)  ---------------------------------------


    POTLOK:  cpu time      0.2273: real time      0.2282
    SETDIJ:  cpu time      0.4474: real time      0.4484
    TRIAL :  cpu time     30.9466: real time     31.0611
    CORREC:  cpu time     30.6037: real time     31.0358
    CHARGE:  cpu time      0.2159: real time      0.2164
    --------------------------------------------
      LOOP:  cpu time     62.4428: real time     62.9920

 eigenvalue-minimisations  :     0
 total energy-change (2. order) :-0.5440837E-05  (-0.5254168E-05)
 number of electron     321.9999974 magnetization 
 augmentation part       50.9123392 magnetization 

 Free energy of the ion-electron system (eV)
  ---------------------------------------------------
  alpha Z        PSCENC =       379.72439301
  Ewald energy   TEWEN  =     18509.04670523
  -Hartree energ DENC   =    -47242.97482761
  -exchange      EXHF   =      4567.28141431
  -V(xc)+E(xc)   XCENC  =         0.00000000
  PAW double counting   =     32033.96432727   -32278.70936189
  entropy T*S    EENTRO =        -0.00000000
  eigenvalues    EBANDS =     -8561.69480842
  atomic energy  EATOM  =     31685.62717035
  ---------------------------------------------------
  free energy    TOTEN  =      -907.73498775 eV

  energy without entropy =     -907.73498775  energy(sigma->0) =     -907.73498775
  exchange ACFDT corr.  =         0.00000000  see jH, gK, PRB 81, 115126


--------------------------------------------------------------------------------------------------------




--------------------------------------- Iteration      1( 182)  ---------------------------------------


    POTLOK:  cpu time      0.2278: real time      0.2288
    SETDIJ:  cpu time      0.4458: real time      0.4468
    TRIAL :  cpu time     30.7702: real time     30.9341
    CORREC:  cpu time     30.8327: real time     31.2495
    CHARGE:  cpu time      0.2135: real time      0.2143
    --------------------------------------------
      LOOP:  cpu time     62.4925: real time     63.0778

 eigenvalue-minimisations  :     0
 total energy-change (2. order) :-0.5253503E-05  (-0.5259069E-05)
 number of electron     321.9999974 magnetization 
 augmentation part       50.9123049 magnetization 

 Free energy of the ion-electron system (eV)
  ---------------------------------------------------
  alpha Z        PSCENC =       379.72439301
  Ewald energy   TEWEN  =     18509.04670523
  -Hartree energ DENC   =    -47242.97826407
  -exchange      EXHF   =      4567.28186859
  -V(xc)+E(xc)   XCENC  =         0.00000000
  PAW double counting   =     32033.96626370   -32278.71052275
  entropy T*S    EENTRO =        -0.00000000
  eigenvalues    EBANDS =     -8561.69260707
  atomic energy  EATOM  =     31685.62717035
  ---------------------------------------------------
  free energy    TOTEN  =      -907.73499300 eV

  energy without entropy =     -907.73499300  energy(sigma->0) =     -907.73499300
  exchange ACFDT corr.  =         0.00000000  see jH, gK, PRB 81, 115126


--------------------------------------------------------------------------------------------------------




--------------------------------------- Iteration      1( 183)  ---------------------------------------


    POTLOK:  cpu time      0.2331: real time      0.2338
    SETDIJ:  cpu time      0.4411: real time      0.4422
    TRIAL :  cpu time     30.8431: real time     31.0587
    CORREC:  cpu time     30.7722: real time     31.1118
    CHARGE:  cpu time      0.2153: real time      0.2162
    --------------------------------------------
      LOOP:  cpu time     62.5067: real time     63.0645

 eigenvalue-minimisations  :     0
 total energy-change (2. order) :-0.5258367E-05  (-0.4400497E-05)
 number of electron     321.9999974 magnetization 
 augmentation part       50.9123141 magnetization 

 Free energy of the ion-electron system (eV)
  ---------------------------------------------------
  alpha Z        PSCENC =       379.72439301
  Ewald energy   TEWEN  =     18509.04670523
  -Hartree energ DENC   =    -47242.97557150
  -exchange      EXHF   =      4567.28202564
  -V(xc)+E(xc)   XCENC  =         0.00000000
  PAW double counting   =     32033.96185297   -32278.70454739
  entropy T*S    EENTRO =        -0.00000000
  eigenvalues    EBANDS =     -8561.69702656
  atomic energy  EATOM  =     31685.62717035
  ---------------------------------------------------
  free energy    TOTEN  =      -907.73499826 eV

  energy without entropy =     -907.73499826  energy(sigma->0) =     -907.73499826
  exchange ACFDT corr.  =         0.00000000  see jH, gK, PRB 81, 115126


--------------------------------------------------------------------------------------------------------




--------------------------------------- Iteration      1( 184)  ---------------------------------------


    POTLOK:  cpu time      0.2284: real time      0.2290
    SETDIJ:  cpu time      0.4487: real time      0.4498
    TRIAL :  cpu time     30.7635: real time     30.9139
    CORREC:  cpu time     30.5650: real time     31.6466
    CHARGE:  cpu time      0.2156: real time      0.2162
    --------------------------------------------
      LOOP:  cpu time     62.2233: real time     63.4576

 eigenvalue-minimisations  :     0
 total energy-change (2. order) :-0.4399881E-05  (-0.4845708E-05)
 number of electron     321.9999974 magnetization 
 augmentation part       50.9123352 magnetization 

 Free energy of the ion-electron system (eV)
  ---------------------------------------------------
  alpha Z        PSCENC =       379.72439301
  Ewald energy   TEWEN  =     18509.04670523
  -Hartree energ DENC   =    -47242.97838523
  -exchange      EXHF   =      4567.28240395
  -V(xc)+E(xc)   XCENC  =         0.00000000
  PAW double counting   =     32033.96308685   -32278.70558324
  entropy T*S    EENTRO =        -0.00000000
  eigenvalues    EBANDS =     -8561.69479358
  atomic energy  EATOM  =     31685.62717035
  ---------------------------------------------------
  free energy    TOTEN  =      -907.73500266 eV

  energy without entropy =     -907.73500266  energy(sigma->0) =     -907.73500266
  exchange ACFDT corr.  =         0.00000000  see jH, gK, PRB 81, 115126


--------------------------------------------------------------------------------------------------------




--------------------------------------- Iteration      1( 185)  ---------------------------------------


    POTLOK:  cpu time      0.2283: real time      0.2290
    SETDIJ:  cpu time      0.4524: real time      0.4537
    TRIAL :  cpu time     30.9437: real time     31.0555
    CORREC:  cpu time     31.1817: real time     31.5130
    CHARGE:  cpu time      0.2153: real time      0.2162
    --------------------------------------------
      LOOP:  cpu time     63.0233: real time     63.4694

 eigenvalue-minimisations  :     0
 total energy-change (2. order) :-0.4845006E-05  (-0.3889186E-05)
 number of electron     321.9999974 magnetization 
 augmentation part       50.9123479 magnetization 

 Free energy of the ion-electron system (eV)
  ---------------------------------------------------
  alpha Z        PSCENC =       379.72439301
  Ewald energy   TEWEN  =     18509.04670523
  -Hartree energ DENC   =    -47242.97977618
  -exchange      EXHF   =      4567.28296062
  -V(xc)+E(xc)   XCENC  =         0.00000000
  PAW double counting   =     32033.96203013   -32278.70482077
  entropy T*S    EENTRO =        -0.00000000
  eigenvalues    EBANDS =     -8561.69366990
  atomic energy  EATOM  =     31685.62717035
  ---------------------------------------------------
  free energy    TOTEN  =      -907.73500751 eV

  energy without entropy =     -907.73500751  energy(sigma->0) =     -907.73500751
  exchange ACFDT corr.  =         0.00000000  see jH, gK, PRB 81, 115126


--------------------------------------------------------------------------------------------------------




--------------------------------------- Iteration      1( 186)  ---------------------------------------


    POTLOK:  cpu time      0.3111: real time      0.3120
    SETDIJ:  cpu time      0.4510: real time      0.4522
    TRIAL :  cpu time     30.8556: real time     31.1663
    CORREC:  cpu time     31.2432: real time     31.4950
    CHARGE:  cpu time      0.2155: real time      0.2161
    --------------------------------------------
      LOOP:  cpu time     63.0918: real time     63.6579

 eigenvalue-minimisations  :     0
 total energy-change (2. order) :-0.3888425E-05  (-0.3891200E-05)
 number of electron     321.9999974 magnetization 
 augmentation part       50.9123510 magnetization 

 Free energy of the ion-electron system (eV)
  ---------------------------------------------------
  alpha Z        PSCENC =       379.72439301
  Ewald energy   TEWEN  =     18509.04670523
  -Hartree energ DENC   =    -47242.98051224
  -exchange      EXHF   =      4567.28310941
  -V(xc)+E(xc)   XCENC  =         0.00000000
  PAW double counting   =     32033.96234741   -32278.70490682
  entropy T*S    EENTRO =        -0.00000000
  eigenvalues    EBANDS =     -8561.69331774
  atomic energy  EATOM  =     31685.62717035
  ---------------------------------------------------
  free energy    TOTEN  =      -907.73501139 eV

  energy without entropy =     -907.73501139  energy(sigma->0) =     -907.73501139
  exchange ACFDT corr.  =         0.00000000  see jH, gK, PRB 81, 115126


--------------------------------------------------------------------------------------------------------




--------------------------------------- Iteration      1( 187)  ---------------------------------------


    POTLOK:  cpu time      0.2281: real time      0.2287
    SETDIJ:  cpu time      0.4435: real time      0.4448
    TRIAL :  cpu time     30.6714: real time     31.0235
    CORREC:  cpu time     30.8129: real time     30.9112
    CHARGE:  cpu time      0.2140: real time      0.2148
    --------------------------------------------
      LOOP:  cpu time     62.3722: real time     62.8269

 eigenvalue-minimisations  :     0
 total energy-change (2. order) :-0.3890702E-05  (-0.4354414E-05)
 number of electron     321.9999974 magnetization 
 augmentation part       50.9123923 magnetization 

 Free energy of the ion-electron system (eV)
  ---------------------------------------------------
  alpha Z        PSCENC =       379.72439301
  Ewald energy   TEWEN  =     18509.04670523
  -Hartree energ DENC   =    -47242.97913883
  -exchange      EXHF   =      4567.28345489
  -V(xc)+E(xc)   XCENC  =         0.00000000
  PAW double counting   =     32033.95839339   -32278.70059913
  entropy T*S    EENTRO =        -0.00000000
  eigenvalues    EBANDS =     -8561.69539420
  atomic energy  EATOM  =     31685.62717035
  ---------------------------------------------------
  free energy    TOTEN  =      -907.73501528 eV

  energy without entropy =     -907.73501528  energy(sigma->0) =     -907.73501528
  exchange ACFDT corr.  =         0.00000000  see jH, gK, PRB 81, 115126


--------------------------------------------------------------------------------------------------------




--------------------------------------- Iteration      1( 188)  ---------------------------------------


    POTLOK:  cpu time      0.2294: real time      0.2299
    SETDIJ:  cpu time      0.4481: real time      0.4494
    TRIAL :  cpu time     30.6545: real time     31.0772
    CORREC:  cpu time     31.1217: real time     31.2932
    CHARGE:  cpu time      0.2158: real time      0.2163
    --------------------------------------------
      LOOP:  cpu time     62.6704: real time     63.2687

 eigenvalue-minimisations  :     0
 total energy-change (2. order) :-0.4353416E-05  (-0.3887256E-05)
 number of electron     321.9999974 magnetization 
 augmentation part       50.9124133 magnetization 

 Free energy of the ion-electron system (eV)
  ---------------------------------------------------
  alpha Z        PSCENC =       379.72439301
  Ewald energy   TEWEN  =     18509.04670523
  -Hartree energ DENC   =    -47242.98422421
  -exchange      EXHF   =      4567.28402048
  -V(xc)+E(xc)   XCENC  =         0.00000000
  PAW double counting   =     32033.96043055   -32278.70342219
  entropy T*S    EENTRO =        -0.00000000
  eigenvalues    EBANDS =     -8561.69009288
  atomic energy  EATOM  =     31685.62717035
  ---------------------------------------------------
  free energy    TOTEN  =      -907.73501964 eV

  energy without entropy =     -907.73501964  energy(sigma->0) =     -907.73501964
  exchange ACFDT corr.  =         0.00000000  see jH, gK, PRB 81, 115126


--------------------------------------------------------------------------------------------------------




--------------------------------------- Iteration      1( 189)  ---------------------------------------


    POTLOK:  cpu time      0.2289: real time      0.2300
    SETDIJ:  cpu time      0.4447: real time      0.4457
    TRIAL :  cpu time     30.7243: real time     31.0114
    CORREC:  cpu time     30.9079: real time     31.0058
    CHARGE:  cpu time      0.2157: real time      0.2162
    --------------------------------------------
      LOOP:  cpu time     62.5235: real time     62.9112

 eigenvalue-minimisations  :     0
 total energy-change (2. order) :-0.3886551E-05  (-0.3588279E-05)
 number of electron     321.9999974 magnetization 
 augmentation part       50.9123986 magnetization 

 Free energy of the ion-electron system (eV)
  ---------------------------------------------------
  alpha Z        PSCENC =       379.72439301
  Ewald energy   TEWEN  =     18509.04670523
  -Hartree energ DENC   =    -47242.98780942
  -exchange      EXHF   =      4567.28440600
  -V(xc)+E(xc)   XCENC  =         0.00000000
  PAW double counting   =     32033.96095864   -32278.70417821
  entropy T*S    EENTRO =        -0.00000000
  eigenvalues    EBANDS =     -8561.68666913
  atomic energy  EATOM  =     31685.62717035
  ---------------------------------------------------
  free energy    TOTEN  =      -907.73502352 eV

  energy without entropy =     -907.73502352  energy(sigma->0) =     -907.73502352
  exchange ACFDT corr.  =         0.00000000  see jH, gK, PRB 81, 115126


--------------------------------------------------------------------------------------------------------




--------------------------------------- Iteration      1( 190)  ---------------------------------------


    POTLOK:  cpu time      0.2304: real time      0.2310
    SETDIJ:  cpu time      0.4504: real time      0.4518
    TRIAL :  cpu time     30.7339: real time     31.1347
    CORREC:  cpu time     30.9161: real time     31.0867
    CHARGE:  cpu time      0.2120: real time      0.2125
    --------------------------------------------
      LOOP:  cpu time     62.5447: real time     63.1187

 eigenvalue-minimisations  :     0
 total energy-change (2. order) :-0.3587735E-05  (-0.3737921E-05)
 number of electron     321.9999974 magnetization 
 augmentation part       50.9123996 magnetization 

 Free energy of the ion-electron system (eV)
  ---------------------------------------------------
  alpha Z        PSCENC =       379.72439301
  Ewald energy   TEWEN  =     18509.04670523
  -Hartree energ DENC   =    -47242.98607458
  -exchange      EXHF   =      4567.28459419
  -V(xc)+E(xc)   XCENC  =         0.00000000
  PAW double counting   =     32033.95549779   -32278.69813218
  entropy T*S    EENTRO =        -0.00000000
  eigenvalues    EBANDS =     -8561.68918093
  atomic energy  EATOM  =     31685.62717035
  ---------------------------------------------------
  free energy    TOTEN  =      -907.73502711 eV

  energy without entropy =     -907.73502711  energy(sigma->0) =     -907.73502711
  exchange ACFDT corr.  =         0.00000000  see jH, gK, PRB 81, 115126


--------------------------------------------------------------------------------------------------------




--------------------------------------- Iteration      1( 191)  ---------------------------------------


    POTLOK:  cpu time      0.2283: real time      0.2292
    SETDIJ:  cpu time      0.4507: real time      0.4519
    TRIAL :  cpu time     30.5661: real time     30.9568
    CORREC:  cpu time     30.8792: real time     31.1317
    CHARGE:  cpu time      0.2121: real time      0.2126
    --------------------------------------------
      LOOP:  cpu time     62.3396: real time     62.9854

 eigenvalue-minimisations  :     0
 total energy-change (2. order) :-0.3737154E-05  (-0.3807467E-05)
 number of electron     321.9999974 magnetization 
 augmentation part       50.9124358 magnetization 

 Free energy of the ion-electron system (eV)
  ---------------------------------------------------
  alpha Z        PSCENC =       379.72439301
  Ewald energy   TEWEN  =     18509.04670523
  -Hartree energ DENC   =    -47242.98591939
  -exchange      EXHF   =      4567.28479887
  -V(xc)+E(xc)   XCENC  =         0.00000000
  PAW double counting   =     32033.95171745   -32278.69457941
  entropy T*S    EENTRO =        -0.00000000
  eigenvalues    EBANDS =     -8561.68931696
  atomic energy  EATOM  =     31685.62717035
  ---------------------------------------------------
  free energy    TOTEN  =      -907.73503085 eV

  energy without entropy =     -907.73503085  energy(sigma->0) =     -907.73503085
  exchange ACFDT corr.  =         0.00000000  see jH, gK, PRB 81, 115126


--------------------------------------------------------------------------------------------------------




--------------------------------------- Iteration      1( 192)  ---------------------------------------


    POTLOK:  cpu time      0.2284: real time      0.2294
    SETDIJ:  cpu time      0.4481: real time      0.4492
    TRIAL :  cpu time     30.6351: real time     31.1163
    CORREC:  cpu time     31.0520: real time     31.1634
    CHARGE:  cpu time      0.2133: real time      0.2140
    --------------------------------------------
      LOOP:  cpu time     62.5795: real time     63.1749

 eigenvalue-minimisations  :     0
 total energy-change (2. order) :-0.3806614E-05  (-0.3565034E-05)
 number of electron     321.9999974 magnetization 
 augmentation part       50.9124277 magnetization 

 Free energy of the ion-electron system (eV)
  ---------------------------------------------------
  alpha Z        PSCENC =       379.72439301
  Ewald energy   TEWEN  =     18509.04670523
  -Hartree energ DENC   =    -47242.99220714
  -exchange      EXHF   =      4567.28485762
  -V(xc)+E(xc)   XCENC  =         0.00000000
  PAW double counting   =     32033.95655051   -32278.70071153
  entropy T*S    EENTRO =        -0.00000000
  eigenvalues    EBANDS =     -8561.68179271
  atomic energy  EATOM  =     31685.62717035
  ---------------------------------------------------
  free energy    TOTEN  =      -907.73503466 eV

  energy without entropy =     -907.73503466  energy(sigma->0) =     -907.73503466
  exchange ACFDT corr.  =         0.00000000  see jH, gK, PRB 81, 115126


--------------------------------------------------------------------------------------------------------




--------------------------------------- Iteration      1( 193)  ---------------------------------------


    POTLOK:  cpu time      0.2274: real time      0.2283
    SETDIJ:  cpu time      0.4469: real time      0.4480
    TRIAL :  cpu time     30.9682: real time     31.4026
    CORREC:  cpu time     30.8752: real time     31.0127
    CHARGE:  cpu time      0.2129: real time      0.2134
    --------------------------------------------
      LOOP:  cpu time     62.7315: real time     63.3068

 eigenvalue-minimisations  :     0
 total energy-change (2. order) :-0.3564364E-05  (-0.3552874E-05)
 number of electron     321.9999974 magnetization 
 augmentation part       50.9123896 magnetization 

 Free energy of the ion-electron system (eV)
  ---------------------------------------------------
  alpha Z        PSCENC =       379.72439301
  Ewald energy   TEWEN  =     18509.04670523
  -Hartree energ DENC   =    -47242.98992766
  -exchange      EXHF   =      4567.28459359
  -V(xc)+E(xc)   XCENC  =         0.00000000
  PAW double counting   =     32033.95309041   -32278.69743855
  entropy T*S    EENTRO =        -0.00000000
  eigenvalues    EBANDS =     -8561.68362460
  atomic energy  EATOM  =     31685.62717035
  ---------------------------------------------------
  free energy    TOTEN  =      -907.73503822 eV

  energy without entropy =     -907.73503822  energy(sigma->0) =     -907.73503822
  exchange ACFDT corr.  =         0.00000000  see jH, gK, PRB 81, 115126


--------------------------------------------------------------------------------------------------------




--------------------------------------- Iteration      1( 194)  ---------------------------------------


    POTLOK:  cpu time      0.2268: real time      0.2274
    SETDIJ:  cpu time      0.4476: real time      0.4486
    TRIAL :  cpu time     30.7518: real time     31.1486
    CORREC:  cpu time     30.8112: real time     30.9705
    CHARGE:  cpu time      0.2104: real time      0.2109
    --------------------------------------------
      LOOP:  cpu time     62.4501: real time     63.0103

 eigenvalue-minimisations  :     0
 total energy-change (2. order) :-0.3552188E-05  (-0.1777175E-05)
 number of electron     321.9999974 magnetization 
 augmentation part       50.9124055 magnetization 

 Free energy of the ion-electron system (eV)
  ---------------------------------------------------
  alpha Z        PSCENC =       379.72439301
  Ewald energy   TEWEN  =     18509.04670523
  -Hartree energ DENC   =    -47242.98042508
  -exchange      EXHF   =      4567.28411201
  -V(xc)+E(xc)   XCENC  =         0.00000000
  PAW double counting   =     32033.94262790   -32278.68652471
  entropy T*S    EENTRO =        -0.00000000
  eigenvalues    EBANDS =     -8561.69310049
  atomic energy  EATOM  =     31685.62717035
  ---------------------------------------------------
  free energy    TOTEN  =      -907.73504177 eV

  energy without entropy =     -907.73504177  energy(sigma->0) =     -907.73504177
  exchange ACFDT corr.  =         0.00000000  see jH, gK, PRB 81, 115126


--------------------------------------------------------------------------------------------------------




--------------------------------------- Iteration      1( 195)  ---------------------------------------


    POTLOK:  cpu time      0.2272: real time      0.2277
    SETDIJ:  cpu time      0.4478: real time      0.4489
    TRIAL :  cpu time     30.8010: real time     31.3315
    CORREC:  cpu time     30.8979: real time     31.0708
    CHARGE:  cpu time      0.2270: real time      0.2536
    --------------------------------------------
      LOOP:  cpu time     62.6029: real time     63.3345

 eigenvalue-minimisations  :     0
 total energy-change (2. order) :-0.1776963E-05  (-0.2435522E-05)
 number of electron     321.9999974 magnetization 
 augmentation part       50.9123959 magnetization 

 Free energy of the ion-electron system (eV)
  ---------------------------------------------------
  alpha Z        PSCENC =       379.72439301
  Ewald energy   TEWEN  =     18509.04670523
  -Hartree energ DENC   =    -47242.98253899
  -exchange      EXHF   =      4567.28418329
  -V(xc)+E(xc)   XCENC  =         0.00000000
  PAW double counting   =     32033.94508697   -32278.68950517
  entropy T*S    EENTRO =        -0.00000000
  eigenvalues    EBANDS =     -8561.69053823
  atomic energy  EATOM  =     31685.62717035
  ---------------------------------------------------
  free energy    TOTEN  =      -907.73504355 eV

  energy without entropy =     -907.73504355  energy(sigma->0) =     -907.73504355
  exchange ACFDT corr.  =         0.00000000  see jH, gK, PRB 81, 115126


--------------------------------------------------------------------------------------------------------




--------------------------------------- Iteration      1( 196)  ---------------------------------------


    POTLOK:  cpu time      0.2450: real time      0.2695
    SETDIJ:  cpu time      0.4059: real time      0.4674
    TRIAL :  cpu time     30.9816: real time     31.2752
    CORREC:  cpu time     30.6805: real time     31.1462
    CHARGE:  cpu time      0.2122: real time      0.2131
    --------------------------------------------
      LOOP:  cpu time     62.5291: real time     63.3766

 eigenvalue-minimisations  :     0
 total energy-change (2. order) :-0.2433972E-05  (-0.2255670E-05)
 number of electron     321.9999974 magnetization 
 augmentation part       50.9123562 magnetization 

 Free energy of the ion-electron system (eV)
  ---------------------------------------------------
  alpha Z        PSCENC =       379.72439301
  Ewald energy   TEWEN  =     18509.04670523
  -Hartree energ DENC   =    -47242.97788879
  -exchange      EXHF   =      4567.28412029
  -V(xc)+E(xc)   XCENC  =         0.00000000
  PAW double counting   =     32033.94045393   -32278.68495809
  entropy T*S    EENTRO =        -0.00000000
  eigenvalues    EBANDS =     -8561.69504192
  atomic energy  EATOM  =     31685.62717035
  ---------------------------------------------------
  free energy    TOTEN  =      -907.73504598 eV

  energy without entropy =     -907.73504598  energy(sigma->0) =     -907.73504598
  exchange ACFDT corr.  =         0.00000000  see jH, gK, PRB 81, 115126


--------------------------------------------------------------------------------------------------------




--------------------------------------- Iteration      1( 197)  ---------------------------------------


    POTLOK:  cpu time      0.2267: real time      0.2273
    SETDIJ:  cpu time      0.4454: real time      0.4465
    TRIAL :  cpu time     31.0082: real time     31.3016
    CORREC:  cpu time     30.4610: real time     31.0905
    CHARGE:  cpu time      0.2122: real time      0.2128
    --------------------------------------------
      LOOP:  cpu time     62.3558: real time     63.2809

 eigenvalue-minimisations  :     0
 total energy-change (2. order) :-0.2254816E-05  (-0.2557296E-05)
 number of electron     321.9999974 magnetization 
 augmentation part       50.9123660 magnetization 

 Free energy of the ion-electron system (eV)
  ---------------------------------------------------
  alpha Z        PSCENC =       379.72439301
  Ewald energy   TEWEN  =     18509.04670523
  -Hartree energ DENC   =    -47242.96967497
  -exchange      EXHF   =      4567.28355684
  -V(xc)+E(xc)   XCENC  =         0.00000000
  PAW double counting   =     32033.93322282   -32278.67670216
  entropy T*S    EENTRO =        -0.00000000
  eigenvalues    EBANDS =     -8561.70371936
  atomic energy  EATOM  =     31685.62717035
  ---------------------------------------------------
  free energy    TOTEN  =      -907.73504824 eV

  energy without entropy =     -907.73504824  energy(sigma->0) =     -907.73504824
  exchange ACFDT corr.  =         0.00000000  see jH, gK, PRB 81, 115126


--------------------------------------------------------------------------------------------------------




--------------------------------------- Iteration      1( 198)  ---------------------------------------


    POTLOK:  cpu time      0.2266: real time      0.2273
    SETDIJ:  cpu time      0.4447: real time      0.4517
    TRIAL :  cpu time     30.8409: real time     31.0622
    CORREC:  cpu time     30.6487: real time     31.1763
    CHARGE:  cpu time      0.2125: real time      0.2130
    --------------------------------------------
      LOOP:  cpu time     62.3755: real time     63.1326

 eigenvalue-minimisations  :     0
 total energy-change (2. order) :-0.2556288E-05  (-0.2348419E-05)
 number of electron     321.9999974 magnetization 
 augmentation part       50.9123743 magnetization 

 Free energy of the ion-electron system (eV)
  ---------------------------------------------------
  alpha Z        PSCENC =       379.72439301
  Ewald energy   TEWEN  =     18509.04670523
  -Hartree energ DENC   =    -47242.96875073
  -exchange      EXHF   =      4567.28332527
  -V(xc)+E(xc)   XCENC  =         0.00000000
  PAW double counting   =     32033.93390584   -32278.67797023
  entropy T*S    EENTRO =        -0.00000000
  eigenvalues    EBANDS =     -8561.70382955
  atomic energy  EATOM  =     31685.62717035
  ---------------------------------------------------
  free energy    TOTEN  =      -907.73505079 eV

  energy without entropy =     -907.73505079  energy(sigma->0) =     -907.73505079
  exchange ACFDT corr.  =         0.00000000  see jH, gK, PRB 81, 115126


--------------------------------------------------------------------------------------------------------




--------------------------------------- Iteration      1( 199)  ---------------------------------------


    POTLOK:  cpu time      0.2269: real time      0.2275
    SETDIJ:  cpu time      0.4464: real time      0.4477
    TRIAL :  cpu time     31.0814: real time     31.3390
    CORREC:  cpu time     30.4244: real time     31.0639
    CHARGE:  cpu time      0.2131: real time      0.2136
    --------------------------------------------
      LOOP:  cpu time     62.3945: real time     63.2940

 eigenvalue-minimisations  :     0
 total energy-change (2. order) :-0.2347570E-05  (-0.2727602E-05)
 number of electron     321.9999974 magnetization 
 augmentation part       50.9123421 magnetization 

 Free energy of the ion-electron system (eV)
  ---------------------------------------------------
  alpha Z        PSCENC =       379.72439301
  Ewald energy   TEWEN  =     18509.04670523
  -Hartree energ DENC   =    -47242.96942259
  -exchange      EXHF   =      4567.28328182
  -V(xc)+E(xc)   XCENC  =         0.00000000
  PAW double counting   =     32033.93499771   -32278.67958325
  entropy T*S    EENTRO =        -0.00000000
  eigenvalues    EBANDS =     -8561.70259543
  atomic energy  EATOM  =     31685.62717035
  ---------------------------------------------------
  free energy    TOTEN  =      -907.73505314 eV

  energy without entropy =     -907.73505314  energy(sigma->0) =     -907.73505314
  exchange ACFDT corr.  =         0.00000000  see jH, gK, PRB 81, 115126


--------------------------------------------------------------------------------------------------------




--------------------------------------- Iteration      1( 200)  ---------------------------------------


    POTLOK:  cpu time      0.2264: real time      0.2269
    SETDIJ:  cpu time      0.4425: real time      0.4496
    TRIAL :  cpu time     30.7489: real time     30.9796
    CORREC:  cpu time     30.3107: real time     31.0482
    CHARGE:  cpu time      0.2185: real time      0.2191
    --------------------------------------------
      LOOP:  cpu time     61.9492: real time     62.9257

 eigenvalue-minimisations  :     0
 total energy-change (2. order) :-0.2726847E-05  (-0.2724883E-05)
 number of electron     321.9999974 magnetization 
 augmentation part       50.9123153 magnetization 

 Free energy of the ion-electron system (eV)
  ---------------------------------------------------
  alpha Z        PSCENC =       379.72439301
  Ewald energy   TEWEN  =     18509.04670523
  -Hartree energ DENC   =    -47242.96703287
  -exchange      EXHF   =      4567.28300160
  -V(xc)+E(xc)   XCENC  =         0.00000000
  PAW double counting   =     32033.93182742   -32278.67552178
  entropy T*S    EENTRO =        -0.00000000
  eigenvalues    EBANDS =     -8561.70559883
  atomic energy  EATOM  =     31685.62717035
  ---------------------------------------------------
  free energy    TOTEN  =      -907.73505587 eV

  energy without entropy =     -907.73505587  energy(sigma->0) =     -907.73505587
  exchange ACFDT corr.  =         0.00000000  see jH, gK, PRB 81, 115126


--------------------------------------------------------------------------------------------------------




--------------------------------------- Iteration      1( 201)  ---------------------------------------


    POTLOK:  cpu time      0.2263: real time      0.2268
    SETDIJ:  cpu time      0.4478: real time      0.4492
    TRIAL :  cpu time     30.6811: real time     30.8571
    CORREC:  cpu time     30.5469: real time     31.1507
    CHARGE:  cpu time      0.2153: real time      0.2158
    --------------------------------------------
      LOOP:  cpu time     62.1204: real time     62.9026

 eigenvalue-minimisations  :     0
 total energy-change (2. order) :-0.2723893E-05  (-0.2681921E-05)
 number of electron     321.9999974 magnetization 
 augmentation part       50.9123436 magnetization 

 Free energy of the ion-electron system (eV)
  ---------------------------------------------------
  alpha Z        PSCENC =       379.72439301
  Ewald energy   TEWEN  =     18509.04670523
  -Hartree energ DENC   =    -47242.96664544
  -exchange      EXHF   =      4567.28292801
  -V(xc)+E(xc)   XCENC  =         0.00000000
  PAW double counting   =     32033.93007220   -32278.67306412
  entropy T*S    EENTRO =        -0.00000000
  eigenvalues    EBANDS =     -8561.70661785
  atomic energy  EATOM  =     31685.62717035
  ---------------------------------------------------
  free energy    TOTEN  =      -907.73505859 eV

  energy without entropy =     -907.73505859  energy(sigma->0) =     -907.73505859
  exchange ACFDT corr.  =         0.00000000  see jH, gK, PRB 81, 115126


--------------------------------------------------------------------------------------------------------




--------------------------------------- Iteration      1( 202)  ---------------------------------------


    POTLOK:  cpu time      0.2280: real time      0.2285
    SETDIJ:  cpu time      0.4450: real time      0.4463
    TRIAL :  cpu time     30.7797: real time     30.8968
    CORREC:  cpu time     30.5942: real time     31.1693
    CHARGE:  cpu time      0.2126: real time      0.2131
    --------------------------------------------
      LOOP:  cpu time     62.2615: real time     62.9560

 eigenvalue-minimisations  :     0
 total energy-change (2. order) :-0.2681169E-05  (-0.2352295E-05)
 number of electron     321.9999974 magnetization 
 augmentation part       50.9123518 magnetization 

 Free energy of the ion-electron system (eV)
  ---------------------------------------------------
  alpha Z        PSCENC =       379.72439301
  Ewald energy   TEWEN  =     18509.04670523
  -Hartree energ DENC   =    -47242.97473903
  -exchange      EXHF   =      4567.28337508
  -V(xc)+E(xc)   XCENC  =         0.00000000
  PAW double counting   =     32033.93781630   -32278.68181460
  entropy T*S    EENTRO =        -0.00000000
  eigenvalues    EBANDS =     -8561.69796762
  atomic energy  EATOM  =     31685.62717035
  ---------------------------------------------------
  free energy    TOTEN  =      -907.73506127 eV

  energy without entropy =     -907.73506127  energy(sigma->0) =     -907.73506127
  exchange ACFDT corr.  =         0.00000000  see jH, gK, PRB 81, 115126


--------------------------------------------------------------------------------------------------------




--------------------------------------- Iteration      1( 203)  ---------------------------------------


    POTLOK:  cpu time      0.2299: real time      0.2304
    SETDIJ:  cpu time      0.4465: real time      0.4478
    TRIAL :  cpu time     30.7898: real time     30.9513
    CORREC:  cpu time     30.6366: real time     31.1229
    CHARGE:  cpu time      0.2125: real time      0.2131
    --------------------------------------------
      LOOP:  cpu time     62.3168: real time     62.9679

 eigenvalue-minimisations  :     0
 total energy-change (2. order) :-0.2351542E-05  (-0.2150811E-05)
 number of electron     321.9999974 magnetization 
 augmentation part       50.9123331 magnetization 

 Free energy of the ion-electron system (eV)
  ---------------------------------------------------
  alpha Z        PSCENC =       379.72439301
  Ewald energy   TEWEN  =     18509.04670523
  -Hartree energ DENC   =    -47242.97903501
  -exchange      EXHF   =      4567.28357951
  -V(xc)+E(xc)   XCENC  =         0.00000000
  PAW double counting   =     32033.94231454   -32278.68662009
  entropy T*S    EENTRO =        -0.00000000
  eigenvalues    EBANDS =     -8561.69357118
  atomic energy  EATOM  =     31685.62717035
  ---------------------------------------------------
  free energy    TOTEN  =      -907.73506363 eV

  energy without entropy =     -907.73506363  energy(sigma->0) =     -907.73506363
  exchange ACFDT corr.  =         0.00000000  see jH, gK, PRB 81, 115126


--------------------------------------------------------------------------------------------------------




--------------------------------------- Iteration      1( 204)  ---------------------------------------


    POTLOK:  cpu time      0.2278: real time      0.2284
    SETDIJ:  cpu time      0.4446: real time      0.4459
    TRIAL :  cpu time     30.8721: real time     30.9779
    CORREC:  cpu time     31.0642: real time     31.4644
    CHARGE:  cpu time      0.2120: real time      0.2129
    --------------------------------------------
      LOOP:  cpu time     62.8229: real time     63.3318

 eigenvalue-minimisations  :     0
 total energy-change (2. order) :-0.2150180E-05  (-0.2693915E-05)
 number of electron     321.9999974 magnetization 
 augmentation part       50.9123261 magnetization 

 Free energy of the ion-electron system (eV)
  ---------------------------------------------------
  alpha Z        PSCENC =       379.72439301
  Ewald energy   TEWEN  =     18509.04670523
  -Hartree energ DENC   =    -47242.97924964
  -exchange      EXHF   =      4567.28330533
  -V(xc)+E(xc)   XCENC  =         0.00000000
  PAW double counting   =     32033.94330689   -32278.68697561
  entropy T*S    EENTRO =        -0.00000000
  eigenvalues    EBANDS =     -8561.69372133
  atomic energy  EATOM  =     31685.62717035
  ---------------------------------------------------
  free energy    TOTEN  =      -907.73506578 eV

  energy without entropy =     -907.73506578  energy(sigma->0) =     -907.73506578
  exchange ACFDT corr.  =         0.00000000  see jH, gK, PRB 81, 115126


--------------------------------------------------------------------------------------------------------




--------------------------------------- Iteration      1( 205)  ---------------------------------------


    POTLOK:  cpu time      0.2274: real time      0.2282
    SETDIJ:  cpu time      0.4467: real time      0.4498
    TRIAL :  cpu time     30.6820: real time     30.8452
    CORREC:  cpu time     31.2692: real time     31.6779
    CHARGE:  cpu time      0.2122: real time      0.2131
    --------------------------------------------
      LOOP:  cpu time     62.8399: real time     63.4164

 eigenvalue-minimisations  :     0
 total energy-change (2. order) :-0.2692941E-05  (-0.2127619E-05)
 number of electron     321.9999974 magnetization 
 augmentation part       50.9123400 magnetization 

 Free energy of the ion-electron system (eV)
  ---------------------------------------------------
  alpha Z        PSCENC =       379.72439301
  Ewald energy   TEWEN  =     18509.04670523
  -Hartree energ DENC   =    -47242.97836436
  -exchange      EXHF   =      4567.28315560
  -V(xc)+E(xc)   XCENC  =         0.00000000
  PAW double counting   =     32033.94269079   -32278.68646185
  entropy T*S    EENTRO =        -0.00000000
  eigenvalues    EBANDS =     -8561.69435724
  atomic energy  EATOM  =     31685.62717035
  ---------------------------------------------------
  free energy    TOTEN  =      -907.73506847 eV

  energy without entropy =     -907.73506847  energy(sigma->0) =     -907.73506847
  exchange ACFDT corr.  =         0.00000000  see jH, gK, PRB 81, 115126


--------------------------------------------------------------------------------------------------------




--------------------------------------- Iteration      1( 206)  ---------------------------------------


    POTLOK:  cpu time      0.2290: real time      0.2296
    SETDIJ:  cpu time      0.4486: real time      0.4498
    TRIAL :  cpu time     30.8521: real time     31.2096
    CORREC:  cpu time     30.7941: real time     30.9140
    CHARGE:  cpu time      0.2125: real time      0.2131
    --------------------------------------------
      LOOP:  cpu time     62.5382: real time     63.0180

 eigenvalue-minimisations  :     0
 total energy-change (2. order) :-0.2126930E-05  (-0.2331687E-05)
 number of electron     321.9999974 magnetization 
 augmentation part       50.9123391 magnetization 

 Free energy of the ion-electron system (eV)
  ---------------------------------------------------
  alpha Z        PSCENC =       379.72439301
  Ewald energy   TEWEN  =     18509.04670523
  -Hartree energ DENC   =    -47242.97828195
  -exchange      EXHF   =      4567.28307131
  -V(xc)+E(xc)   XCENC  =         0.00000000
  PAW double counting   =     32033.94305754   -32278.68768831
  entropy T*S    EENTRO =        -0.00000000
  eigenvalues    EBANDS =     -8561.69349778
  atomic energy  EATOM  =     31685.62717035
  ---------------------------------------------------
  free energy    TOTEN  =      -907.73507060 eV

  energy without entropy =     -907.73507060  energy(sigma->0) =     -907.73507060
  exchange ACFDT corr.  =         0.00000000  see jH, gK, PRB 81, 115126


--------------------------------------------------------------------------------------------------------




--------------------------------------- Iteration      1( 207)  ---------------------------------------


    POTLOK:  cpu time      0.2292: real time      0.2300
    SETDIJ:  cpu time      0.4458: real time      0.4469
    TRIAL :  cpu time     30.6954: real time     31.0688
    CORREC:  cpu time     30.8271: real time     30.9174
    CHARGE:  cpu time      0.2121: real time      0.2131
    --------------------------------------------
      LOOP:  cpu time     62.4116: real time     62.8784

 eigenvalue-minimisations  :     0
 total energy-change (2. order) :-0.2330835E-05  (-0.1819038E-05)
 number of electron     321.9999974 magnetization 
 augmentation part       50.9123279 magnetization 

 Free energy of the ion-electron system (eV)
  ---------------------------------------------------
  alpha Z        PSCENC =       379.72439301
  Ewald energy   TEWEN  =     18509.04670523
  -Hartree energ DENC   =    -47242.97464949
  -exchange      EXHF   =      4567.28259114
  -V(xc)+E(xc)   XCENC  =         0.00000000
  PAW double counting   =     32033.94132878   -32278.68626656
  entropy T*S    EENTRO =        -0.00000000
  eigenvalues    EBANDS =     -8561.69634539
  atomic energy  EATOM  =     31685.62717035
  ---------------------------------------------------
  free energy    TOTEN  =      -907.73507293 eV

  energy without entropy =     -907.73507293  energy(sigma->0) =     -907.73507293
  exchange ACFDT corr.  =         0.00000000  see jH, gK, PRB 81, 115126


--------------------------------------------------------------------------------------------------------




--------------------------------------- Iteration      1( 208)  ---------------------------------------


    POTLOK:  cpu time      0.2323: real time      0.2329
    SETDIJ:  cpu time      0.4499: real time      0.4509
    TRIAL :  cpu time     30.5319: real time     31.0024
    CORREC:  cpu time     30.8956: real time     31.0537
    CHARGE:  cpu time      0.1892: real time      0.2221
    --------------------------------------------
      LOOP:  cpu time     62.2999: real time     62.9639

 eigenvalue-minimisations  :     0
 total energy-change (2. order) :-0.1818531E-05  (-0.2006888E-05)
 number of electron     321.9999974 magnetization 
 augmentation part       50.9123320 magnetization 

 Free energy of the ion-electron system (eV)
  ---------------------------------------------------
  alpha Z        PSCENC =       379.72439301
  Ewald energy   TEWEN  =     18509.04670523
  -Hartree energ DENC   =    -47242.96905820
  -exchange      EXHF   =      4567.28217700
  -V(xc)+E(xc)   XCENC  =         0.00000000
  PAW double counting   =     32033.93694473   -32278.68187447
  entropy T*S    EENTRO =        -0.00000000
  eigenvalues    EBANDS =     -8561.70153240
  atomic energy  EATOM  =     31685.62717035
  ---------------------------------------------------
  free energy    TOTEN  =      -907.73507474 eV

  energy without entropy =     -907.73507474  energy(sigma->0) =     -907.73507474
  exchange ACFDT corr.  =         0.00000000  see jH, gK, PRB 81, 115126


--------------------------------------------------------------------------------------------------------




--------------------------------------- Iteration      1( 209)  ---------------------------------------


    POTLOK:  cpu time      0.2270: real time      0.2276
    SETDIJ:  cpu time      0.4439: real time      0.4450
    TRIAL :  cpu time     30.8418: real time     31.2168
    CORREC:  cpu time     30.8429: real time     30.9449
    CHARGE:  cpu time      0.2142: real time      0.2151
    --------------------------------------------
      LOOP:  cpu time     62.5719: real time     63.0513

 eigenvalue-minimisations  :     0
 total energy-change (2. order) :-0.2005938E-05  (-0.2060167E-05)
 number of electron     321.9999974 magnetization 
 augmentation part       50.9123374 magnetization 

 Free energy of the ion-electron system (eV)
  ---------------------------------------------------
  alpha Z        PSCENC =       379.72439301
  Ewald energy   TEWEN  =     18509.04670523
  -Hartree energ DENC   =    -47242.96600392
  -exchange      EXHF   =      4567.28180418
  -V(xc)+E(xc)   XCENC  =         0.00000000
  PAW double counting   =     32033.93442239   -32278.67987697
  entropy T*S    EENTRO =        -0.00000000
  eigenvalues    EBANDS =     -8561.70369104
  atomic energy  EATOM  =     31685.62717035
  ---------------------------------------------------
  free energy    TOTEN  =      -907.73507675 eV

  energy without entropy =     -907.73507675  energy(sigma->0) =     -907.73507675
  exchange ACFDT corr.  =         0.00000000  see jH, gK, PRB 81, 115126


--------------------------------------------------------------------------------------------------------




--------------------------------------- Iteration      1( 210)  ---------------------------------------


    POTLOK:  cpu time      0.2280: real time      0.2285
    SETDIJ:  cpu time      0.4530: real time      0.4541
    TRIAL :  cpu time     31.1429: real time     31.5139
    CORREC:  cpu time     31.2286: real time     31.3425
    CHARGE:  cpu time      0.2139: real time      0.2145
    --------------------------------------------
      LOOP:  cpu time     63.2685: real time     63.7556

 eigenvalue-minimisations  :     0
 total energy-change (2. order) :-0.2059434E-05  (-0.2301292E-05)
 number of electron     321.9999974 magnetization 
 augmentation part       50.9123066 magnetization 

 Free energy of the ion-electron system (eV)
  ---------------------------------------------------
  alpha Z        PSCENC =       379.72439301
  Ewald energy   TEWEN  =     18509.04670523
  -Hartree energ DENC   =    -47242.96490456
  -exchange      EXHF   =      4567.28138355
  -V(xc)+E(xc)   XCENC  =         0.00000000
  PAW double counting   =     32033.93391848   -32278.67976671
  entropy T*S    EENTRO =        -0.00000000
  eigenvalues    EBANDS =     -8561.70397817
  atomic energy  EATOM  =     31685.62717035
  ---------------------------------------------------
  free energy    TOTEN  =      -907.73507881 eV

  energy without entropy =     -907.73507881  energy(sigma->0) =     -907.73507881
  exchange ACFDT corr.  =         0.00000000  see jH, gK, PRB 81, 115126


--------------------------------------------------------------------------------------------------------




--------------------------------------- Iteration      1( 211)  ---------------------------------------


    POTLOK:  cpu time      0.2277: real time      0.2286
    SETDIJ:  cpu time      0.4422: real time      0.4433
    TRIAL :  cpu time     31.0982: real time     31.4883
    CORREC:  cpu time     30.8827: real time     31.0436
    CHARGE:  cpu time      0.2150: real time      0.2158
    --------------------------------------------
      LOOP:  cpu time     62.8679: real time     63.4215

 eigenvalue-minimisations  :     0
 total energy-change (2. order) :-0.2300567E-05  (-0.2332836E-05)
 number of electron     321.9999974 magnetization 
 augmentation part       50.9122900 magnetization 

 Free energy of the ion-electron system (eV)
  ---------------------------------------------------
  alpha Z        PSCENC =       379.72439301
  Ewald energy   TEWEN  =     18509.04670523
  -Hartree energ DENC   =    -47242.95848225
  -exchange      EXHF   =      4567.28098779
  -V(xc)+E(xc)   XCENC  =         0.00000000
  PAW double counting   =     32033.92710801   -32278.67223513
  entropy T*S    EENTRO =        -0.00000000
  eigenvalues    EBANDS =     -8561.71072812
  atomic energy  EATOM  =     31685.62717035
  ---------------------------------------------------
  free energy    TOTEN  =      -907.73508111 eV

  energy without entropy =     -907.73508111  energy(sigma->0) =     -907.73508111
  exchange ACFDT corr.  =         0.00000000  see jH, gK, PRB 81, 115126


--------------------------------------------------------------------------------------------------------




--------------------------------------- Iteration      1( 212)  ---------------------------------------


    POTLOK:  cpu time      0.2270: real time      0.2275
    SETDIJ:  cpu time      0.4470: real time      0.4481
    TRIAL :  cpu time     30.9884: real time     31.4208
    CORREC:  cpu time     30.8188: real time     30.9321
    CHARGE:  cpu time      0.2148: real time      0.2153
    --------------------------------------------
      LOOP:  cpu time     62.6980: real time     63.2460

 eigenvalue-minimisations  :     0
 total energy-change (2. order) :-0.2331966E-05  (-0.2307238E-05)
 number of electron     321.9999974 magnetization 
 augmentation part       50.9123286 magnetization 

 Free energy of the ion-electron system (eV)
  ---------------------------------------------------
  alpha Z        PSCENC =       379.72439301
  Ewald energy   TEWEN  =     18509.04670523
  -Hartree energ DENC   =    -47242.95670155
  -exchange      EXHF   =      4567.28090398
  -V(xc)+E(xc)   XCENC  =         0.00000000
  PAW double counting   =     32033.92494941   -32278.66954087
  entropy T*S    EENTRO =        -0.00000000
  eigenvalues    EBANDS =     -8561.71296300
  atomic energy  EATOM  =     31685.62717035
  ---------------------------------------------------
  free energy    TOTEN  =      -907.73508344 eV

  energy without entropy =     -907.73508344  energy(sigma->0) =     -907.73508344
  exchange ACFDT corr.  =         0.00000000  see jH, gK, PRB 81, 115126


--------------------------------------------------------------------------------------------------------




--------------------------------------- Iteration      1( 213)  ---------------------------------------


    POTLOK:  cpu time      0.2288: real time      0.2295
    SETDIJ:  cpu time      0.4495: real time      0.4508
    TRIAL :  cpu time     30.7381: real time     31.0134
    CORREC:  cpu time     31.0815: real time     31.2482
    CHARGE:  cpu time      0.2143: real time      0.2150
    --------------------------------------------
      LOOP:  cpu time     62.7149: real time     63.1597

 eigenvalue-minimisations  :     0
 total energy-change (2. order) :-0.2306562E-05  (-0.2257301E-05)
 number of electron     321.9999974 magnetization 
 augmentation part       50.9123489 magnetization 

 Free energy of the ion-electron system (eV)
  ---------------------------------------------------
  alpha Z        PSCENC =       379.72439301
  Ewald energy   TEWEN  =     18509.04670523
  -Hartree energ DENC   =    -47242.96601830
  -exchange      EXHF   =      4567.28121814
  -V(xc)+E(xc)   XCENC  =         0.00000000
  PAW double counting   =     32033.93529551   -32278.68074209
  entropy T*S    EENTRO =        -0.00000000
  eigenvalues    EBANDS =     -8561.70310760
  atomic energy  EATOM  =     31685.62717035
  ---------------------------------------------------
  free energy    TOTEN  =      -907.73508575 eV

  energy without entropy =     -907.73508575  energy(sigma->0) =     -907.73508575
  exchange ACFDT corr.  =         0.00000000  see jH, gK, PRB 81, 115126


--------------------------------------------------------------------------------------------------------




--------------------------------------- Iteration      1( 214)  ---------------------------------------


    POTLOK:  cpu time      0.2280: real time      0.2288
    SETDIJ:  cpu time      0.4498: real time      0.4512
    TRIAL :  cpu time     30.8059: real time     31.1245
    CORREC:  cpu time     30.8924: real time     31.1225
    CHARGE:  cpu time      0.2182: real time      0.2504
    --------------------------------------------
      LOOP:  cpu time     62.5965: real time     63.1794

 eigenvalue-minimisations  :     0
 total energy-change (2. order) :-0.2256602E-05  (-0.2395808E-05)
 number of electron     321.9999974 magnetization 
 augmentation part       50.9123193 magnetization 

 Free energy of the ion-electron system (eV)
  ---------------------------------------------------
  alpha Z        PSCENC =       379.72439301
  Ewald energy   TEWEN  =     18509.04670523
  -Hartree energ DENC   =    -47242.97264057
  -exchange      EXHF   =      4567.28163548
  -V(xc)+E(xc)   XCENC  =         0.00000000
  PAW double counting   =     32033.94209870   -32278.68786127
  entropy T*S    EENTRO =        -0.00000000
  eigenvalues    EBANDS =     -8561.69658893
  atomic energy  EATOM  =     31685.62717035
  ---------------------------------------------------
  free energy    TOTEN  =      -907.73508801 eV

  energy without entropy =     -907.73508801  energy(sigma->0) =     -907.73508801
  exchange ACFDT corr.  =         0.00000000  see jH, gK, PRB 81, 115126


--------------------------------------------------------------------------------------------------------




--------------------------------------- Iteration      1( 215)  ---------------------------------------


    POTLOK:  cpu time      0.2343: real time      0.2448
    SETDIJ:  cpu time      0.4058: real time      0.4543
    TRIAL :  cpu time     31.1752: real time     31.3584
    CORREC:  cpu time     30.7373: real time     31.0904
    CHARGE:  cpu time      0.2160: real time      0.2165
    --------------------------------------------
      LOOP:  cpu time     62.7699: real time     63.3691

 eigenvalue-minimisations  :     0
 total energy-change (2. order) :-0.2394932E-05  (-0.2435054E-05)
 number of electron     321.9999974 magnetization 
 augmentation part       50.9123037 magnetization 

 Free energy of the ion-electron system (eV)
  ---------------------------------------------------
  alpha Z        PSCENC =       379.72439301
  Ewald energy   TEWEN  =     18509.04670523
  -Hartree energ DENC   =    -47242.97133247
  -exchange      EXHF   =      4567.28182706
  -V(xc)+E(xc)   XCENC  =         0.00000000
  PAW double counting   =     32033.93922699   -32278.68388673
  entropy T*S    EENTRO =        -0.00000000
  eigenvalues    EBANDS =     -8561.69919384
  atomic energy  EATOM  =     31685.62717035
  ---------------------------------------------------
  free energy    TOTEN  =      -907.73509040 eV

  energy without entropy =     -907.73509040  energy(sigma->0) =     -907.73509040
  exchange ACFDT corr.  =         0.00000000  see jH, gK, PRB 81, 115126


--------------------------------------------------------------------------------------------------------




--------------------------------------- Iteration      1( 216)  ---------------------------------------


    POTLOK:  cpu time      0.2792: real time      0.2881
    SETDIJ:  cpu time      0.4485: real time      0.4496
    TRIAL :  cpu time     30.9084: real time     30.9991
    CORREC:  cpu time     30.7285: real time     31.1498
    CHARGE:  cpu time      0.2150: real time      0.2155
    --------------------------------------------
      LOOP:  cpu time     62.5815: real time     63.1039

 eigenvalue-minimisations  :     0
 total energy-change (2. order) :-0.2434383E-05  (-0.2738343E-05)
 number of electron     321.9999974 magnetization 
 augmentation part       50.9123303 magnetization 

 Free energy of the ion-electron system (eV)
  ---------------------------------------------------
  alpha Z        PSCENC =       379.72439301
  Ewald energy   TEWEN  =     18509.04670523
  -Hartree energ DENC   =    -47242.97256304
  -exchange      EXHF   =      4567.28191462
  -V(xc)+E(xc)   XCENC  =         0.00000000
  PAW double counting   =     32033.93961525   -32278.68353302
  entropy T*S    EENTRO =        -0.00000000
  eigenvalues    EBANDS =     -8561.69879524
  atomic energy  EATOM  =     31685.62717035
  ---------------------------------------------------
  free energy    TOTEN  =      -907.73509284 eV

  energy without entropy =     -907.73509284  energy(sigma->0) =     -907.73509284
  exchange ACFDT corr.  =         0.00000000  see jH, gK, PRB 81, 115126


--------------------------------------------------------------------------------------------------------




--------------------------------------- Iteration      1( 217)  ---------------------------------------


    POTLOK:  cpu time      0.2284: real time      0.2290
    SETDIJ:  cpu time      0.4440: real time      0.4453
    TRIAL :  cpu time     30.7668: real time     30.9435
    CORREC:  cpu time     30.7337: real time     31.2234
    CHARGE:  cpu time      0.2197: real time      0.2202
    --------------------------------------------
      LOOP:  cpu time     62.3953: real time     63.0642

 eigenvalue-minimisations  :     0
 total energy-change (2. order) :-0.2737528E-05  (-0.2746068E-05)
 number of electron     321.9999974 magnetization 
 augmentation part       50.9123299 magnetization 

 Free energy of the ion-electron system (eV)
  ---------------------------------------------------
  alpha Z        PSCENC =       379.72439301
  Ewald energy   TEWEN  =     18509.04670523
  -Hartree energ DENC   =    -47242.98125504
  -exchange      EXHF   =      4567.28207742
  -V(xc)+E(xc)   XCENC  =         0.00000000
  PAW double counting   =     32033.94805677   -32278.69244066
  entropy T*S    EENTRO =        -0.00000000
  eigenvalues    EBANDS =     -8561.68980265
  atomic energy  EATOM  =     31685.62717035
  ---------------------------------------------------
  free energy    TOTEN  =      -907.73509557 eV

  energy without entropy =     -907.73509557  energy(sigma->0) =     -907.73509557
  exchange ACFDT corr.  =         0.00000000  see jH, gK, PRB 81, 115126


--------------------------------------------------------------------------------------------------------




--------------------------------------- Iteration      1( 218)  ---------------------------------------


    POTLOK:  cpu time      0.2291: real time      0.2296
    SETDIJ:  cpu time      0.4477: real time      0.4491
    TRIAL :  cpu time     30.9049: real time     31.0103
    CORREC:  cpu time     30.6746: real time     31.0512
    CHARGE:  cpu time      0.2143: real time      0.2148
    --------------------------------------------
      LOOP:  cpu time     62.4736: real time     62.9581

 eigenvalue-minimisations  :     0
 total energy-change (2. order) :-0.2745401E-05  (-0.2804485E-05)
 number of electron     321.9999974 magnetization 
 augmentation part       50.9123034 magnetization 

 Free energy of the ion-electron system (eV)
  ---------------------------------------------------
  alpha Z        PSCENC =       379.72439301
  Ewald energy   TEWEN  =     18509.04670523
  -Hartree energ DENC   =    -47242.98387099
  -exchange      EXHF   =      4567.28211637
  -V(xc)+E(xc)   XCENC  =         0.00000000
  PAW double counting   =     32033.94817790   -32278.69255531
  entropy T*S    EENTRO =        -0.00000000
  eigenvalues    EBANDS =     -8561.68723489
  atomic energy  EATOM  =     31685.62717035
  ---------------------------------------------------
  free energy    TOTEN  =      -907.73509832 eV

  energy without entropy =     -907.73509832  energy(sigma->0) =     -907.73509832
  exchange ACFDT corr.  =         0.00000000  see jH, gK, PRB 81, 115126


--------------------------------------------------------------------------------------------------------




--------------------------------------- Iteration      1( 219)  ---------------------------------------


    POTLOK:  cpu time      0.2279: real time      0.2285
    SETDIJ:  cpu time      0.4488: real time      0.4501
    TRIAL :  cpu time     30.8192: real time     30.9179
    CORREC:  cpu time     30.7295: real time     31.1207
    CHARGE:  cpu time      0.2141: real time      0.2146
    --------------------------------------------
      LOOP:  cpu time     62.4416: real time     62.9339

 eigenvalue-minimisations  :     0
 total energy-change (2. order) :-0.2804154E-05  (-0.2641836E-05)
 number of electron     321.9999974 magnetization 
 augmentation part       50.9122925 magnetization 

 Free energy of the ion-electron system (eV)
  ---------------------------------------------------
  alpha Z        PSCENC =       379.72439301
  Ewald energy   TEWEN  =     18509.04670523
  -Hartree energ DENC   =    -47242.98101149
  -exchange      EXHF   =      4567.28183526
  -V(xc)+E(xc)   XCENC  =         0.00000000
  PAW double counting   =     32033.94221325   -32278.68596248
  entropy T*S    EENTRO =        -0.00000000
  eigenvalues    EBANDS =     -8561.69044425
  atomic energy  EATOM  =     31685.62717035
  ---------------------------------------------------
  free energy    TOTEN  =      -907.73510112 eV

  energy without entropy =     -907.73510112  energy(sigma->0) =     -907.73510112
  exchange ACFDT corr.  =         0.00000000  see jH, gK, PRB 81, 115126


--------------------------------------------------------------------------------------------------------




--------------------------------------- Iteration      1( 220)  ---------------------------------------


    POTLOK:  cpu time      0.2286: real time      0.2291
    SETDIJ:  cpu time      0.4453: real time      0.4465
    TRIAL :  cpu time     30.7586: real time     30.9581
    CORREC:  cpu time     30.5903: real time     31.1271
    CHARGE:  cpu time      0.2141: real time      0.2146
    --------------------------------------------
      LOOP:  cpu time     62.2390: real time     62.9776

 eigenvalue-minimisations  :     0
 total energy-change (2. order) :-0.2640991E-05  (-0.2965247E-05)
 number of electron     321.9999974 magnetization 
 augmentation part       50.9122891 magnetization 

 Free energy of the ion-electron system (eV)
  ---------------------------------------------------
  alpha Z        PSCENC =       379.72439301
  Ewald energy   TEWEN  =     18509.04670523
  -Hartree energ DENC   =    -47242.98018873
  -exchange      EXHF   =      4567.28136160
  -V(xc)+E(xc)   XCENC  =         0.00000000
  PAW double counting   =     32033.93940654   -32278.68296570
  entropy T*S    EENTRO =        -0.00000000
  eigenvalues    EBANDS =     -8561.69098607
  atomic energy  EATOM  =     31685.62717035
  ---------------------------------------------------
  free energy    TOTEN  =      -907.73510376 eV

  energy without entropy =     -907.73510376  energy(sigma->0) =     -907.73510376
  exchange ACFDT corr.  =         0.00000000  see jH, gK, PRB 81, 115126


--------------------------------------------------------------------------------------------------------




--------------------------------------- Iteration      1( 221)  ---------------------------------------


    POTLOK:  cpu time      0.2280: real time      0.2286
    SETDIJ:  cpu time      0.4478: real time      0.4490
    TRIAL :  cpu time     30.8937: real time     31.0118
    CORREC:  cpu time     31.1326: real time     31.5089
    CHARGE:  cpu time      0.2147: real time      0.2153
    --------------------------------------------
      LOOP:  cpu time     62.9193: real time     63.4160

 eigenvalue-minimisations  :     0
 total energy-change (2. order) :-0.2964411E-05  (-0.3188882E-05)
 number of electron     321.9999974 magnetization 
 augmentation part       50.9122773 magnetization 

 Free energy of the ion-electron system (eV)
  ---------------------------------------------------
  alpha Z        PSCENC =       379.72439301
  Ewald energy   TEWEN  =     18509.04670523
  -Hartree energ DENC   =    -47242.97912430
  -exchange      EXHF   =      4567.28102643
  -V(xc)+E(xc)   XCENC  =         0.00000000
  PAW double counting   =     32033.93495339   -32278.67881473
  entropy T*S    EENTRO =        -0.00000000
  eigenvalues    EBANDS =     -8561.69141611
  atomic energy  EATOM  =     31685.62717035
  ---------------------------------------------------
  free energy    TOTEN  =      -907.73510673 eV

  energy without entropy =     -907.73510673  energy(sigma->0) =     -907.73510673
  exchange ACFDT corr.  =         0.00000000  see jH, gK, PRB 81, 115126


--------------------------------------------------------------------------------------------------------




--------------------------------------- Iteration      1( 222)  ---------------------------------------


    POTLOK:  cpu time      0.2286: real time      0.2293
    SETDIJ:  cpu time      0.4479: real time      0.4492
    TRIAL :  cpu time     30.8747: real time     30.9918
    CORREC:  cpu time     30.7882: real time     31.3892
    CHARGE:  cpu time      0.2156: real time      0.2162
    --------------------------------------------
      LOOP:  cpu time     62.5570: real time     63.2778

 eigenvalue-minimisations  :     0
 total energy-change (2. order) :-0.3188001E-05  (-0.2497736E-05)
 number of electron     321.9999974 magnetization 
 augmentation part       50.9122763 magnetization 

 Free energy of the ion-electron system (eV)
  ---------------------------------------------------
  alpha Z        PSCENC =       379.72439301
  Ewald energy   TEWEN  =     18509.04670523
  -Hartree energ DENC   =    -47242.97613093
  -exchange      EXHF   =      4567.28075056
  -V(xc)+E(xc)   XCENC  =         0.00000000
  PAW double counting   =     32033.92833579   -32278.67231685
  entropy T*S    EENTRO =        -0.00000000
  eigenvalues    EBANDS =     -8561.69401709
  atomic energy  EATOM  =     31685.62717035
  ---------------------------------------------------
  free energy    TOTEN  =      -907.73510992 eV

  energy without entropy =     -907.73510992  energy(sigma->0) =     -907.73510992
  exchange ACFDT corr.  =         0.00000000  see jH, gK, PRB 81, 115126


--------------------------------------------------------------------------------------------------------




--------------------------------------- Iteration      1( 223)  ---------------------------------------


    POTLOK:  cpu time      0.2288: real time      0.2296
    SETDIJ:  cpu time      0.4471: real time      0.4482
    TRIAL :  cpu time     30.7043: real time     30.8922
    CORREC:  cpu time     30.7869: real time     31.1990
    CHARGE:  cpu time      0.2156: real time      0.2161
    --------------------------------------------
      LOOP:  cpu time     62.3848: real time     62.9873

 eigenvalue-minimisations  :     0
 total energy-change (2. order) :-0.2497069E-05  (-0.2339984E-05)
 number of electron     321.9999974 magnetization 
 augmentation part       50.9122686 magnetization 

 Free energy of the ion-electron system (eV)
  ---------------------------------------------------
  alpha Z        PSCENC =       379.72439301
  Ewald energy   TEWEN  =     18509.04670523
  -Hartree energ DENC   =    -47242.97652021
  -exchange      EXHF   =      4567.28050281
  -V(xc)+E(xc)   XCENC  =         0.00000000
  PAW double counting   =     32033.92813663   -32278.67211185
  entropy T*S    EENTRO =        -0.00000000
  eigenvalues    EBANDS =     -8561.69338839
  atomic energy  EATOM  =     31685.62717035
  ---------------------------------------------------
  free energy    TOTEN  =      -907.73511241 eV

  energy without entropy =     -907.73511241  energy(sigma->0) =     -907.73511241
  exchange ACFDT corr.  =         0.00000000  see jH, gK, PRB 81, 115126


--------------------------------------------------------------------------------------------------------




--------------------------------------- Iteration      1( 224)  ---------------------------------------


    POTLOK:  cpu time      0.2649: real time      0.2660
    SETDIJ:  cpu time      0.4466: real time      0.4478
    TRIAL :  cpu time     31.2490: real time     31.4562
    CORREC:  cpu time     31.0721: real time     31.3703
    CHARGE:  cpu time      0.2157: real time      0.2163
    --------------------------------------------
      LOOP:  cpu time     63.2505: real time     63.7588

 eigenvalue-minimisations  :     0
 total energy-change (2. order) :-0.2339257E-05  (-0.2604573E-05)
 number of electron     321.9999974 magnetization 
 augmentation part       50.9122655 magnetization 

 Free energy of the ion-electron system (eV)
  ---------------------------------------------------
  alpha Z        PSCENC =       379.72439301
  Ewald energy   TEWEN  =     18509.04670523
  -Hartree energ DENC   =    -47242.97617392
  -exchange      EXHF   =      4567.28039741
  -V(xc)+E(xc)   XCENC  =         0.00000000
  PAW double counting   =     32033.92821120   -32278.67181955
  entropy T*S    EENTRO =        -0.00000000
  eigenvalues    EBANDS =     -8561.69399848
  atomic energy  EATOM  =     31685.62717035
  ---------------------------------------------------
  free energy    TOTEN  =      -907.73511475 eV

  energy without entropy =     -907.73511475  energy(sigma->0) =     -907.73511475
  exchange ACFDT corr.  =         0.00000000  see jH, gK, PRB 81, 115126


--------------------------------------------------------------------------------------------------------




--------------------------------------- Iteration      1( 225)  ---------------------------------------


    POTLOK:  cpu time      0.2277: real time      0.2283
    SETDIJ:  cpu time      0.4480: real time      0.4493
    TRIAL :  cpu time     30.7341: real time     31.1138
    CORREC:  cpu time     30.9644: real time     31.1237
    CHARGE:  cpu time      0.2157: real time      0.2162
    --------------------------------------------
      LOOP:  cpu time     62.5918: real time     63.1333

 eigenvalue-minimisations  :     0
 total energy-change (2. order) :-0.2603781E-05  (-0.1592318E-05)
 number of electron     321.9999974 magnetization 
 augmentation part       50.9122811 magnetization 

 Free energy of the ion-electron system (eV)
  ---------------------------------------------------
  alpha Z        PSCENC =       379.72439301
  Ewald energy   TEWEN  =     18509.04670523
  -Hartree energ DENC   =    -47242.97627297
  -exchange      EXHF   =      4567.28064699
  -V(xc)+E(xc)   XCENC  =         0.00000000
  PAW double counting   =     32033.92867445   -32278.67211747
  entropy T*S    EENTRO =        -0.00000000
  eigenvalues    EBANDS =     -8561.69431695
  atomic energy  EATOM  =     31685.62717035
  ---------------------------------------------------
  free energy    TOTEN  =      -907.73511736 eV

  energy without entropy =     -907.73511736  energy(sigma->0) =     -907.73511736
  exchange ACFDT corr.  =         0.00000000  see jH, gK, PRB 81, 115126


--------------------------------------------------------------------------------------------------------




--------------------------------------- Iteration      1( 226)  ---------------------------------------


    POTLOK:  cpu time      0.2273: real time      0.2283
    SETDIJ:  cpu time      0.4472: real time      0.4483
    TRIAL :  cpu time     30.5642: real time     31.0761
    CORREC:  cpu time     31.2239: real time     31.3523
    CHARGE:  cpu time      0.2149: real time      0.2159
    --------------------------------------------
      LOOP:  cpu time     62.6786: real time     63.3229

 eigenvalue-minimisations  :     0
 total energy-change (2. order) :-0.1592063E-05  (-0.1441244E-05)
 number of electron     321.9999974 magnetization 
 augmentation part       50.9122946 magnetization 

 Free energy of the ion-electron system (eV)
  ---------------------------------------------------
  alpha Z        PSCENC =       379.72439301
  Ewald energy   TEWEN  =     18509.04670523
  -Hartree energ DENC   =    -47242.97995369
  -exchange      EXHF   =      4567.28070957
  -V(xc)+E(xc)   XCENC  =         0.00000000
  PAW double counting   =     32033.93338428   -32278.67715245
  entropy T*S    EENTRO =        -0.00000000
  eigenvalues    EBANDS =     -8561.69037525
  atomic energy  EATOM  =     31685.62717035
  ---------------------------------------------------
  free energy    TOTEN  =      -907.73511895 eV

  energy without entropy =     -907.73511895  energy(sigma->0) =     -907.73511895
  exchange ACFDT corr.  =         0.00000000  see jH, gK, PRB 81, 115126


--------------------------------------------------------------------------------------------------------




--------------------------------------- Iteration      1( 227)  ---------------------------------------


    POTLOK:  cpu time      0.2280: real time      0.2287
    SETDIJ:  cpu time      0.4463: real time      0.4474
    TRIAL :  cpu time     30.6841: real time     31.1823
    CORREC:  cpu time     29.9839: real time     33.1905
    CHARGE:  cpu time      0.2170: real time      0.2175
    --------------------------------------------
      LOOP:  cpu time     61.5615: real time     65.2687

 eigenvalue-minimisations  :     0
 total energy-change (2. order) :-0.1439657E-05  (-0.1668763E-05)
 number of electron     321.9999974 magnetization 
 augmentation part       50.9122888 magnetization 

 Free energy of the ion-electron system (eV)
  ---------------------------------------------------
  alpha Z        PSCENC =       379.72439301
  Ewald energy   TEWEN  =     18509.04670523
  -Hartree energ DENC   =    -47242.98286848
  -exchange      EXHF   =      4567.28088011
  -V(xc)+E(xc)   XCENC  =         0.00000000
  PAW double counting   =     32033.93752167   -32278.68160829
  entropy T*S    EENTRO =        -0.00000000
  eigenvalues    EBANDS =     -8561.68731400
  atomic energy  EATOM  =     31685.62717035
  ---------------------------------------------------
  free energy    TOTEN  =      -907.73512039 eV

  energy without entropy =     -907.73512039  energy(sigma->0) =     -907.73512039
  exchange ACFDT corr.  =         0.00000000  see jH, gK, PRB 81, 115126


--------------------------------------------------------------------------------------------------------




--------------------------------------- Iteration      1( 228)  ---------------------------------------


    POTLOK:  cpu time      0.2273: real time      0.2278
    SETDIJ:  cpu time      0.4527: real time      0.4541
    TRIAL :  cpu time     30.9257: real time     31.3574
    CORREC:  cpu time     30.9786: real time     31.1195
    CHARGE:  cpu time      0.2158: real time      0.2163
    --------------------------------------------
      LOOP:  cpu time     62.8020: real time     63.3771

 eigenvalue-minimisations  :     0
 total energy-change (2. order) :-0.1667555E-05  (-0.1778457E-05)
 number of electron     321.9999974 magnetization 
 augmentation part       50.9122934 magnetization 

 Free energy of the ion-electron system (eV)
  ---------------------------------------------------
  alpha Z        PSCENC =       379.72439301
  Ewald energy   TEWEN  =     18509.04670523
  -Hartree energ DENC   =    -47242.98228825
  -exchange      EXHF   =      4567.28105377
  -V(xc)+E(xc)   XCENC  =         0.00000000
  PAW double counting   =     32033.93821951   -32278.68208588
  entropy T*S    EENTRO =        -0.00000000
  eigenvalues    EBANDS =     -8561.68828979
  atomic energy  EATOM  =     31685.62717035
  ---------------------------------------------------
  free energy    TOTEN  =      -907.73512206 eV

  energy without entropy =     -907.73512206  energy(sigma->0) =     -907.73512206
  exchange ACFDT corr.  =         0.00000000  see jH, gK, PRB 81, 115126


--------------------------------------------------------------------------------------------------------




--------------------------------------- Iteration      1( 229)  ---------------------------------------


    POTLOK:  cpu time      0.2277: real time      0.2286
    SETDIJ:  cpu time      0.4430: real time      0.4441
    TRIAL :  cpu time     30.6522: real time     31.1338
    CORREC:  cpu time     31.2220: real time     31.3930
    CHARGE:  cpu time      0.2128: real time      0.2136
    --------------------------------------------
      LOOP:  cpu time     62.7596: real time     63.4149

 eigenvalue-minimisations  :     0
 total energy-change (2. order) :-0.1777302E-05  (-0.1565186E-05)
 number of electron     321.9999974 magnetization 
 augmentation part       50.9122958 magnetization 

 Free energy of the ion-electron system (eV)
  ---------------------------------------------------
  alpha Z        PSCENC =       379.72439301
  Ewald energy   TEWEN  =     18509.04670523
  -Hartree energ DENC   =    -47242.98374334
  -exchange      EXHF   =      4567.28113227
  -V(xc)+E(xc)   XCENC  =         0.00000000
  PAW double counting   =     32033.94269079   -32278.68650727
  entropy T*S    EENTRO =        -0.00000000
  eigenvalues    EBANDS =     -8561.68696487
  atomic energy  EATOM  =     31685.62717035
  ---------------------------------------------------
  free energy    TOTEN  =      -907.73512383 eV

  energy without entropy =     -907.73512383  energy(sigma->0) =     -907.73512383
  exchange ACFDT corr.  =         0.00000000  see jH, gK, PRB 81, 115126


--------------------------------------------------------------------------------------------------------




--------------------------------------- Iteration      1( 230)  ---------------------------------------


    POTLOK:  cpu time      0.2280: real time      0.2286
    SETDIJ:  cpu time      0.4467: real time      0.4480
    TRIAL :  cpu time     30.7670: real time     31.1728
    CORREC:  cpu time     31.2194: real time     31.3570
    CHARGE:  cpu time      0.2199: real time      0.2204
    --------------------------------------------
      LOOP:  cpu time     62.8830: real time     63.4289

 eigenvalue-minimisations  :     0
 total energy-change (2. order) :-0.1564393E-05  (-0.1658599E-05)
 number of electron     321.9999974 magnetization 
 augmentation part       50.9123050 magnetization 

 Free energy of the ion-electron system (eV)
  ---------------------------------------------------
  alpha Z        PSCENC =       379.72439301
  Ewald energy   TEWEN  =     18509.04670523
  -Hartree energ DENC   =    -47242.98345826
  -exchange      EXHF   =      4567.28121251
  -V(xc)+E(xc)   XCENC  =         0.00000000
  PAW double counting   =     32033.94438042   -32278.68827481
  entropy T*S    EENTRO =        -0.00000000
  eigenvalues    EBANDS =     -8561.68725385
  atomic energy  EATOM  =     31685.62717035
  ---------------------------------------------------
  free energy    TOTEN  =      -907.73512540 eV

  energy without entropy =     -907.73512540  energy(sigma->0) =     -907.73512540
  exchange ACFDT corr.  =         0.00000000  see jH, gK, PRB 81, 115126


--------------------------------------------------------------------------------------------------------




--------------------------------------- Iteration      1( 231)  ---------------------------------------


    POTLOK:  cpu time      0.2266: real time      0.2273
    SETDIJ:  cpu time      0.4438: real time      0.4451
    TRIAL :  cpu time     30.7153: real time     31.0627
    CORREC:  cpu time     30.6767: real time     31.0801
    CHARGE:  cpu time      0.2158: real time      0.2163
    --------------------------------------------
      LOOP:  cpu time     62.2802: real time     63.0335

 eigenvalue-minimisations  :     0
 total energy-change (2. order) :-0.1657550E-05  (-0.1629056E-05)
 number of electron     321.9999974 magnetization 
 augmentation part       50.9123139 magnetization 

 Free energy of the ion-electron system (eV)
  ---------------------------------------------------
  alpha Z        PSCENC =       379.72439301
  Ewald energy   TEWEN  =     18509.04670523
  -Hartree energ DENC   =    -47242.98354388
  -exchange      EXHF   =      4567.28129466
  -V(xc)+E(xc)   XCENC  =         0.00000000
  PAW double counting   =     32033.94607056   -32278.69032525
  entropy T*S    EENTRO =        -0.00000000
  eigenvalues    EBANDS =     -8561.68689174
  atomic energy  EATOM  =     31685.62717035
  ---------------------------------------------------
  free energy    TOTEN  =      -907.73512705 eV

  energy without entropy =     -907.73512705  energy(sigma->0) =     -907.73512705
  exchange ACFDT corr.  =         0.00000000  see jH, gK, PRB 81, 115126


--------------------------------------------------------------------------------------------------------




--------------------------------------- Iteration      1( 232)  ---------------------------------------


    POTLOK:  cpu time      0.2264: real time      0.2271
    SETDIJ:  cpu time      0.4469: real time      0.4483
    TRIAL :  cpu time     31.4201: real time     31.8671
    CORREC:  cpu time     30.8458: real time     31.1390
    CHARGE:  cpu time      0.2144: real time      0.2151
    --------------------------------------------
      LOOP:  cpu time     63.1557: real time     63.8986

 eigenvalue-minimisations  :     0
 total energy-change (2. order) :-0.1628061E-05  (-0.1750770E-05)
 number of electron     321.9999974 magnetization 
 augmentation part       50.9123020 magnetization 

 Free energy of the ion-electron system (eV)
  ---------------------------------------------------
  alpha Z        PSCENC =       379.72439301
  Ewald energy   TEWEN  =     18509.04670523
  -Hartree energ DENC   =    -47242.98294187
  -exchange      EXHF   =      4567.28118182
  -V(xc)+E(xc)   XCENC  =         0.00000000
  PAW double counting   =     32033.94773945   -32278.69227109
  entropy T*S    EENTRO =        -0.00000000
  eigenvalues    EBANDS =     -8561.68710559
  atomic energy  EATOM  =     31685.62717035
  ---------------------------------------------------
  free energy    TOTEN  =      -907.73512868 eV

  energy without entropy =     -907.73512868  energy(sigma->0) =     -907.73512868
  exchange ACFDT corr.  =         0.00000000  see jH, gK, PRB 81, 115126


--------------------------------------------------------------------------------------------------------




--------------------------------------- Iteration      1( 233)  ---------------------------------------


    POTLOK:  cpu time      0.2738: real time      0.2807
    SETDIJ:  cpu time      0.4093: real time      0.4508
    TRIAL :  cpu time     30.7716: real time     31.0152
    CORREC:  cpu time     30.5751: real time     31.0673
    CHARGE:  cpu time      0.2156: real time      0.2161
    --------------------------------------------
      LOOP:  cpu time     62.2478: real time     63.0326

 eigenvalue-minimisations  :     0
 total energy-change (2. order) :-0.1749970E-05  (-0.1362483E-05)
 number of electron     321.9999974 magnetization 
 augmentation part       50.9122953 magnetization 

 Free energy of the ion-electron system (eV)
  ---------------------------------------------------
  alpha Z        PSCENC =       379.72439301
  Ewald energy   TEWEN  =     18509.04670523
  -Hartree energ DENC   =    -47242.97690788
  -exchange      EXHF   =      4567.28106669
  -V(xc)+E(xc)   XCENC  =         0.00000000
  PAW double counting   =     32033.94272828   -32278.68714431
  entropy T*S    EENTRO =        -0.00000000
  eigenvalues    EBANDS =     -8561.69314181
  atomic energy  EATOM  =     31685.62717035
  ---------------------------------------------------
  free energy    TOTEN  =      -907.73513043 eV

  energy without entropy =     -907.73513043  energy(sigma->0) =     -907.73513043
  exchange ACFDT corr.  =         0.00000000  see jH, gK, PRB 81, 115126


--------------------------------------------------------------------------------------------------------




--------------------------------------- Iteration      1( 234)  ---------------------------------------


    POTLOK:  cpu time      0.2265: real time      0.2271
    SETDIJ:  cpu time      0.4470: real time      0.4483
    TRIAL :  cpu time     30.8504: real time     31.0700
    CORREC:  cpu time     30.5572: real time     30.9839
    CHARGE:  cpu time      0.2175: real time      0.2182
    --------------------------------------------
      LOOP:  cpu time     62.3005: real time     62.9495

 eigenvalue-minimisations  :     0
 total energy-change (2. order) :-0.1361546E-05  (-0.1328107E-05)
 number of electron     321.9999974 magnetization 
 augmentation part       50.9123019 magnetization 

 Free energy of the ion-electron system (eV)
  ---------------------------------------------------
  alpha Z        PSCENC =       379.72439301
  Ewald energy   TEWEN  =     18509.04670523
  -Hartree energ DENC   =    -47242.97257630
  -exchange      EXHF   =      4567.28107242
  -V(xc)+E(xc)   XCENC  =         0.00000000
  PAW double counting   =     32033.93816241   -32278.68268260
  entropy T*S    EENTRO =        -0.00000000
  eigenvalues    EBANDS =     -8561.69737631
  atomic energy  EATOM  =     31685.62717035
  ---------------------------------------------------
  free energy    TOTEN  =      -907.73513179 eV

  energy without entropy =     -907.73513179  energy(sigma->0) =     -907.73513179
  exchange ACFDT corr.  =         0.00000000  see jH, gK, PRB 81, 115126


--------------------------------------------------------------------------------------------------------




--------------------------------------- Iteration      1( 235)  ---------------------------------------


    POTLOK:  cpu time      0.2284: real time      0.2290
    SETDIJ:  cpu time      0.4488: real time      0.4502
    TRIAL :  cpu time     30.8057: real time     30.9047
    CORREC:  cpu time     31.0519: real time     31.3803
    CHARGE:  cpu time      0.2157: real time      0.2162
    --------------------------------------------
      LOOP:  cpu time     62.7525: real time     63.1822

 eigenvalue-minimisations  :     0
 total energy-change (2. order) :-0.1327309E-05  (-0.1455959E-05)
 number of electron     321.9999974 magnetization 
 augmentation part       50.9122951 magnetization 

 Free energy of the ion-electron system (eV)
  ---------------------------------------------------
  alpha Z        PSCENC =       379.72439301
  Ewald energy   TEWEN  =     18509.04670523
  -Hartree energ DENC   =    -47242.97186144
  -exchange      EXHF   =      4567.28101344
  -V(xc)+E(xc)   XCENC  =         0.00000000
  PAW double counting   =     32033.93767784   -32278.68260115
  entropy T*S    EENTRO =        -0.00000000
  eigenvalues    EBANDS =     -8561.69763040
  atomic energy  EATOM  =     31685.62717035
  ---------------------------------------------------
  free energy    TOTEN  =      -907.73513312 eV

  energy without entropy =     -907.73513312  energy(sigma->0) =     -907.73513312
  exchange ACFDT corr.  =         0.00000000  see jH, gK, PRB 81, 115126


--------------------------------------------------------------------------------------------------------




--------------------------------------- Iteration      1( 236)  ---------------------------------------


    POTLOK:  cpu time      0.2276: real time      0.2282
    SETDIJ:  cpu time      0.4436: real time      0.4450
    TRIAL :  cpu time     30.8761: real time     30.9848
    CORREC:  cpu time     30.6234: real time     31.1622
    CHARGE:  cpu time      0.2125: real time      0.2130
    --------------------------------------------
      LOOP:  cpu time     62.3851: real time     63.0352

 eigenvalue-minimisations  :     0
 total energy-change (2. order) :-0.1455013E-05  (-0.1375832E-05)
 number of electron     321.9999974 magnetization 
 augmentation part       50.9122773 magnetization 

 Free energy of the ion-electron system (eV)
  ---------------------------------------------------
  alpha Z        PSCENC =       379.72439301
  Ewald energy   TEWEN  =     18509.04670523
  -Hartree energ DENC   =    -47242.97029816
  -exchange      EXHF   =      4567.28097118
  -V(xc)+E(xc)   XCENC  =         0.00000000
  PAW double counting   =     32033.93551535   -32278.68043494
  entropy T*S    EENTRO =        -0.00000000
  eigenvalues    EBANDS =     -8561.69915660
  atomic energy  EATOM  =     31685.62717035
  ---------------------------------------------------
  free energy    TOTEN  =      -907.73513458 eV

  energy without entropy =     -907.73513458  energy(sigma->0) =     -907.73513458
  exchange ACFDT corr.  =         0.00000000  see jH, gK, PRB 81, 115126


--------------------------------------------------------------------------------------------------------




--------------------------------------- Iteration      1( 237)  ---------------------------------------


    POTLOK:  cpu time      0.2276: real time      0.2282
    SETDIJ:  cpu time      0.4458: real time      0.4471
    TRIAL :  cpu time     30.7927: real time     30.9551
    CORREC:  cpu time     30.6846: real time     31.1770
    CHARGE:  cpu time      0.2169: real time      0.2175
    --------------------------------------------
      LOOP:  cpu time     62.3695: real time     63.0269

 eigenvalue-minimisations  :     0
 total energy-change (2. order) :-0.1374996E-05  (-0.1173009E-05)
 number of electron     321.9999974 magnetization 
 augmentation part       50.9122769 magnetization 

 Free energy of the ion-electron system (eV)
  ---------------------------------------------------
  alpha Z        PSCENC =       379.72439301
  Ewald energy   TEWEN  =     18509.04670523
  -Hartree energ DENC   =    -47242.96805391
  -exchange      EXHF   =      4567.28108008
  -V(xc)+E(xc)   XCENC  =         0.00000000
  PAW double counting   =     32033.93190374   -32278.67646951
  entropy T*S    EENTRO =        -0.00000000
  eigenvalues    EBANDS =     -8561.70186494
  atomic energy  EATOM  =     31685.62717035
  ---------------------------------------------------
  free energy    TOTEN  =      -907.73513595 eV

  energy without entropy =     -907.73513595  energy(sigma->0) =     -907.73513595
  exchange ACFDT corr.  =         0.00000000  see jH, gK, PRB 81, 115126


--------------------------------------------------------------------------------------------------------




--------------------------------------- Iteration      1( 238)  ---------------------------------------


    POTLOK:  cpu time      0.2278: real time      0.2286
    SETDIJ:  cpu time      0.4461: real time      0.4472
    TRIAL :  cpu time     30.8227: real time     30.9371
    CORREC:  cpu time     30.4002: real time     31.0358
    CHARGE:  cpu time      0.2125: real time      0.2130
    --------------------------------------------
      LOOP:  cpu time     62.1112: real time     62.8637

 eigenvalue-minimisations  :     0
 total energy-change (2. order) :-0.1172546E-05  (-0.1275896E-05)
 number of electron     321.9999974 magnetization 
 augmentation part       50.9122871 magnetization 

 Free energy of the ion-electron system (eV)
  ---------------------------------------------------
  alpha Z        PSCENC =       379.72439301
  Ewald energy   TEWEN  =     18509.04670523
  -Hartree energ DENC   =    -47242.96925402
  -exchange      EXHF   =      4567.28123773
  -V(xc)+E(xc)   XCENC  =         0.00000000
  PAW double counting   =     32033.93268347   -32278.67729377
  entropy T*S    EENTRO =        -0.00000000
  eigenvalues    EBANDS =     -8561.70077913
  atomic energy  EATOM  =     31685.62717035
  ---------------------------------------------------
  free energy    TOTEN  =      -907.73513712 eV

  energy without entropy =     -907.73513712  energy(sigma->0) =     -907.73513712
  exchange ACFDT corr.  =         0.00000000  see jH, gK, PRB 81, 115126


--------------------------------------------------------------------------------------------------------




--------------------------------------- Iteration      1( 239)  ---------------------------------------


    POTLOK:  cpu time      0.2292: real time      0.2298
    SETDIJ:  cpu time      0.4479: real time      0.4492
    TRIAL :  cpu time     30.7521: real time     30.9367
    CORREC:  cpu time     30.6269: real time     31.1047
    CHARGE:  cpu time      0.2116: real time      0.2121
    --------------------------------------------
      LOOP:  cpu time     62.2687: real time     62.9344

 eigenvalue-minimisations  :     0
 total energy-change (2. order) :-0.1274650E-05  (-0.9301986E-06)
 number of electron     321.9999974 magnetization 
 augmentation part       50.9122837 magnetization 

 Free energy of the ion-electron system (eV)
  ---------------------------------------------------
  alpha Z        PSCENC =       379.72439301
  Ewald energy   TEWEN  =     18509.04670523
  -Hartree energ DENC   =    -47242.97278976
  -exchange      EXHF   =      4567.28158715
  -V(xc)+E(xc)   XCENC  =         0.00000000
  PAW double counting   =     32033.93632699   -32278.68119505
  entropy T*S    EENTRO =        -0.00000000
  eigenvalues    EBANDS =     -8561.69733632
  atomic energy  EATOM  =     31685.62717035
  ---------------------------------------------------
  free energy    TOTEN  =      -907.73513840 eV

  energy without entropy =     -907.73513840  energy(sigma->0) =     -907.73513840
  exchange ACFDT corr.  =         0.00000000  see jH, gK, PRB 81, 115126


--------------------------------------------------------------------------------------------------------




--------------------------------------- Iteration      1( 240)  ---------------------------------------


    POTLOK:  cpu time      0.2288: real time      0.2293
    SETDIJ:  cpu time      0.4390: real time      0.4403
    TRIAL :  cpu time     30.7845: real time     30.9807
    CORREC:  cpu time     30.6635: real time     31.0444
    CHARGE:  cpu time      0.2158: real time      0.2163
    --------------------------------------------
      LOOP:  cpu time     62.3346: real time     62.9142

 eigenvalue-minimisations  :     0
 total energy-change (2. order) :-0.9296018E-06  (-0.1301131E-05)
 number of electron     321.9999974 magnetization 
 augmentation part       50.9122738 magnetization 

 Free energy of the ion-electron system (eV)
  ---------------------------------------------------
  alpha Z        PSCENC =       379.72439301
  Ewald energy   TEWEN  =     18509.04670523
  -Hartree energ DENC   =    -47242.97374591
  -exchange      EXHF   =      4567.28185681
  -V(xc)+E(xc)   XCENC  =         0.00000000
  PAW double counting   =     32033.93744467   -32278.68208101
  entropy T*S    EENTRO =        -0.00000000
  eigenvalues    EBANDS =     -8561.69688248
  atomic energy  EATOM  =     31685.62717035
  ---------------------------------------------------
  free energy    TOTEN  =      -907.73513933 eV

  energy without entropy =     -907.73513933  energy(sigma->0) =     -907.73513933
  exchange ACFDT corr.  =         0.00000000  see jH, gK, PRB 81, 115126


--------------------------------------------------------------------------------------------------------




--------------------------------------- Iteration      1( 241)  ---------------------------------------


    POTLOK:  cpu time      0.2292: real time      0.2297
    SETDIJ:  cpu time      0.4435: real time      0.4448
    TRIAL :  cpu time     30.8468: real time     30.9863
    CORREC:  cpu time     30.8624: real time     31.1756
    CHARGE:  cpu time      0.2145: real time      0.2150
    --------------------------------------------
      LOOP:  cpu time     62.5984: real time     63.0534

 eigenvalue-minimisations  :     0
 total energy-change (2. order) :-0.1300199E-05  (-0.1202381E-05)
 number of electron     321.9999974 magnetization 
 augmentation part       50.9122935 magnetization 

 Free energy of the ion-electron system (eV)
  ---------------------------------------------------
  alpha Z        PSCENC =       379.72439301
  Ewald energy   TEWEN  =     18509.04670523
  -Hartree energ DENC   =    -47242.97360056
  -exchange      EXHF   =      4567.28215672
  -V(xc)+E(xc)   XCENC  =         0.00000000
  PAW double counting   =     32033.93775407   -32278.68183336
  entropy T*S    EENTRO =        -0.00000000
  eigenvalues    EBANDS =     -8561.69788609
  atomic energy  EATOM  =     31685.62717035
  ---------------------------------------------------
  free energy    TOTEN  =      -907.73514063 eV

  energy without entropy =     -907.73514063  energy(sigma->0) =     -907.73514063
  exchange ACFDT corr.  =         0.00000000  see jH, gK, PRB 81, 115126


--------------------------------------------------------------------------------------------------------




--------------------------------------- Iteration      1( 242)  ---------------------------------------


    POTLOK:  cpu time      0.2281: real time      0.2289
    SETDIJ:  cpu time      0.4351: real time      0.4506
    TRIAL :  cpu time     30.8511: real time     30.9838
    CORREC:  cpu time     31.3316: real time     31.7541
    CHARGE:  cpu time      0.2154: real time      0.2163
    --------------------------------------------
      LOOP:  cpu time     63.0624: real time     63.6357

 eigenvalue-minimisations  :     0
 total energy-change (2. order) :-0.1201439E-05  (-0.1236155E-05)
 number of electron     321.9999974 magnetization 
 augmentation part       50.9123215 magnetization 

 Free energy of the ion-electron system (eV)
  ---------------------------------------------------
  alpha Z        PSCENC =       379.72439301
  Ewald energy   TEWEN  =     18509.04670523
  -Hartree energ DENC   =    -47242.97756294
  -exchange      EXHF   =      4567.28258632
  -V(xc)+E(xc)   XCENC  =         0.00000000
  PAW double counting   =     32033.94211584   -32278.68651256
  entropy T*S    EENTRO =        -0.00000000
  eigenvalues    EBANDS =     -8561.69403709
  atomic energy  EATOM  =     31685.62717035
  ---------------------------------------------------
  free energy    TOTEN  =      -907.73514183 eV

  energy without entropy =     -907.73514183  energy(sigma->0) =     -907.73514183
  exchange ACFDT corr.  =         0.00000000  see jH, gK, PRB 81, 115126


--------------------------------------------------------------------------------------------------------




--------------------------------------- Iteration      1( 243)  ---------------------------------------


    POTLOK:  cpu time      0.2285: real time      0.2291
    SETDIJ:  cpu time      0.4443: real time      0.4454
    TRIAL :  cpu time     30.7677: real time     31.1232
    CORREC:  cpu time     30.9368: real time     31.0425
    CHARGE:  cpu time      0.2141: real time      0.2149
    --------------------------------------------
      LOOP:  cpu time     62.5934: real time     63.0570

 eigenvalue-minimisations  :     0
 total energy-change (2. order) :-0.1235316E-05  (-0.1204763E-05)
 number of electron     321.9999974 magnetization 
 augmentation part       50.9123177 magnetization 

 Free energy of the ion-electron system (eV)
  ---------------------------------------------------
  alpha Z        PSCENC =       379.72439301
  Ewald energy   TEWEN  =     18509.04670523
  -Hartree energ DENC   =    -47242.98244784
  -exchange      EXHF   =      4567.28288757
  -V(xc)+E(xc)   XCENC  =         0.00000000
  PAW double counting   =     32033.94796390   -32278.69281111
  entropy T*S    EENTRO =        -0.00000000
  eigenvalues    EBANDS =     -8561.68900418
  atomic energy  EATOM  =     31685.62717035
  ---------------------------------------------------
  free energy    TOTEN  =      -907.73514307 eV

  energy without entropy =     -907.73514307  energy(sigma->0) =     -907.73514307
  exchange ACFDT corr.  =         0.00000000  see jH, gK, PRB 81, 115126


--------------------------------------------------------------------------------------------------------




--------------------------------------- Iteration      1( 244)  ---------------------------------------


    POTLOK:  cpu time      0.2283: real time      0.2288
    SETDIJ:  cpu time      0.4494: real time      0.4505
    TRIAL :  cpu time     30.3560: real time     31.2569
    CORREC:  cpu time     30.9510: real time     31.0486
    CHARGE:  cpu time      0.2158: real time      0.2163
    --------------------------------------------
      LOOP:  cpu time     62.2025: real time     63.2032

 eigenvalue-minimisations  :     0
 total energy-change (2. order) :-0.1203949E-05  (-0.1196474E-05)
 number of electron     321.9999974 magnetization 
 augmentation part       50.9123026 magnetization 

 Free energy of the ion-electron system (eV)
  ---------------------------------------------------
  alpha Z        PSCENC =       379.72439301
  Ewald energy   TEWEN  =     18509.04670523
  -Hartree energ DENC   =    -47242.98019129
  -exchange      EXHF   =      4567.28286410
  -V(xc)+E(xc)   XCENC  =         0.00000000
  PAW double counting   =     32033.94639691   -32278.69083861
  entropy T*S    EENTRO =        -0.00000000
  eigenvalues    EBANDS =     -8561.69164396
  atomic energy  EATOM  =     31685.62717035
  ---------------------------------------------------
  free energy    TOTEN  =      -907.73514427 eV

  energy without entropy =     -907.73514427  energy(sigma->0) =     -907.73514427
  exchange ACFDT corr.  =         0.00000000  see jH, gK, PRB 81, 115126


--------------------------------------------------------------------------------------------------------




--------------------------------------- Iteration      1( 245)  ---------------------------------------


    POTLOK:  cpu time      0.2287: real time      0.2292
    SETDIJ:  cpu time      0.4414: real time      0.4427
    TRIAL :  cpu time     29.8842: real time     31.0419
    CORREC:  cpu time     30.7930: real time     31.0277
    CHARGE:  cpu time      0.2128: real time      0.2133
    --------------------------------------------
      LOOP:  cpu time     61.5620: real time     62.9567

 eigenvalue-minimisations  :     0
 total energy-change (2. order) :-0.1195462E-05  (-0.1288747E-05)
 number of electron     321.9999974 magnetization 
 augmentation part       50.9123144 magnetization 

 Free energy of the ion-electron system (eV)
  ---------------------------------------------------
  alpha Z        PSCENC =       379.72439301
  Ewald energy   TEWEN  =     18509.04670523
  -Hartree energ DENC   =    -47242.97448479
  -exchange      EXHF   =      4567.28286760
  -V(xc)+E(xc)   XCENC  =         0.00000000
  PAW double counting   =     32033.94038990   -32278.68424777
  entropy T*S    EENTRO =        -0.00000000
  eigenvalues    EBANDS =     -8561.69793899
  atomic energy  EATOM  =     31685.62717035
  ---------------------------------------------------
  free energy    TOTEN  =      -907.73514546 eV

  energy without entropy =     -907.73514546  energy(sigma->0) =     -907.73514546
  exchange ACFDT corr.  =         0.00000000  see jH, gK, PRB 81, 115126


--------------------------------------------------------------------------------------------------------




--------------------------------------- Iteration      1( 246)  ---------------------------------------


    POTLOK:  cpu time      0.2285: real time      0.2290
    SETDIJ:  cpu time      0.4424: real time      0.4437
    TRIAL :  cpu time     30.2251: real time     31.1032
    CORREC:  cpu time     31.2064: real time     31.3977
    CHARGE:  cpu time      0.2124: real time      0.2132
    --------------------------------------------
      LOOP:  cpu time     62.3168: real time     63.3889

 eigenvalue-minimisations  :     0
 total energy-change (2. order) :-0.1287728E-05  (-0.1121030E-05)
 number of electron     321.9999974 magnetization 
 augmentation part       50.9123296 magnetization 

 Free energy of the ion-electron system (eV)
  ---------------------------------------------------
  alpha Z        PSCENC =       379.72439301
  Ewald energy   TEWEN  =     18509.04670523
  -Hartree energ DENC   =    -47242.97382742
  -exchange      EXHF   =      4567.28295853
  -V(xc)+E(xc)   XCENC  =         0.00000000
  PAW double counting   =     32033.94010748   -32278.68406959
  entropy T*S    EENTRO =        -0.00000000
  eigenvalues    EBANDS =     -8561.69858434
  atomic energy  EATOM  =     31685.62717035
  ---------------------------------------------------
  free energy    TOTEN  =      -907.73514675 eV

  energy without entropy =     -907.73514675  energy(sigma->0) =     -907.73514675
  exchange ACFDT corr.  =         0.00000000  see jH, gK, PRB 81, 115126


--------------------------------------------------------------------------------------------------------




--------------------------------------- Iteration      1( 247)  ---------------------------------------


    POTLOK:  cpu time      0.2272: real time      0.2282
    SETDIJ:  cpu time      0.4486: real time      0.4497
    TRIAL :  cpu time     29.8968: real time     31.3128
    CORREC:  cpu time     30.9288: real time     31.0329
    CHARGE:  cpu time      0.2165: real time      0.2174
    --------------------------------------------
      LOOP:  cpu time     61.7199: real time     63.2429

 eigenvalue-minimisations  :     0
 total energy-change (2. order) :-0.1120236E-05  (-0.1107723E-05)
 number of electron     321.9999974 magnetization 
 augmentation part       50.9123237 magnetization 

 Free energy of the ion-electron system (eV)
  ---------------------------------------------------
  alpha Z        PSCENC =       379.72439301
  Ewald energy   TEWEN  =     18509.04670523
  -Hartree energ DENC   =    -47242.97552023
  -exchange      EXHF   =      4567.28298699
  -V(xc)+E(xc)   XCENC  =         0.00000000
  PAW double counting   =     32033.94213150   -32278.68628241
  entropy T*S    EENTRO =        -0.00000000
  eigenvalues    EBANDS =     -8561.69673231
  atomic energy  EATOM  =     31685.62717035
  ---------------------------------------------------
  free energy    TOTEN  =      -907.73514787 eV

  energy without entropy =     -907.73514787  energy(sigma->0) =     -907.73514787
  exchange ACFDT corr.  =         0.00000000  see jH, gK, PRB 81, 115126


--------------------------------------------------------------------------------------------------------




--------------------------------------- Iteration      1( 248)  ---------------------------------------


    POTLOK:  cpu time      0.2284: real time      0.2290
    SETDIJ:  cpu time      0.4477: real time      0.4488
    TRIAL :  cpu time     30.8894: real time     31.2016
    CORREC:  cpu time     30.8582: real time     31.0566
    CHARGE:  cpu time      0.2128: real time      0.2137
    --------------------------------------------
      LOOP:  cpu time     62.6386: real time     63.1516

 eigenvalue-minimisations  :     0
 total energy-change (2. order) :-0.1106790E-05  (-0.1103957E-05)
 number of electron     321.9999974 magnetization 
 augmentation part       50.9123308 magnetization 

 Free energy of the ion-electron system (eV)
  ---------------------------------------------------
  alpha Z        PSCENC =       379.72439301
  Ewald energy   TEWEN  =     18509.04670523
  -Hartree energ DENC   =    -47242.97467311
  -exchange      EXHF   =      4567.28311621
  -V(xc)+E(xc)   XCENC  =         0.00000000
  PAW double counting   =     32033.93938272   -32278.68329311
  entropy T*S    EENTRO =        -0.00000000
  eigenvalues    EBANDS =     -8561.69795027
  atomic energy  EATOM  =     31685.62717035
  ---------------------------------------------------
  free energy    TOTEN  =      -907.73514898 eV

  energy without entropy =     -907.73514898  energy(sigma->0) =     -907.73514898
  exchange ACFDT corr.  =         0.00000000  see jH, gK, PRB 81, 115126


--------------------------------------------------------------------------------------------------------




--------------------------------------- Iteration      1( 249)  ---------------------------------------


    POTLOK:  cpu time      0.2285: real time      0.2290
    SETDIJ:  cpu time      0.4533: real time      0.4544
    TRIAL :  cpu time     31.1629: real time     31.5986
    CORREC:  cpu time     30.7659: real time     30.9101
    CHARGE:  cpu time      0.2128: real time      0.2133
    --------------------------------------------
      LOOP:  cpu time     62.8252: real time     63.4073

 eigenvalue-minimisations  :     0
 total energy-change (2. order) :-0.1103093E-05  (-0.1052506E-05)
 number of electron     321.9999974 magnetization 
 augmentation part       50.9123538 magnetization 

 Free energy of the ion-electron system (eV)
  ---------------------------------------------------
  alpha Z        PSCENC =       379.72439301
  Ewald energy   TEWEN  =     18509.04670523
  -Hartree energ DENC   =    -47242.97727987
  -exchange      EXHF   =      4567.28339010
  -V(xc)+E(xc)   XCENC  =         0.00000000
  PAW double counting   =     32033.93953442   -32278.68362771
  entropy T*S    EENTRO =        -0.00000000
  eigenvalues    EBANDS =     -8561.69543561
  atomic energy  EATOM  =     31685.62717035
  ---------------------------------------------------
  free energy    TOTEN  =      -907.73515008 eV

  energy without entropy =     -907.73515008  energy(sigma->0) =     -907.73515008
  exchange ACFDT corr.  =         0.00000000  see jH, gK, PRB 81, 115126


--------------------------------------------------------------------------------------------------------




--------------------------------------- Iteration      1( 250)  ---------------------------------------


    POTLOK:  cpu time      0.2285: real time      0.2290
    SETDIJ:  cpu time      0.4424: real time      0.4437
    TRIAL :  cpu time     30.7617: real time     31.1652
    CORREC:  cpu time     30.9308: real time     31.0528
    CHARGE:  cpu time      0.2126: real time      0.2131
    --------------------------------------------
      LOOP:  cpu time     62.5779: real time     63.1059

 eigenvalue-minimisations  :     0
 total energy-change (2. order) :-0.1051591E-05  (-0.1112866E-05)
 number of electron     321.9999974 magnetization 
 augmentation part       50.9123429 magnetization 

 Free energy of the ion-electron system (eV)
  ---------------------------------------------------
  alpha Z        PSCENC =       379.72439301
  Ewald energy   TEWEN  =     18509.04670523
  -Hartree energ DENC   =    -47242.98401208
  -exchange      EXHF   =      4567.28359058
  -V(xc)+E(xc)   XCENC  =         0.00000000
  PAW double counting   =     32033.94485050   -32278.68947566
  entropy T*S    EENTRO =        -0.00000000
  eigenvalues    EBANDS =     -8561.68837308
  atomic energy  EATOM  =     31685.62717035
  ---------------------------------------------------
  free energy    TOTEN  =      -907.73515113 eV

  energy without entropy =     -907.73515113  energy(sigma->0) =     -907.73515113
  exchange ACFDT corr.  =         0.00000000  see jH, gK, PRB 81, 115126


--------------------------------------------------------------------------------------------------------




--------------------------------------- Iteration      1( 251)  ---------------------------------------


    POTLOK:  cpu time      0.2271: real time      0.2277
    SETDIJ:  cpu time      0.4459: real time      0.4472
    TRIAL :  cpu time     31.2632: real time     32.0658
    CORREC:  cpu time     30.9828: real time     31.2927
    CHARGE:  cpu time      0.2227: real time      0.2454
    --------------------------------------------
      LOOP:  cpu time     63.1438: real time     64.2809

 eigenvalue-minimisations  :     0
 total energy-change (2. order) :-0.1111952E-05  (-0.8954453E-06)
 number of electron     321.9999974 magnetization 
 augmentation part       50.9123199 magnetization 

 Free energy of the ion-electron system (eV)
  ---------------------------------------------------
  alpha Z        PSCENC =       379.72439301
  Ewald energy   TEWEN  =     18509.04670523
  -Hartree energ DENC   =    -47242.98452133
  -exchange      EXHF   =      4567.28366651
  -V(xc)+E(xc)   XCENC  =         0.00000000
  PAW double counting   =     32033.94287191   -32278.68721810
  entropy T*S    EENTRO =        -0.00000000
  eigenvalues    EBANDS =     -8561.68821982
  atomic energy  EATOM  =     31685.62717035
  ---------------------------------------------------
  free energy    TOTEN  =      -907.73515225 eV

  energy without entropy =     -907.73515225  energy(sigma->0) =     -907.73515225
  exchange ACFDT corr.  =         0.00000000  see jH, gK, PRB 81, 115126


--------------------------------------------------------------------------------------------------------




--------------------------------------- Iteration      1( 252)  ---------------------------------------


    POTLOK:  cpu time      0.2862: real time      0.3134
    SETDIJ:  cpu time      0.4173: real time      0.4513
    TRIAL :  cpu time     30.8540: real time     30.9744
    CORREC:  cpu time     30.8972: real time     31.2670
    EDDIAG:  cpu time     30.1590: real time     30.3234
    CHARGE:  cpu time      0.2173: real time      0.2178
    --------------------------------------------
      LOOP:  cpu time     92.8417: real time     93.5608

 eigenvalue-minimisations  :     0
 total energy-change (2. order) :-0.8945135E-06  (-0.8948802E-06)
 number of electron     321.9999974 magnetization 
 augmentation part       50.9123258 magnetization 

 Free energy of the ion-electron system (eV)
  ---------------------------------------------------
  alpha Z        PSCENC =       379.72439301
  Ewald energy   TEWEN  =     18509.04670523
  -Hartree energ DENC   =    -47242.98174609
  -exchange      EXHF   =      4567.28336577
  -V(xc)+E(xc)   XCENC  =         0.00000000
  PAW double counting   =     32033.93822647   -32278.68203343
  entropy T*S    EENTRO =        -0.00000000
  eigenvalues    EBANDS =     -8561.69142080
  atomic energy  EATOM  =     31685.62717035
  ---------------------------------------------------
  free energy    TOTEN  =      -907.73515314 eV

  energy without entropy =     -907.73515314  energy(sigma->0) =     -907.73515314
  exchange ACFDT corr.  =         0.00000000  see jH, gK, PRB 81, 115126


--------------------------------------------------------------------------------------------------------


  average scaling for gradient   0.0280


 average (electrostatic) potential at core
  the test charge radii are     0.6991  0.5883  0.7215  0.8933
  (the norm of the test charge is              1.0000)
       1 -45.3610       2 -40.4848       3 -39.3255       4 -40.5739       5 -39.2264
       6 -43.0846       7 -38.6955       8 -38.7678       9 -42.9487      10 -38.6451
      11 -43.0341      12 -39.1608      13 -40.4463      14 -40.4226      15 -39.1803
      16 -43.0161      17 -38.6431      18 -43.0126      19 -38.8157      20 -38.6955
      21 -43.1184      22 -39.2227      23 -40.5744      24 -39.3099      25 -40.4888
      26 -18.6401      27 -18.6851      28 -18.8022      29 -18.7989      30 -18.6878
      31 -18.6382      32 -53.0217      33 -53.0834      34 -50.5521      35 -49.4468
      36 -50.1399      37 -49.4396      38 -50.4027      39 -50.5161      40 -49.4389
      41 -50.2646      42 -50.2053      43 -50.2201      44 -50.3202      45 -49.3499
      46 -50.4845      47 -50.5069      48 -49.5043      49 -50.1960      50 -49.4621
      51 -50.5600      52 -57.0575      53 -57.0838      54 -57.0714      55 -57.0401
      56 -56.9065      57 -57.0191
 
 
 
 E-fermi :  -4.1162     XC(G=0):   0.0000     alpha+bet : -3.7365

 Fermi energy:        -4.1162200234

 k-point     1 :       0.0000    0.0000    0.0000
  band No.  band energies     occupation 
      1    -111.4919      2.00000
      2    -111.4797      2.00000
      3    -111.4657      2.00000
      4    -111.4485      2.00000
      5    -111.4274      2.00000
      6    -111.3131      2.00000
      7     -71.2366      2.00000
      8     -71.2239      2.00000
      9     -71.2102      2.00000
     10     -71.1920      2.00000
     11     -71.1729      2.00000
     12     -71.1271      2.00000
     13     -71.1149      2.00000
     14     -71.1060      2.00000
     15     -71.0967      2.00000
     16     -71.0874      2.00000
     17     -71.0855      2.00000
     18     -71.0699      2.00000
     19     -71.0644      2.00000
     20     -71.0572      2.00000
     21     -71.0403      2.00000
     22     -71.0333      2.00000
     23     -70.9551      2.00000
     24     -70.9279      2.00000
     25     -38.8350      2.00000
     26     -37.4049      2.00000
     27     -36.3379      2.00000
     28     -36.3287      2.00000
     29     -36.1889      2.00000
     30     -36.1800      2.00000
     31     -36.1552      2.00000
     32     -36.0913      2.00000
     33     -33.5631      2.00000
     34     -33.5526      2.00000
     35     -33.4667      2.00000
     36     -33.4421      2.00000
     37     -33.4344      2.00000
     38     -33.3818      2.00000
     39     -33.2853      2.00000
     40     -33.2447      2.00000
     41     -33.2173      2.00000
     42     -33.2032      2.00000
     43     -33.1797      2.00000
     44     -33.1058      2.00000
     45     -28.1884      2.00000
     46     -28.0796      2.00000
     47     -28.0182      2.00000
     48     -25.7848      2.00000
     49     -25.6790      2.00000
     50     -25.6232      2.00000
     51     -23.9254      2.00000
     52     -23.7978      2.00000
     53     -23.7288      2.00000
     54     -22.0861      2.00000
     55     -21.9922      2.00000
     56     -21.9459      2.00000
     57     -19.4855      2.00000
     58     -19.3917      2.00000
     59     -19.3642      2.00000
     60     -19.3349      2.00000
     61     -19.2026      2.00000
     62     -19.1449      2.00000
     63     -19.1342      2.00000
     64     -18.5895      2.00000
     65     -18.0091      2.00000
     66     -17.9458      2.00000
     67     -17.4135      2.00000
     68     -16.8940      2.00000
     69     -16.7990      2.00000
     70     -16.7312      2.00000
     71     -16.6548      2.00000
     72     -16.6106      2.00000
     73     -16.5935      2.00000
     74     -16.5327      2.00000
     75     -16.5051      2.00000
     76     -16.1698      2.00000
     77     -16.1340      2.00000
     78     -16.1056      2.00000
     79     -15.9223      2.00000
     80     -15.9050      2.00000
     81     -15.6252      2.00000
     82     -15.1381      2.00000
     83     -15.0806      2.00000
     84     -15.0475      2.00000
     85     -14.8332      2.00000
     86     -14.8051      2.00000
     87     -14.7917      2.00000
     88     -14.4589      2.00000
     89     -14.3958      2.00000
     90     -14.1595      2.00000
     91     -14.1492      2.00000
     92     -14.0370      2.00000
     93     -13.9275      2.00000
     94     -13.5509      2.00000
     95     -13.4971      2.00000
     96     -13.3385      2.00000
     97     -13.2336      2.00000
     98     -13.1758      2.00000
     99     -13.1309      2.00000
    100     -13.0593      2.00000
    101     -12.8663      2.00000
    102     -12.8584      2.00000
    103     -12.8516      2.00000
    104     -12.8197      2.00000
    105     -12.8037      2.00000
    106     -12.6693      2.00000
    107     -12.6290      2.00000
    108     -12.2090      2.00000
    109     -12.1136      2.00000
    110     -12.0883      2.00000
    111     -12.0755      2.00000
    112     -12.0103      2.00000
    113     -11.9829      2.00000
    114     -11.7215      2.00000
    115     -11.7171      2.00000
    116     -11.6893      2.00000
    117     -11.6798      2.00000
    118     -11.6213      2.00000
    119     -11.5027      2.00000
    120     -11.4903      2.00000
    121     -11.4805      2.00000
    122     -11.4703      2.00000
    123     -11.4350      2.00000
    124     -11.3835      2.00000
    125     -11.2720      2.00000
    126     -11.2420      2.00000
    127     -11.1726      2.00000
    128     -11.0778      2.00000
    129     -10.7938      2.00000
    130     -10.7451      2.00000
    131     -10.7359      2.00000
    132     -10.7250      2.00000
    133     -10.6471      2.00000
    134     -10.6185      2.00000
    135     -10.5325      2.00000
    136     -10.3861      2.00000
    137     -10.3517      2.00000
    138     -10.3280      2.00000
    139     -10.3199      2.00000
    140     -10.2664      2.00000
    141      -9.7735      2.00000
    142      -9.7627      2.00000
    143      -9.6929      2.00000
    144      -9.6569      2.00000
    145      -9.6380      2.00000
    146      -9.6153      2.00000
    147      -9.6049      2.00000
    148      -9.5219      2.00000
    149      -9.3780      2.00000
    150      -9.0032      2.00000
    151      -8.9542      2.00000
    152      -8.9114      2.00000
    153      -8.8780      2.00000
    154      -8.8379      2.00000
    155      -8.7736      2.00000
    156      -6.9795      2.00000
    157      -6.8660      2.00000
    158      -6.8106      2.00000
    159      -5.0874      2.00000
    160      -4.9948      2.00000
    161      -4.8368      2.00000
    162       3.4806      0.00000
    163       4.1727      0.00000
    164       4.1897      0.00000
    165       4.3092      0.00000
    166       4.4259      0.00000
    167       4.4646      0.00000
    168       4.8078      0.00000
    169       4.8520      0.00000
    170       4.9532      0.00000
    171       5.2486      0.00000
    172       6.1858      0.00000
    173       6.2472      0.00000
    174       6.3666      0.00000
    175       6.5910      0.00000
    176       6.5930      0.00000
    177       6.6297      0.00000
    178       6.6502      0.00000
    179       6.7451      0.00000
    180       6.9383      0.00000
    181       7.0970      0.00000
    182       7.1876      0.00000
    183       7.2088      0.00000
    184       7.2859      0.00000
    185       7.4035      0.00000
    186       7.4114      0.00000
    187       7.4687      0.00000
    188       7.5041      0.00000
    189       7.5758      0.00000
    190       7.6857      0.00000
    191       7.7143      0.00000
    192       7.7839      0.00000
    193       7.8122      0.00000
    194       7.8615      0.00000
    195       7.9330      0.00000
    196       8.0809      0.00000
    197       8.1137      0.00000
    198       8.1475      0.00000
    199       8.2450      0.00000
    200       8.2832      0.00000


--------------------------------------------------------------------------------------------------------


 soft charge-density along one line, spin component           1
         0         1         2         3         4         5         6         7         8         9
 total charge-density along one line
 
 pseudopotential strength for first ion, spin component:           1
  9.401 -14.475   0.000  -0.001   0.001   0.002  -0.004   0.005
-14.475  25.174  -0.000   0.001  -0.001  -0.003   0.007  -0.009
  0.000  -0.000  -3.729  -0.003   0.005  -0.072   0.011  -0.019
 -0.001   0.001  -0.003  -3.722  -0.011   0.011  -0.096   0.043
  0.001  -0.001   0.005  -0.011  -3.714  -0.019   0.043  -0.129
  0.002  -0.003  -0.072   0.011  -0.019  50.291  -0.036   0.056
 -0.004   0.007   0.011  -0.096   0.043  -0.036  50.366  -0.133
  0.005  -0.009  -0.019   0.043  -0.129   0.056  -0.133  50.465
 total augmentation occupancy for first ion, spin component:           1
  1.762   0.062  -0.001   0.007  -0.015   0.000   0.000  -0.002
  0.062   0.003   0.000  -0.000  -0.001   0.000  -0.000  -0.000
 -0.001   0.000   0.880  -0.131   0.195   0.048  -0.012   0.018
  0.007  -0.000  -0.131   1.147  -0.467  -0.012   0.072  -0.042
 -0.015  -0.001   0.195  -0.467   1.488   0.017  -0.042   0.102
  0.000   0.000   0.048  -0.012   0.017   0.003  -0.001   0.002
  0.000  -0.000  -0.012   0.072  -0.042  -0.001   0.005  -0.004
 -0.002  -0.000   0.018  -0.042   0.102   0.002  -0.004   0.009


------------------------ aborting loop because EDIFF is reached ----------------------------------------





 total charge

# of ion       s       p       d       f       tot
--------------------------------------------------
    1        0.905   1.610   0.000   0.000   2.515
    2        0.824   1.624   0.000   0.000   2.448
    3        0.834   1.724   0.000   0.000   2.558
    4        0.824   1.623   0.000   0.000   2.447
    5        0.833   1.725   0.000   0.000   2.558
    6        0.839   1.546   0.000   0.000   2.385
    7        0.846   1.715   0.000   0.000   2.561
    8        0.846   1.719   0.000   0.000   2.565
    9        0.839   1.545   0.000   0.000   2.384
   10        0.846   1.715   0.000   0.000   2.561
   11        0.839   1.545   0.000   0.000   2.384
   12        0.833   1.725   0.000   0.000   2.558
   13        0.824   1.624   0.000   0.000   2.448
   14        0.824   1.623   0.000   0.000   2.447
   15        0.833   1.725   0.000   0.000   2.559
   16        0.839   1.546   0.000   0.000   2.385
   17        0.846   1.715   0.000   0.000   2.561
   18        0.839   1.545   0.000   0.000   2.385
   19        0.847   1.714   0.000   0.000   2.561
   20        0.846   1.715   0.000   0.000   2.561
   21        0.839   1.546   0.000   0.000   2.385
   22        0.833   1.725   0.000   0.000   2.558
   23        0.824   1.624   0.000   0.000   2.448
   24        0.833   1.726   0.000   0.000   2.559
   25        0.824   1.624   0.000   0.000   2.448
   26        0.664   0.048   0.000   0.000   0.712
   27        0.664   0.048   0.000   0.000   0.712
   28        0.664   0.048   0.000   0.000   0.712
   29        0.664   0.048   0.000   0.000   0.712
   30        0.664   0.048   0.000   0.000   0.712
   31        0.664   0.048   0.000   0.000   0.712
   32        1.591   3.559   0.000   0.000   5.150
   33        1.582   3.584   0.000   0.000   5.166
   34        1.542   3.669   0.000   0.000   5.211
   35        1.525   3.647   0.000   0.000   5.172
   36        1.554   3.621   0.000   0.000   5.175
   37        1.525   3.646   0.000   0.000   5.172
   38        1.541   3.670   0.000   0.000   5.211
   39        1.541   3.670   0.000   0.000   5.211
   40        1.525   3.647   0.000   0.000   5.172
   41        1.554   3.620   0.000   0.000   5.174
   42        1.554   3.620   0.000   0.000   5.174
   43        1.554   3.620   0.000   0.000   5.174
   44        1.554   3.626   0.000   0.000   5.180
   45        1.525   3.647   0.000   0.000   5.172
   46        1.542   3.669   0.000   0.000   5.211
   47        1.541   3.670   0.000   0.000   5.212
   48        1.525   3.646   0.000   0.000   5.171
   49        1.554   3.620   0.000   0.000   5.174
   50        1.525   3.648   0.000   0.000   5.173
   51        1.542   3.668   0.000   0.000   5.210
   52        2.071   6.276   5.722   0.014  14.082
   53        2.071   6.275   5.722   0.014  14.082
   54        2.071   6.276   5.722   0.014  14.083
   55        2.071   6.276   5.722   0.014  14.083
   56        2.070   6.276   5.721   0.014  14.081
   57        2.071   6.276   5.722   0.014  14.082
--------------------------------------------------
tot         68.269 151.973  34.332   0.085 254.660
 
    FORLOC:  cpu time      0.0716: real time      0.0718
    FORHF :  cpu time     19.1165: real time     19.1803
    FORNL :  cpu time      0.3655: real time      0.3667
    FORCOR:  cpu time      0.6300: real time      0.6317
    OFIELD:  cpu time      0.0010: real time      0.0010

 VOLUME and BASIS-vectors are now :
 -----------------------------------------------------------------------------
  energy-cutoff  :      420.00
  volume of cell :     1403.01
      direct lattice vectors                 reciprocal lattice vectors
    15.439217752  0.004465832 -0.038376892     0.065085042  0.034326685  0.130688713
    -7.186282924 13.630928377 -0.001416099     0.000303919  0.073536393  0.130825479
    -7.182834812-11.890639092  6.700359279     0.000372844  0.000212151  0.150021909

  length of vectors
    15.439266094 15.409246337 15.423204220     0.149979744  0.150076646  0.150022522


 FORCES acting on ions:
    Electron-Ion                     Ewald-Force                    Non-Local-Force
 -----------------------------------------------------------------------------------------------
   0.274E+03 -.251E+03 0.274E+02   -.274E+03 0.251E+03 -.270E+02   -.208E+00 0.158E+00 -.121E+00
   -.193E+03 0.756E+02 0.239E+02   0.196E+03 -.789E+02 -.251E+02   -.323E+01 0.308E+01 0.109E+01
   -.119E+03 0.121E+02 -.426E+01   0.120E+03 -.116E+02 0.199E+01   -.867E+00 -.219E+00 0.950E+00
   0.118E+03 0.193E+03 -.365E+02   -.122E+03 -.194E+03 0.362E+02   0.413E+01 0.168E+01 0.271E+00
   0.103E+03 -.851E+02 -.274E+02   -.105E+03 0.857E+02 0.257E+02   0.105E+01 -.468E+00 0.754E+00
   -.249E+03 -.339E+02 0.988E+02   0.252E+03 0.354E+02 -.101E+03   -.362E+01 -.199E+01 0.440E+01
   -.694E+02 -.762E+02 -.699E+02   0.697E+02 0.780E+02 0.716E+02   -.245E+00 -.162E+01 -.162E+01
   -.549E+02 0.130E+03 -.113E+03   0.565E+02 -.130E+03 0.115E+03   -.135E+01 0.147E+00 -.185E+01
   -.878E+02 -.293E+03 0.494E+02   0.880E+02 0.297E+03 -.487E+02   0.426E-01 -.581E+01 -.183E+01
   -.837E+02 0.368E+02 0.106E+03   0.844E+02 -.367E+02 -.108E+03   -.642E+00 -.288E-01 0.219E+01
   0.241E+03 -.164E+03 0.502E+02   -.245E+03 0.166E+03 -.518E+02   0.518E+01 -.143E+01 0.288E+01
   -.470E+02 -.130E+03 0.759E+02   0.472E+02 0.133E+03 -.747E+02   -.145E+00 -.125E+01 -.441E+00
   -.539E+02 0.184E+03 -.524E+02   0.534E+02 -.188E+03 0.551E+02   0.455E+00 0.388E+01 -.246E+01
   0.755E+01 -.212E+03 0.627E+02   -.713E+01 0.216E+03 -.653E+02   -.424E+00 -.381E+01 0.245E+01
   0.491E+01 0.103E+03 -.613E+02   -.516E+01 -.105E+03 0.601E+02   0.190E+00 0.134E+01 0.424E+00
   -.241E+03 0.181E+03 -.564E+02   0.245E+03 -.183E+03 0.580E+02   -.515E+01 0.142E+01 -.288E+01
   0.453E+02 -.675E+02 -.934E+02   -.461E+02 0.673E+02 0.958E+02   0.654E+00 0.102E+00 -.220E+01
   0.481E+02 0.281E+03 -.349E+02   -.483E+02 -.285E+03 0.343E+02   -.351E-01 0.587E+01 0.183E+01
   0.301E+02 -.110E+02 0.955E+02   -.315E+02 0.110E+02 -.975E+02   0.132E+01 0.270E-01 0.187E+01
   0.789E+02 0.846E+02 0.661E+02   -.791E+02 -.864E+02 -.678E+02   0.251E+00 0.160E+01 0.162E+01
   0.219E+03 0.106E+03 -.117E+03   -.222E+03 -.108E+03 0.120E+03   0.361E+01 0.198E+01 -.444E+01
   -.956E+02 0.958E+02 0.228E+02   0.977E+02 -.965E+02 -.211E+02   -.104E+01 0.447E+00 -.742E+00
   -.143E+03 -.850E+02 0.387E+02   0.147E+03 0.867E+02 -.383E+02   -.420E+01 -.163E+01 -.243E+00
   0.988E+02 0.928E+02 0.183E+01   -.100E+03 -.934E+02 0.420E+00   0.808E+00 0.272E+00 -.101E+01
   0.199E+03 -.657E+02 -.273E+02   -.203E+03 0.690E+02 0.285E+02   0.324E+01 -.309E+01 -.109E+01
   -.396E+02 0.155E+02 0.583E+02   0.401E+02 -.163E+02 -.638E+02   -.468E+00 0.844E+00 0.568E+01
   -.313E+02 -.475E+02 -.382E+02   0.323E+02 0.503E+02 0.431E+02   -.963E+00 -.282E+01 -.494E+01
   -.340E+02 0.432E+02 -.619E+02   0.361E+02 -.428E+02 0.672E+02   -.206E+01 -.500E+00 -.535E+01
   0.253E+02 -.131E+02 0.482E+02   -.274E+02 0.126E+02 -.534E+02   0.207E+01 0.523E+00 0.536E+01
   0.335E+02 0.494E+02 0.374E+02   -.344E+02 -.522E+02 -.422E+02   0.964E+00 0.281E+01 0.494E+01
   0.308E+02 -.226E+02 -.553E+02   -.313E+02 0.234E+02 0.609E+02   0.468E+00 -.839E+00 -.568E+01
   0.476E+03 -.358E+03 -.776E+02   -.530E+03 0.342E+03 0.116E+03   0.291E+02 0.839E+01 -.203E+02
   0.374E+03 -.442E+03 0.201E+03   -.325E+03 0.459E+03 -.239E+03   -.265E+02 -.917E+01 0.205E+02
   -.257E+03 -.638E+02 0.527E+02   0.223E+03 0.503E+02 -.575E+02   0.177E+02 0.701E+01 0.248E+01
   -.506E+03 0.402E+02 0.274E+02   0.492E+03 -.152E+02 -.144E+02   0.717E+01 -.122E+02 -.625E+01
   -.280E+03 -.457E+03 0.223E+03   0.289E+03 0.464E+03 -.268E+03   -.444E+01 -.307E+01 0.238E+02
   0.179E+03 0.450E+03 -.179E+03   -.150E+03 -.443E+03 0.191E+03   -.142E+02 -.360E+01 -.534E+01
   -.993E+02 -.280E+03 0.113E+03   0.944E+02 0.250E+03 -.911E+02   0.255E+01 0.152E+02 -.113E+02
   0.258E+03 -.166E+03 -.124E+02   -.234E+03 0.140E+03 0.202E+01   -.124E+02 0.134E+02 0.536E+01
   -.222E+03 0.443E+03 -.348E+02   0.229E+03 -.423E+03 0.109E+02   -.351E+01 -.969E+01 0.115E+02
   -.539E+03 0.391E+02 0.167E+02   0.568E+03 -.328E+02 0.191E+02   -.147E+02 -.302E+01 -.193E+02
   -.301E+03 0.482E+03 -.214E+02   0.304E+03 -.514E+03 -.128E+02   -.617E+00 0.164E+02 0.182E+02
   0.306E+03 -.456E+03 0.128E+02   -.309E+03 0.488E+03 0.214E+02   0.630E+00 -.164E+02 -.182E+02
   0.448E+03 0.805E+02 -.947E+02   -.476E+03 -.867E+02 0.588E+02   0.143E+02 0.302E+01 0.193E+02
   0.139E+03 -.462E+03 0.347E+02   -.147E+03 0.442E+03 -.109E+02   0.368E+01 0.981E+01 -.114E+02
   -.281E+03 0.198E+03 0.215E+01   0.257E+03 -.172E+03 0.809E+01   0.124E+02 -.135E+02 -.531E+01
   0.304E+02 0.295E+03 -.953E+02   -.259E+02 -.265E+03 0.737E+02   -.237E+01 -.152E+02 0.112E+02
   -.229E+03 -.334E+03 0.172E+03   0.200E+03 0.327E+03 -.183E+03   0.142E+02 0.339E+01 0.535E+01
   0.235E+03 0.437E+03 -.207E+03   -.243E+03 -.444E+03 0.252E+03   0.445E+01 0.310E+01 -.238E+02
   0.501E+03 -.226E+02 -.300E+02   -.487E+03 -.243E+01 0.169E+02   -.716E+01 0.121E+02 0.624E+01
   0.218E+03 0.130E+03 -.581E+02   -.184E+03 -.116E+03 0.630E+02   -.178E+02 -.709E+01 -.254E+01
   0.679E+03 0.744E+03 -.334E+03   -.675E+03 -.740E+03 0.330E+03   -.483E+01 0.737E+01 0.909E+01
   -.985E+03 0.294E+03 0.412E+02   0.978E+03 -.293E+03 -.421E+02   0.454E+00 -.526E+01 0.118E+02
   0.397E+03 -.904E+03 0.148E+03   -.395E+03 0.897E+03 -.148E+03   0.889E+01 0.503E+01 0.795E+01
   -.444E+03 0.103E+04 -.154E+03   0.443E+03 -.102E+04 0.154E+03   -.890E+01 -.488E+01 -.785E+01
   0.663E+03 -.116E+03 -.990E+02   -.658E+03 0.116E+03 0.987E+02   -.104E+01 0.636E+01 -.128E+02
   -.781E+03 -.723E+03 0.338E+03   0.777E+03 0.719E+03 -.335E+03   0.478E+01 -.728E+01 -.918E+01
 -----------------------------------------------------------------------------------------------
   -.670E+01 0.273E+01 -.119E+01   0.000E+00 -.341E-12 0.114E-12   0.165E+01 0.968E+00 -.994E+00
 
 
 POSITION                                       TOTAL-FORCE (eV/Angst)
 -----------------------------------------------------------------------------------
     -3.78791     10.21574      1.46059        -0.485833     -0.059611      0.277536
     -4.52388     -4.95096      3.79931        -0.438867      0.288878     -0.041676
     -4.37821      6.43769      1.10882         0.323853      0.174138     -1.049292
     -2.27140      7.33612      0.20906         0.652742      0.182549     -0.086091
     -2.44692     -6.22910      4.12534        -0.753998      0.004350     -0.763622
     -5.11592      6.03086      2.33290        -0.974827     -0.687098      1.941728
     -3.37431     -5.26237      4.53352        -0.010600     -0.022832     -0.034873
     -3.08474      6.94685      1.27881         0.021770     -0.035195     -0.075011
     -6.67312     -0.89799      5.49428         0.134438     -2.003110     -1.007808
     -6.53791      1.55649      5.31338         0.002839      0.015619      0.051925
     -1.25474     -6.43703      4.98854         1.779097     -0.134898      1.272658
     -6.68409      0.43821      6.14372        -0.005944      0.859228      0.674604
     -6.50125      2.86783      5.80002         0.049034      0.455867     -0.062265
      7.57135     -1.12308      0.86055        -0.070642     -0.547254      0.119589
      7.75419      1.30655      0.51685         0.010917     -0.824445     -0.675764
      2.32484      8.18178      1.67203        -1.800307      0.175930     -1.268011
      7.60801      0.18827      1.34718        -0.001471     -0.017627     -0.042122
      7.74322      2.64274      1.16629        -0.183930      1.879641      1.083075
      4.15484     -5.20209      5.38176         0.076771      0.029907      0.012552
      4.44441      7.00712      2.12704         0.017353      0.017568      0.039862
      6.18602     -4.28611      4.32766         1.050216      0.699683     -1.746780
      3.51702      7.97385      2.53523         0.757930     -0.009846      0.765496
      3.34150     -5.59137      6.45151        -0.526324     -0.212894      0.212632
      5.44831     -4.69294      5.55174        -0.385925     -0.218098      0.958361
      5.59398      6.69571      2.86125         0.425438     -0.277605      0.043311
     -6.44726      1.39877      4.23973        -0.021433      0.145176      0.641120
     -3.19258     -4.72839      5.46491        -0.143278     -0.269669     -0.579983
     -2.69330      7.04306      2.29033        -0.164858     -0.086873     -0.622246
      3.76340     -5.29830      4.37024         0.160355      0.049620      0.656999
      4.26268      6.47315      1.19565         0.143189      0.270542      0.579123
      7.51736      0.34598      2.42084         0.022849     -0.148302     -0.640243
      2.45918     -3.68122      2.11145         3.801373      1.179375     -2.637390
     -2.85639     10.49971      0.79068        -3.178157     -1.064326      2.435702
     -6.31841      5.58472      2.19568         1.359138      0.464405      0.435310
     -5.36548     -4.00543      4.28416         0.485677     -0.339160     -0.002155
     -6.48288     -1.00634      4.24024        -0.538148     -0.406644      2.722635
     -1.03477      7.82012      0.48250        -0.652552     -0.318995      0.143207
     -6.85236     -1.93768      6.23784         0.382189      0.981007     -1.117642
     -0.41602     -7.36024      4.65396        -0.729821      1.135734      0.597394
     -6.36144      3.88288      4.91321        -0.089489     -0.480038      0.085853
     -4.56624      6.11546      3.47828        -1.750938     -0.359075     -2.253997
      2.14039      7.46364      0.63844        -0.133937      1.908360      2.047971
     -1.07029     -5.71889      6.02213         0.140091     -1.926963     -2.048597
      5.63634     -4.37071      3.18228         1.715889      0.343370      2.278719
      7.43154     -2.13813      1.74735         0.199942      0.577116     -0.089226
      1.48612      9.10500      2.00661         0.775557     -1.182919     -0.588068
      7.92246      3.68243      0.42272        -0.281114     -0.932659      1.048270
      2.10487     -6.07537      6.17806         0.602078      0.149203     -0.175745
      7.55298      2.75109      2.42033         0.547292      0.425531     -2.759432
      6.43558      5.75019      2.37641        -0.471729      0.317673     -0.003336
      7.38851     -3.83997      4.46489        -1.445138     -0.522039     -0.479428
     -7.67594      4.55003      3.44770         0.016807      0.885582      0.393122
      1.56621     -7.84999      5.22512        -0.553079     -0.245198      0.841993
      7.62424      5.76929      0.68183         0.755657     -0.212124      0.583982
     -6.55414     -4.02454      5.97873        -0.768372      0.259149     -0.562614
     -0.49611      9.59474      1.43544         0.172636      0.522273     -1.120636
      8.74604     -2.80527      3.21286        -0.022406     -0.851978     -0.410674
 -----------------------------------------------------------------------------------
    total drift:                               -0.001807      0.014849     -0.004762


--------------------------------------------------------------------------------------------------------



  FREE ENERGIE OF THE ION-ELECTRON SYSTEM (eV)
  ---------------------------------------------------
  free  energy   TOTEN  =      -907.73515314 eV

  energy  without entropy=     -907.73515314  energy(sigma->0) =     -907.73515314
 


--------------------------------------------------------------------------------------------------------


    POTLOK:  cpu time      0.6766: real time      0.6786


--------------------------------------------------------------------------------------------------------


 writing wavefunctions
     LOOP+:  cpu time  15656.3554: real time  15828.9542
    4ORBIT:  cpu time      0.0000: real time      0.0000



 total charge

# of ion       s       p       d       f       tot
--------------------------------------------------
    1        0.905   1.610   0.000   0.000   2.515
    2        0.824   1.624   0.000   0.000   2.448
    3        0.834   1.724   0.000   0.000   2.558
    4        0.824   1.623   0.000   0.000   2.447
    5        0.833   1.725   0.000   0.000   2.558
    6        0.839   1.546   0.000   0.000   2.385
    7        0.846   1.715   0.000   0.000   2.561
    8        0.846   1.719   0.000   0.000   2.565
    9        0.839   1.545   0.000   0.000   2.384
   10        0.846   1.715   0.000   0.000   2.561
   11        0.839   1.545   0.000   0.000   2.384
   12        0.833   1.725   0.000   0.000   2.558
   13        0.824   1.624   0.000   0.000   2.448
   14        0.824   1.623   0.000   0.000   2.447
   15        0.833   1.725   0.000   0.000   2.559
   16        0.839   1.546   0.000   0.000   2.385
   17        0.846   1.715   0.000   0.000   2.561
   18        0.839   1.545   0.000   0.000   2.385
   19        0.847   1.714   0.000   0.000   2.561
   20        0.846   1.715   0.000   0.000   2.561
   21        0.839   1.546   0.000   0.000   2.385
   22        0.833   1.725   0.000   0.000   2.558
   23        0.824   1.624   0.000   0.000   2.448
   24        0.833   1.726   0.000   0.000   2.559
   25        0.824   1.624   0.000   0.000   2.448
   26        0.664   0.048   0.000   0.000   0.712
   27        0.664   0.048   0.000   0.000   0.712
   28        0.664   0.048   0.000   0.000   0.712
   29        0.664   0.048   0.000   0.000   0.712
   30        0.664   0.048   0.000   0.000   0.712
   31        0.664   0.048   0.000   0.000   0.712
   32        1.591   3.559   0.000   0.000   5.150
   33        1.582   3.584   0.000   0.000   5.166
   34        1.542   3.669   0.000   0.000   5.211
   35        1.525   3.647   0.000   0.000   5.172
   36        1.554   3.621   0.000   0.000   5.175
   37        1.525   3.646   0.000   0.000   5.172
   38        1.541   3.670   0.000   0.000   5.211
   39        1.541   3.670   0.000   0.000   5.211
   40        1.525   3.647   0.000   0.000   5.172
   41        1.554   3.620   0.000   0.000   5.174
   42        1.554   3.620   0.000   0.000   5.174
   43        1.554   3.620   0.000   0.000   5.174
   44        1.554   3.626   0.000   0.000   5.180
   45        1.525   3.647   0.000   0.000   5.172
   46        1.542   3.669   0.000   0.000   5.211
   47        1.541   3.670   0.000   0.000   5.212
   48        1.525   3.646   0.000   0.000   5.171
   49        1.554   3.620   0.000   0.000   5.174
   50        1.525   3.648   0.000   0.000   5.173
   51        1.542   3.668   0.000   0.000   5.210
   52        2.071   6.276   5.722   0.014  14.082
   53        2.071   6.275   5.722   0.014  14.082
   54        2.071   6.276   5.722   0.014  14.083
   55        2.071   6.276   5.722   0.014  14.083
   56        2.070   6.276   5.721   0.014  14.081
   57        2.071   6.276   5.722   0.014  14.082
--------------------------------------------------
tot         68.269 151.973  34.332   0.085 254.660
 

 total amount of memory used by VASP MPI-rank0  1237587. kBytes
=======================================================================

   base      :      30000. kBytes
   nonl-proj :      30513. kBytes
   fftplans  :      14365. kBytes
   grid      :      70875. kBytes
   one-center:       2299. kBytes
   HF        :       1344. kBytes
   nonlr-proj:       7401. kBytes
   wavefun   :       3378. kBytes
   fock_wrk  :    1077412. kBytes
 
  
  
 General timing and accounting informations for this job:
 ========================================================
  
                  Total CPU time used (sec):    15669.447
                            User time (sec):    14467.701
                          System time (sec):     1201.747
                         Elapsed time (sec):    15842.834
  
                   Maximum memory used (kb):     4687524.
                   Average memory used (kb):          N/A
  
                          Minor page faults:    141908725
                          Major page faults:            2
                 Voluntary context switches:       173284
