 C  H  O Fe                             
   1.00000000000000     
    15.4392177517044988    0.0044658318981230   -0.0383768915123673
    -7.1862829238812331   13.6309283770724861   -0.0014160987290529
    -7.1828348115560150  -11.8906390916327585    6.7003592787752853
   C    H    O    Fe
    25     6    20     6
Direct
  0.2950195011859507  0.9411601699727300  0.2198759589971306   
  0.0321402045934036  0.1315964723247234  0.5672430744351473   
  0.0809394000656667  0.6171366197714931  0.1660812824646172   
  0.1313116599741093  0.5661314008105975  0.0320723698543119   
  0.1660524675688819  0.0808901738899053  0.6166569511211648   
  0.1789341434757930  0.7471364057318084  0.3493587413570083   
  0.1922233835935998  0.2050991345857938  0.6777532529438091   
  0.2048170947674421  0.6772089880766501  0.1921724308344110   
  0.2528954362359173  0.6507289929327058  0.8215838509949620   
  0.3223077236299972  0.8075972987407951  0.7950163619892479   
  0.3493194580231886  0.1788911094319445  0.7465567554707491   
  0.3829220594852529  0.8339473204381633  0.9192928995680205   
  0.4333062156900453  0.9677043789674400  0.8683141741920295   
  0.5666937543131922  0.0322956400319399  0.1316858258099742   
  0.6170779405118196  0.1660526945650957  0.0807071234320418   
  0.6506805719729982  0.8211088755634890  0.2534432745293813   
  0.6776922763599416  0.1924027012541956  0.2049836529975266   
  0.7471045937765268  0.3492710070803327  0.1784161790149099   
  0.7951829052348316  0.3227910419241127  0.8078275841717897   
  0.8077766024090067  0.7949008654201464  0.3222467470626071   
  0.8210658415217011  0.2528635942656194  0.6506412286361680   
  0.8339475174309712  0.9191098111108289  0.3833430198796037   
  0.8686883400272549  0.4338685991939357  0.9679276201494105   
  0.9190605769300717  0.3828633802266523  0.8339187025344899   
  0.9678598194072876  0.8684035276723776  0.4327569255584294   
  0.1824794276816490  0.6555657635828283  0.6339450570886598   
  0.3441032088913829  0.3662705242251505  0.8176629574336758  
  0.3657914288620319  0.8167359382378194  0.3440896507682680  
  0.6342085711375276  0.1832640467629716  0.6559103792286223  
  0.6558967910990461  0.6337294757623368  0.1823370275584324  
  0.8175205723220671  0.3444342064206367  0.3660549429188436  
  0.3096344061894495  0.0062753466162446  0.3168998651030837   
  0.2778451330847495  0.8746844118511569  0.1197822423918875   
  0.0674219325336978  0.6960110398159145  0.3282292243095455   
  0.0731851695933017  0.2643011998591760  0.6398673536295476   
  0.0976688667310981  0.4787585068254359  0.6334981446004591   
  0.2641483265584057  0.6378727954806820  0.0736591827136266   
  0.3027153181109696  0.6714963383823331  0.9328469889815594   
  0.3284905569421568  0.0674841040440626  0.6964790214107381   
  0.3613530310165842  0.9263732010583539  0.7355413721929907   
  0.3673021896016735  0.9033694677539756  0.5214137490652533   
  0.4789457733427014  0.6330237957746760  0.0981610170841591   
  0.5210542266539306  0.3669761742204685  0.9018389599149401   
  0.6326978103948377  0.0966305392467177  0.4785862209345595   
  0.6386469689707255  0.0736267839365325  0.2644586277942338  
  0.6715094730603823  0.9325159179613749  0.3035210075890618  
  0.6972847118817995  0.3285036316149572  0.0671530180154463  
  0.7358516734383187  0.3621272045171011  0.9263408172833181   
  0.9023311482622489  0.5212415231665517  0.3665018843873966   
  0.9268148524079223  0.7356988001385574  0.3601326763664545   
  0.9325780894671354  0.3039889901892039  0.6717708056908833   
  0.1071744849275049  0.7833073271475897  0.5153345580448345   
  0.5153371620059843  0.1067953233628245  0.7828014617164385  
  0.7833723189700663  0.5157712950663154  0.1063564643406849   
  0.2166276960410443  0.4842287049414580  0.8936435286641640   
  0.4846628379957068  0.8932046696390614  0.2171985082883126   
  0.8928255080646963  0.2166926728447152  0.4846654119471978   
