 C  H  O Fe 
 1.0000000000000000
    15.4545641719544609    0.0070457894495700   -0.0240572322099200
    -7.1903018448809899   13.6184022160005807    0.0023475278054400
    -7.2125667559608599  -11.8788526292561905    6.6845211247248297
 C   H   O   Fe 
  24   6  18   6
Cartesian
 -4.5346350696000002 -4.9356599793000004  3.7843709746999998
 -4.3873617798000000  6.4409271279000002  1.1095643410000000
 -2.2685567632999999  7.3195257555000000  0.2136889913000000
 -2.4657116936999999 -6.2274516244999996  4.1222484209000001
 -5.1310338534000000  6.0457534112999998  2.3337405859999998
 -3.3882313901000001 -5.2523407041999999  4.5225935450000003
 -3.0890916101000001  6.9379855724999997  1.2817261385000001
 -6.7126369654999998 -0.8954045148000001  5.4830843615999996
 -6.5540144818000003  1.5577065359000000  5.3097856099999996
 -1.2780762719000001 -6.4365253827000002  4.9906279631999997
 -6.7173659705000004  0.4389553470000000  6.1368704047999998
 -6.5106908352000001  2.8692183011000001  5.7973283538000002
  7.5623858061000000 -1.1226226664000001  0.8654830673000000
  7.7690612677999997  1.3076399603000000  0.5259411693000000
  2.3297721981000001  8.1831201983999993  1.6721836568999999
  7.6057099447000001  0.1888886622000000  1.3530259105000000
  7.7643327838999996  2.6419995349000001  1.1797272586000001
  4.1407868573000002 -5.1913899660000000  5.3810853822000002
  4.4399267448000002  6.9989360803000000  2.1402178756999999
  6.1827294091000002 -4.2991576788000003  4.3290706340999998
  3.5174073500000000  7.9740471407999998  2.5405628059000001
  3.3202524064999999 -5.5729302604999997  6.4491223621999998
  5.4390571035999997 -4.6943315737000004  5.5532469795999999
  5.5863310116999996  6.6822553556999997  2.8784404449999998
 -6.4554582082999996  1.3992777764000000  4.2368083732999997
 -3.2045104427000002 -4.7146463175999997  5.4517288395000003
 -2.6997497682999998  7.0313581001000003  2.2945521227999999
  3.7514452308999999 -5.2847632845000003  4.3682594979999996
  4.2562061220000000  6.4612418719000004  1.2110824805000000
  7.5071539951000004  0.3473171912000000  2.4260030470000000
 -6.3448135947999997  5.6272340666999998  2.2022024157000000
 -5.3694759968000003 -3.9832850248999998  4.2644948302000003
 -6.5164382483000001 -1.0001440062000000  4.2298330960000001
 -1.0319501401000000  7.7993887868999998  0.4885383154000000
 -6.9051812609000001 -1.9373299235000001  6.2200330996000002
 -0.4416956365000000 -7.3648413021000003  4.6674642326000004
 -6.3601051741000001  3.8831087884000000  4.9117258151999996
 -4.5765951471999999  6.1145323370000000  3.4774025853000001
  2.1462490160000001  7.4582747655999997  0.6420660237000000
 -1.0945530633000000 -5.7116795248000001  6.0207452428000003
  5.6282908843000001 -4.3679365090999998  3.1854086344999999
  7.4118008529999999 -2.1365136163999998  1.7510856050000001
  1.4933913039000000  9.1114366337000003  1.9953473809000000
  7.9568774608000004  3.6839248082000000  0.4427783667000000
  2.0836457112000000 -6.0527934106999997  6.1742731049000001
  7.5681336263999999  2.7467394465999999  2.4329785178000001
  6.4211716915999997  5.7298800448999998  2.3983167901000000
  7.3965090737999999 -3.8806386381000002  4.4606092046999999
 -7.6875701825000000  4.5440831305999998  3.4489329499000001
  1.5589430205000001 -7.8311208842999998  5.2249426416000002
  7.6245619113999998  5.7713896017000001  0.6983418599000000
 -6.5728660578999998 -4.0247941422000002  5.9644695133000001
 -0.5072471827000000  9.5777165214999993  1.4378685782000000
  8.7392658617999999 -2.7974873980999999  3.2138782699999999
