 vasp.6.3.2 27Jun22 (build Jul 28 2023 19:28:36) gamma-only                     
  
 executed on             LinuxIFC date 2024.06.14  08:47:46
 running on   40 total cores
 distrk:  each k-point on   40 cores,    1 groups
 distr:  one band on NCORE=   1 cores,   40 groups


--------------------------------------------------------------------------------------------------------


 INCAR:
   SYSTEM = MOF
   ISTART = 0
   ICHARG = 2
   ISMEAR = 0
   SIGMA = 0.1
   PREC = Accurate
   EDIFF = 1E-5
   NELM = 500
   IBRION = -1
   NSW = 0
   ALGO = All
   TIME = 0.05
   LREAL = Auto
   LHFCALC = .TRUE.
   GGA = PE
   HFSCREEN = 0.2
   LASPH = .TRUE.
   PRECFOCK = Normal
   IVDW = 11
   VDW_S8 = 0.109
   VDW_SR = 1.129
   LWAVE = .TRUE.
   LCHARG = .TRUE.
   NWRITE = 1

 POTCAR:    PAW_PBE C 08Apr2002                   
 POTCAR:    PAW_PBE H 15Jun2001                   
 POTCAR:    PAW_PBE O 08Apr2002                   
 POTCAR:    PAW_PBE Mg 13Apr2007                  
 -----------------------------------------------------------------------------
|                                                                             |
|           W    W    AA    RRRRR   N    N  II  N    N   GGGG   !!!           |
|           W    W   A  A   R    R  NN   N  II  NN   N  G    G  !!!           |
|           W    W  A    A  R    R  N N  N  II  N N  N  G       !!!           |
|           W WW W  AAAAAA  RRRRR   N  N N  II  N  N N  G  GGG   !            |
|           WW  WW  A    A  R   R   N   NN  II  N   NN  G    G                |
|           W    W  A    A  R    R  N    N  II  N    N   GGGG   !!!           |
|                                                                             |
|     For optimal performance we recommend to set                             |
|       NCORE = 2 up to number-of-cores-per-socket                            |
|     NCORE specifies how many cores store one orbital (NPAR=cpu/NCORE).      |
|     This setting can greatly improve the performance of VASP for DFT.       |
|     The default, NCORE=1 might be grossly inefficient on modern             |
|     multi-core architectures or massively parallel machines. Do your        |
|     own testing! More info at https://www.vasp.at/wiki/index.php/NCORE      |
|     Unfortunately you need to use the default for GW and RPA                |
|     calculations (for HF NCORE is supported but not extensively tested      |
|     yet).                                                                   |
|                                                                             |
 -----------------------------------------------------------------------------

 POTCAR:    PAW_PBE C 08Apr2002                   
  local pseudopotential read in
  partial core-charges read in
  partial kinetic energy density read in
  atomic valenz-charges read in
  non local Contribution for L=           0  read in
    real space projection operators read in
  non local Contribution for L=           0  read in
    real space projection operators read in
  non local Contribution for L=           1  read in
    real space projection operators read in
  non local Contribution for L=           1  read in
    real space projection operators read in
    PAW grid and wavefunctions read in
 
   number of l-projection  operators is LMAX  =           4
   number of lm-projection operators is LMMAX =           8
 
 POTCAR:    PAW_PBE H 15Jun2001                   
  local pseudopotential read in
  atomic valenz-charges read in
  non local Contribution for L=           0  read in
    real space projection operators read in
  non local Contribution for L=           0  read in
    real space projection operators read in
  non local Contribution for L=           1  read in
    real space projection operators read in
    PAW grid and wavefunctions read in
 
   number of l-projection  operators is LMAX  =           3
   number of lm-projection operators is LMMAX =           5
 
 POTCAR:    PAW_PBE O 08Apr2002                   
  local pseudopotential read in
  partial core-charges read in
  partial kinetic energy density read in
  kinetic energy density of atom read in
  atomic valenz-charges read in
  non local Contribution for L=           0  read in
    real space projection operators read in
  non local Contribution for L=           0  read in
    real space projection operators read in
  non local Contribution for L=           1  read in
    real space projection operators read in
  non local Contribution for L=           1  read in
    real space projection operators read in
    PAW grid and wavefunctions read in
 
   number of l-projection  operators is LMAX  =           4
   number of lm-projection operators is LMMAX =           8
 
 POTCAR:    PAW_PBE Mg 13Apr2007                  
  local pseudopotential read in
  partial core-charges read in
  partial kinetic energy density read in
  atomic valenz-charges read in
  non local Contribution for L=           0  read in
    real space projection operators read in
  non local Contribution for L=           0  read in
    real space projection operators read in
  non local Contribution for L=           1  read in
    real space projection operators read in
  non local Contribution for L=           1  read in
    real space projection operators read in
  non local Contribution for L=           2  read in
    real space projection operators read in
    PAW grid and wavefunctions read in
 
   number of l-projection  operators is LMAX  =           5
   number of lm-projection operators is LMMAX =          13
 
 Optimization of the real space projectors (new method)

 maximal supplied QI-value         = 25.13
 optimisation between [QCUT,QGAM] = [ 10.05, 20.36] = [ 28.30,116.06] Ry 
 Optimized for a Real-space Cutoff    1.51 Angstroem

   l    n(q)    QCUT    max X(q) W(low)/X(q) W(high)/X(q)  e(spline) 
   0      9    10.053   115.676    0.19E-03    0.21E-03    0.38E-06
   0      9    10.053    87.132    0.19E-03    0.21E-03    0.38E-06
   1      9    10.053     4.429    0.87E-04    0.11E-03    0.39E-06
   1      9    10.053     2.733    0.59E-04    0.62E-04    0.43E-06
 Optimization of the real space projectors (new method)

 maximal supplied QI-value         = 34.20
 optimisation between [QCUT,QGAM] = [  9.92, 20.18] = [ 27.55,114.04] Ry 
 Optimized for a Real-space Cutoff    1.34 Angstroem

   l    n(q)    QCUT    max X(q) W(low)/X(q) W(high)/X(q)  e(spline) 
   0      8     9.919    19.460    0.16E-03    0.20E-03    0.36E-06
   0      8     9.919    12.209    0.16E-03    0.20E-03    0.35E-06
   1      8     9.919     4.655    0.19E-03    0.46E-03    0.40E-06
 Optimization of the real space projectors (new method)

 maximal supplied QI-value         = 24.76
 optimisation between [QCUT,QGAM] = [ 10.15, 20.30] = [ 28.85,115.39] Ry 
 Optimized for a Real-space Cutoff    1.51 Angstroem

   l    n(q)    QCUT    max X(q) W(low)/X(q) W(high)/X(q)  e(spline) 
   0      9    10.150    20.381    0.17E-03    0.18E-03    0.41E-06
   0      9    10.150    15.268    0.18E-03    0.20E-03    0.43E-06
   1      9    10.150     5.964    0.16E-03    0.20E-03    0.36E-06
   1      9    10.150     5.382    0.13E-03    0.16E-03    0.33E-06
 Optimization of the real space projectors (new method)

 maximal supplied QI-value         = 18.90
 optimisation between [QCUT,QGAM] = [ 10.20, 20.41] = [ 29.16,116.64] Ry 
 Optimized for a Real-space Cutoff    1.30 Angstroem

   l    n(q)    QCUT    max X(q) W(low)/X(q) W(high)/X(q)  e(spline) 
   0      8    10.205    28.265    0.22E-03    0.17E-03    0.53E-07
   0      8    10.205    10.429    0.17E-03    0.15E-03    0.43E-07
   1      7    10.205    13.073    0.71E-04    0.41E-03    0.76E-07
   1      7    10.205     9.625    0.71E-04    0.33E-03    0.63E-07
   2      7    10.205     4.652    0.24E-03    0.41E-03    0.55E-07
  PAW_PBE C 08Apr2002                   :
 energy of atom  1       EATOM= -147.1560
 kinetic energy error for atom=    0.0288 (will be added to EATOM!!)
  PAW_PBE H 15Jun2001                   :
 energy of atom  2       EATOM=  -12.4884
 kinetic energy error for atom=    0.0098 (will be added to EATOM!!)
  PAW_PBE O 08Apr2002                   :
 energy of atom  3       EATOM= -432.3788
 kinetic energy error for atom=    0.1156 (will be added to EATOM!!)
  PAW_PBE Mg 13Apr2007                  :
 energy of atom  4       EATOM=  -23.0369
 kinetic energy error for atom=    0.0001 (will be added to EATOM!!)
 
 
 POSCAR:  C  H  O Mg
  positions in direct lattice
  No initial velocities read in
 exchange correlation table for  LEXCH =        8
   RHO(1)=    0.500       N(1)  =     2000
   RHO(2)=  100.500       N(2)  =     4000
 


--------------------------------------------------------------------------------------------------------


 ion  position               nearest neighbor table
   1  0.742  0.349  0.176-  32 1.27  31 1.29   2 1.49
   2  0.615  0.166  0.079-  16 1.40   3 1.43   1 1.49
   3  0.432  0.967  0.866-  33 1.35   4 1.40   2 1.43
   4  0.323  0.808  0.795-  25 1.09   3 1.40  14 1.40
   5  0.176  0.742  0.349-  35 1.27  34 1.29   6 1.49
   6  0.079  0.615  0.166-  20 1.40   7 1.43   5 1.49
   7  0.866  0.432  0.967-  36 1.35   8 1.40   6 1.43
   8  0.795  0.323  0.808-  26 1.09   7 1.40  18 1.40
   9  0.349  0.176  0.742-  38 1.27  37 1.29  10 1.49
  10  0.166  0.079  0.615-  24 1.40  11 1.43   9 1.49
  11  0.967  0.866  0.432-  39 1.35  12 1.40  10 1.43
  12  0.808  0.795  0.323-  27 1.09  11 1.40  22 1.40
  13  0.258  0.651  0.824-  41 1.27  40 1.29  14 1.49
  14  0.385  0.834  0.921-   4 1.40  15 1.43  13 1.49
  15  0.568  0.033  0.134-  42 1.35  16 1.40  14 1.43
  16  0.677  0.193  0.205-  28 1.09  15 1.40   2 1.40
  17  0.824  0.258  0.651-  44 1.27  43 1.29  18 1.49
  18  0.921  0.385  0.834-   8 1.40  19 1.43  17 1.49
  19  0.134  0.568  0.033-  45 1.35  20 1.40  18 1.43
  20  0.205  0.677  0.192-  29 1.09  19 1.40   6 1.40
  21  0.651  0.824  0.258-  47 1.27  46 1.29  22 1.49
  22  0.834  0.921  0.385-  12 1.40  23 1.43  21 1.49
  23  0.033  0.134  0.568-  48 1.35  24 1.40  22 1.43
  24  0.192  0.205  0.677-  30 1.09  23 1.40  10 1.40
  25  0.184  0.655  0.634-   4 1.09
  26  0.634  0.184  0.655-   8 1.09
  27  0.655  0.634  0.184-  12 1.09
  28  0.816  0.345  0.366-  16 1.09
  29  0.366  0.816  0.345-  20 1.09
  30  0.345  0.366  0.816-  24 1.09
  31  0.690  0.327  0.062-   1 1.29  50 2.02  49 2.08
  32  0.897  0.522  0.364-   1 1.27  51 2.04
  33  0.360  0.927  0.734-   3 1.35  51 2.02  49 2.04
  34  0.062  0.690  0.327-   5 1.29  51 2.02  50 2.08
  35  0.364  0.897  0.522-   5 1.27  49 2.04
  36  0.734  0.360  0.927-   7 1.35  49 2.02  50 2.04
  37  0.327  0.062  0.690-   9 1.29  49 2.02  51 2.08
  38  0.522  0.364  0.897-   9 1.27  50 2.04
  39  0.927  0.734  0.360-  11 1.35  50 2.02  51 2.04
  40  0.310  0.673  0.938-  13 1.29  53 2.02  52 2.08
  41  0.103  0.478  0.636-  13 1.27  54 2.04
  42  0.640  0.073  0.266-  15 1.35  54 2.02  52 2.04
  43  0.938  0.310  0.673-  17 1.29  54 2.02  53 2.08
  44  0.637  0.103  0.478-  17 1.27  52 2.04
  45  0.266  0.640  0.073-  19 1.35  52 2.02  53 2.04
  46  0.673  0.938  0.310-  21 1.29  52 2.02  54 2.08
  47  0.478  0.636  0.103-  21 1.27  53 2.04
  48  0.073  0.266  0.640-  23 1.35  53 2.02  54 2.04
  49  0.514  0.109  0.782-  37 2.02  36 2.02  33 2.04  35 2.04  31 2.08  50 2.94  51 2.94
  50  0.782  0.514  0.108-  31 2.02  39 2.02  36 2.04  38 2.04  34 2.08  49 2.94  51 2.94
  51  0.108  0.782  0.514-  34 2.02  33 2.02  39 2.04  32 2.04  37 2.08  49 2.94  50 2.94
  52  0.486  0.892  0.218-  46 2.02  45 2.02  42 2.04  44 2.04  40 2.08  54 2.94  53 2.94
  53  0.218  0.486  0.892-  40 2.02  48 2.02  45 2.04  47 2.04  43 2.08  54 2.94  52 2.94
  54  0.892  0.218  0.486-  43 2.02  42 2.02  48 2.04  41 2.04  46 2.08  52 2.94  53 2.94
 
  LATTYP: Found a trigonal (rhomboedric) cell.
 ALAT       =    15.2580629150
 COS(alpha) =    -0.4652854440
  
  Lattice vectors:
  
 A1 = (  15.2580133847,   0.0063748139,   0.0245793813)
 A2 = (  -7.1051429847,  13.5027912564,   0.0244990776)
 A3 = (  -7.1050972695, -11.7730711972,   6.6121759879)


Analysis of symmetry for initial positions (statically):
=====================================================================
 Subroutine PRICEL returns:
 Original cell was already a primitive cell.
 

 Routine SETGRP: Setting up the symmetry group for a 
 trigonal (rhombohedral) supercell.


 Subroutine GETGRP returns: Found  1 space group operations
 (whereof  1 operations were pure point group operations)
 out of a pool of 12 trial point group operations.


The static configuration has the point symmetry C_1 .


Analysis of symmetry for dynamics (positions and initial velocities):
=====================================================================
 Subroutine PRICEL returns:
 Original cell was already a primitive cell.
 

 Routine SETGRP: Setting up the symmetry group for a 
 trigonal (rhombohedral) supercell.


 Subroutine GETGRP returns: Found  1 space group operations
 (whereof  1 operations were pure point group operations)
 out of a pool of 12 trial point group operations.


The dynamic configuration has the point symmetry C_1 .


 Subroutine INISYM returns: Found  1 space group operations
 (whereof  1 operations are pure point group operations),
 and found     1 'primitive' translations


----------------------------------------------------------------------------------------

                                     Primitive cell                                     

  volume of cell :    1371.3921

  direct lattice vectors                    reciprocal lattice vectors
    15.258013385  0.006374814  0.024579381     0.065314117  0.034130566  0.130953070
    -7.105142985 13.502791256  0.024499078    -0.000241744  0.073693958  0.130953351
    -7.105097270-11.773071197  6.612175988    -0.000241896 -0.000399920  0.150264152

  length of vectors
    15.258034514 15.258080769 15.258062915     0.150264886  0.150265226  0.150264879

  position of ions in fractional coordinates (direct lattice)
     0.742014629  0.348856862  0.175631722
     0.614737524  0.165760157  0.079266010
     0.431866833  0.967146544  0.866357394
     0.323426239  0.807528718  0.795039545
     0.175643119  0.742030584  0.348836056
     0.079288672  0.614759186  0.165750997
     0.866378386  0.431887658  0.967136793
     0.795050085  0.323434695  0.807507662
     0.348844082  0.175654491  0.742009552
     0.165757245  0.079294396  0.614737504
     0.967146759  0.866386509  0.431869766
     0.807527866  0.795064117  0.323426635
     0.257997242  0.651177639  0.824359558
     0.385278725  0.834271091  0.920721278
     0.568151099  0.032884201  0.133630597
     0.676588120  0.192500595  0.204950051
     0.824378159  0.258021185  0.651163243
     0.920727875  0.385284889  0.834247949
     0.133651182  0.568172843  0.032877126
     0.204967516  0.676607365  0.192491024
     0.651166334  0.824380287  0.257996396
     0.834264817  0.920745497  0.385273715
     0.032884585  0.133658688  0.568147370
     0.192498695  0.204973580  0.676584145
     0.184346186  0.655111609  0.633967985
     0.633990768  0.184365023  0.655100302
     0.655100725  0.633992740  0.184340173
     0.815660221  0.344921385  0.366012712
     0.366025548  0.815668040  0.344893598
     0.344905088  0.366036147  0.815648698
     0.690035352  0.327096246  0.062389255
     0.897468252  0.521719207  0.363522843
     0.359899457  0.926825036  0.733650689
     0.062416671  0.690061449  0.327089376
     0.363540124  0.897494510  0.521700504
     0.733667396  0.359921155  0.926810583
     0.327098709  0.062430124  0.690049476
     0.521703281  0.363537920  0.897455141
     0.926814389  0.733676598  0.359892517
     0.309969235  0.672930044  0.937593791
     0.102540517  0.478317794  0.636472783
     0.640118158  0.073204996  0.266331859
     0.937620652  0.309979890  0.672925434
     0.636500080  0.102595403  0.478308979
     0.266360937  0.640148723  0.073196549
     0.672927425  0.937623414  0.309972911
     0.478307570  0.636484145  0.102544947
     0.073202609  0.266366054  0.640108405
     0.514132669  0.108518374  0.782412062
     0.782415681  0.514143460  0.108492112
     0.108499851  0.782421723  0.514119197
     0.485895590  0.891540695  0.217600628
     0.217613719  0.485909109  0.891517919
     0.891519652  0.217610760  0.485881812

  ion indices of the primitive-cell ions
   primitive index   ion index
                 1           1
                 2           2
                 3           3
                 4           4
                 5           5
                 6           6
                 7           7
                 8           8
                 9           9
                10          10
                11          11
                12          12
                13          13
                14          14
                15          15
                16          16
                17          17
                18          18
                19          19
                20          20
                21          21
                22          22
                23          23
                24          24
                25          25
                26          26
                27          27
                28          28
                29          29
                30          30
                31          31
                32          32
                33          33
                34          34
                35          35
                36          36
                37          37
                38          38
                39          39
                40          40
                41          41
                42          42
                43          43
                44          44
                45          45
                46          46
                47          47
                48          48
                49          49
                50          50
                51          51
                52          52
                53          53
                54          54

----------------------------------------------------------------------------------------

 
 
 KPOINTS: KPOINTS                                 

Automatic generation of k-mesh.
 Grid dimensions read from file:
 generate k-points for:    1    1    1

 Generating k-lattice:

  Cartesian coordinates                     Fractional coordinates (reciprocal lattice)
     0.065314117  0.034130566  0.130953070     1.000000000  0.000000000  0.000000000
    -0.000241744  0.073693958  0.130953351     0.000000000  1.000000000  0.000000000
    -0.000241896 -0.000399920  0.150264152     0.000000000 -0.000000000  1.000000000

  Length of vectors
     0.150264886  0.150265226  0.150264879

  Shift w.r.t. Gamma in fractional coordinates (k-lattice)
     0.000000000  0.000000000  0.000000000

 
 Subroutine IBZKPT returns following result:
 ===========================================
 
 Found      1 irreducible k-points:
 
 Following reciprocal coordinates:
            Coordinates               Weight
  0.000000  0.000000  0.000000      1.000000
 
 Following cartesian coordinates:
            Coordinates               Weight
  0.000000  0.000000  0.000000      1.000000
 
 
 Subroutine IBZKPT_HF returns following result:
 ==============================================
 
 Found      1 k-points in 1st BZ
 the following      1 k-points will be used (e.g. in the exchange kernel)
 Following reciprocal coordinates:   # in IRBZ
  0.000000  0.000000  0.000000    1.00000000   1 t-inv F


--------------------------------------------------------------------------------------------------------




 Dimension of arrays:
   k-points           NKPTS =      1   k-points in BZ     NKDIM =      1   number of bands    NBANDS=    160
   number of dos      NEDOS =    301   number of ions     NIONS =     54
   non local maximal  LDIM  =      5   non local SUM 2l+1 LMDIM =     13
   total plane-waves  NPLWV = ******
   max r-space proj   IRMAX =  10535   max aug-charges    IRDMAX=  31172
   dimension x,y,z NGX =   100 NGY =  100 NGZ =  100
   dimension x,y,z NGXF=   200 NGYF=  200 NGZF=  200
   support grid    NGXF=   200 NGYF=  200 NGZF=  200
   ions per type =              24   6  18   6
   NGX,Y,Z   is equivalent  to a cutoff of  10.90, 10.90, 10.90 a.u.
   NGXF,Y,Z  is equivalent  to a cutoff of  21.79, 21.79, 21.79 a.u.

 SYSTEM =  MOF                                     
 POSCAR =   C  H  O Mg                             

 Startparameter for this run:
   NWRITE =      1    write-flag & timer
   PREC   = accura    normal or accurate (medium, high low for compatibility)
   ISTART =      0    job   : 0-new  1-cont  2-samecut
   ICHARG =      2    charge: 1-file 2-atom 10-const
   ISPIN  =      1    spin polarized calculation?
   LNONCOLLINEAR =      F non collinear calculations
   LSORBIT =      F    spin-orbit coupling
   INIWAV =      1    electr: 0-lowe 1-rand  2-diag
   LASPH  =      T    aspherical Exc in radial PAW
 Electronic Relaxation 1
   ENCUT  =  400.0 eV  29.40 Ry    5.42 a.u.  24.88 24.88 24.88*2*pi/ulx,y,z
   ENINI  =  400.0     initial cutoff
   ENAUG  =  644.9 eV  augmentation charge cutoff
   NELM   =    500;   NELMIN=  2; NELMDL= -5     # of ELM steps 
   EDIFF  = 0.1E-04   stopping-criterion for ELM
   LREAL  =      T    real-space projection
   NLSPLINE    = F    spline interpolate recip. space projectors
   LCOMPAT=      F    compatible to vasp.4.4
   GGA_COMPAT  = T    GGA compatible to vasp.4.4-vasp.4.6
   LMAXPAW     = -100 max onsite density
   LMAXMIX     =    2 max onsite mixed and CHGCAR
   VOSKOWN=      0    Vosko Wilk Nusair interpolation
   ROPT   =   -0.00025  -0.00025  -0.00025  -0.00025
 Ionic relaxation
   EDIFFG = 0.1E-03   stopping-criterion for IOM
   NSW    =      0    number of steps for IOM
   NBLOCK =      1;   KBLOCK =      1    inner block; outer block 
   IBRION =     -1    ionic relax: 0-MD 1-quasi-New 2-CG
   NFREE  =      0    steps in history (QN), initial steepest desc. (CG)
   ISIF   =      0    stress and relaxation
   IWAVPR =     10    prediction:  0-non 1-charg 2-wave 3-comb
   ISYM   =      3    0-nonsym 1-usesym 2-fastsym
   LCORR  =      T    Harris-Foulkes like correction to forces

   POTIM  = 0.5000    time-step for ionic-motion
   TEIN   =    0.0    initial temperature
   TEBEG  =    0.0;   TEEND  =   0.0 temperature during run
   SMASS  =  -3.00    Nose mass-parameter (am)
   estimated Nose-frequenzy (Omega)   =  0.10E-29 period in steps = 0.13E+47 mass=  -0.532E-26a.u.
   SCALEE = 1.0000    scale energy and forces
   NPACO  =    256;   APACO  = 10.0  distance and # of slots for P.C.
   PSTRESS=    0.0 pullay stress

  Mass of Ions in am
   POMASS =  12.01  1.00 16.00 24.30
  Ionic Valenz
   ZVAL   =   4.00  1.00  6.00  2.00
  Atomic Wigner-Seitz radii
   RWIGS  =  -1.00 -1.00 -1.00 -1.00
  virtual crystal weights 
   VCA    =   1.00  1.00  1.00  1.00
   NELECT =     222.0000    total number of electrons
   NUPDOWN=      -1.0000    fix difference up-down

 DOS related values:
   EMIN   =  10.00;   EMAX   =-10.00  energy-range for DOS
   EFERMI =   0.00
   ISMEAR =     0;   SIGMA  =   0.10  broadening in eV -4-tet -1-fermi 0-gaus

 Electronic relaxation 2 (details)
   IALGO  =     58    algorithm
   LDIAG  =      T    sub-space diagonalisation (order eigenvalues)
   LSUBROT=      F    optimize rotation matrix (better conditioning)
   TURBO    =      0    0=normal 1=particle mesh
   IRESTART =      0    0=no restart 2=restart with 2 vectors
   NREBOOT  =      0    no. of reboots
   NMIN     =      0    reboot dimension
   EREF     =   0.00    reference energy to select bands
   IMIX   =      4    mixing-type and parameters
     AMIX     =   0.40;   BMIX     =  1.00
     AMIX_MAG =   1.60;   BMIX_MAG =  1.00
     AMIN     =   0.10
     WC   =   100.;   INIMIX=   1;  MIXPRE=   1;  MAXMIX= -45

 Intra band minimization:
   WEIMIN = 0.0000     energy-eigenvalue tresh-hold
   EBREAK =  0.16E-07  absolut break condition
   DEPER  =   0.30     relativ break condition  

   TIME   =   0.05     timestep for ELM

  volume/ion in A,a.u.               =      25.40       171.38
  Fermi-wavevector in a.u.,A,eV,Ry     =   0.892220  1.686051 10.831006  0.796057
  Thomas-Fermi vector in A             =   2.014141
 
 Write flags
   LWAVE        =      T    write WAVECAR
   LDOWNSAMPLE  =      F    k-point downsampling of WAVECAR
   LCHARG       =      T    write CHGCAR
   LVTOT        =      F    write LOCPOT, total local potential
   LVHAR        =      F    write LOCPOT, Hartree potential only
   LELF         =      F    write electronic localiz. function (ELF)
   LORBIT       =      0    0 simple, 1 ext, 2 COOP (PROOUT), +10 PAW based schemes


 Dipole corrections
   LMONO  =      F    monopole corrections only (constant potential shift)
   LDIPOL =      F    correct potential (dipole corrections)
   IDIPOL =      0    1-x, 2-y, 3-z, 4-all directions 
   EPSILON=  1.0000000 bulk dielectric constant

 Exchange correlation treatment:
   GGA     =    PE    GGA type
   LEXCH   =     8    internal setting for exchange type
   LIBXC   =     F    Libxc                    
   VOSKOWN =     0    Vosko Wilk Nusair interpolation
   EXXOEP  =     0    0=HF, 1=EXX-LHF (local Hartree Fock) 2=EXX OEP
   LHFCALC =     T    Hartree Fock is set to
   LSYMGRAD=     F    symmetrize gradient (conserves proper symmetry)
   PRECFOCK=normal    Normal, Fast or Accurate (Low or Medium for compatibility)
   LRHFCALC=     F    long range Hartree Fock
   LRSCOR  =     F    long range correlation only (use DFT for short range part)
   LTHOMAS =     F    Thomas Fermi screening in HF
   LMODELHF=     F    short range full HF, long range fraction AEXX
   FOCKCORR=     1    mode to apply convergence corrections
   LFOCKACE=     T    use Adeptively-Compressed-Exchange operator
   ENCUT4O =  -1.0   cutoff for four orbital integrals eV
   LMAXFOCK=     4    L truncation for augmentation on plane wave grid
   LMAXFOCKAE=  -1    L truncation for all-electron charge restoration on plane wave grid
   NMAXFOCKAE=   1    number of basis functions for all-electron charge restoration
   LFOCKAEDFT=     F  apply the AE augmentation even for DFT
   NKREDX  =     1    reduce k-point grid by
   NKREDY  =     1    reduce k-point grid by
   NKREDZ  =     1    reduce k-point grid by
   SHIFTRED=     F    shift reduced grid of Gamma
   HFKIDENT=     F    idential grid for each k-point
   ODDONLY =     F    use only odd q-grid points
   EVENONLY=     F    use only even q-grid points
   HFALPHA =   -1.0000 decay constant for conv. correction
   MCALPHA =    0.0000 extent of test-charge in conv. correction in multipole expansion
   AEXX    =    0.2500 exact exchange contribution
   HFSCREEN=    0.2000 screening length (either q_TF or 0.3 A-1)
   HFSCREENC=   0.2000 screening length for correlation (either q_TF or 0.3 A-1)
   HFRCUT  =    0.0000 spherical cutoff for potential kernel
   ALDAX   =    0.7500 LDA exchange part
   AGGAX   =    0.7500 GGA exchange part
   ALDAC   =    1.0000 LDA correlation
   AGGAC   =    1.0000 GGA correlation
   ENCUTFOCK=  -1.0 apply spherical cutoff to Coloumb kernel
   NBANDSGWLOW=     1    first orbital included in HF term
   NBLOCK_FOCK=    64    blocking factor in FOCK_ACC

 Linear response parameters
   LEPSILON=     F    determine dielectric tensor
   LRPA    =     F    only Hartree local field effects (RPA)
   LNABLA  =     F    use nabla operator in PAW spheres
   LVEL    =     F    velocity operator in full k-point grid
   CSHIFT  =0.1000    complex shift for real part using Kramers Kronig
   OMEGAMAX=  -1.0    maximum frequency
   DEG_THRESHOLD= 0.2000000E-02 threshold for treating states as degnerate
   RTIME   =   -0.100 relaxation time in fs
  (WPLASMAI=    0.000 imaginary part of plasma frequency in eV, 0.658/RTIME)
   DFIELD  = 0.0000000 0.0000000 0.0000000 field for delta impulse in time
 
  Optional k-point grid parameters
   LKPOINTS_OPT  =     F    use optional k-point grid
   KPOINTS_OPT_MODE=     1    mode for optional k-point grid
 
 Orbital magnetization related:
   ORBITALMAG=     F  switch on orbital magnetization
   LCHIMAG   =     F  perturbation theory with respect to B field
   DQ        =  0.001000  dq finite difference perturbation B field
   LLRAUG    =     F  two centre corrections for induced B field



--------------------------------------------------------------------------------------------------------


 Static calculation
 charge density and potential will be updated during run
 non-spin polarized calculation
 Conjugate gradient for all bands (Freysoldt, et al. PRB 79, 241103 (2009))
 preconditioned conjugated gradient                                        
 perform sub-space diagonalisation
    before iterative eigenvector-optimisation
 modified Broyden-mixing scheme, WC =      100.0
 initial mixing is a Kerker type mixing with AMIX =  0.4000 and BMIX =      1.0000
 Hartree-type preconditioning will be used
 using additional bands           49
 real space projection scheme for non local part
 use partial core corrections
 no Harris-corrections to forces 
 use gradient corrections 
 use of overlap-Matrix (Vanderbilt PP)
 Gauss-broadening in eV      SIGMA  =   0.10


--------------------------------------------------------------------------------------------------------


  energy-cutoff  :      400.00
  volume of cell :     1371.39
      direct lattice vectors                 reciprocal lattice vectors
    15.258013385  0.006374814  0.024579381     0.065314117  0.034130566  0.130953070
    -7.105142985 13.502791256  0.024499078    -0.000241744  0.073693958  0.130953351
    -7.105097270-11.773071197  6.612175988    -0.000241896 -0.000399920  0.150264152

  length of vectors
    15.258034514 15.258080769 15.258062915     0.150264886  0.150265226  0.150264879


 
 k-points in units of 2pi/SCALE and weight: KPOINTS                                 
   0.00000000  0.00000000  0.00000000       1.000
 
 k-points in reciprocal lattice and weights: KPOINTS                                 
   0.00000000  0.00000000  0.00000000       1.000
 
 position of ions in fractional coordinates (direct lattice) 
   0.74201463  0.34885686  0.17563172
   0.61473752  0.16576016  0.07926601
   0.43186683  0.96714654  0.86635739
   0.32342624  0.80752872  0.79503954
   0.17564312  0.74203058  0.34883606
   0.07928867  0.61475919  0.16575100
   0.86637839  0.43188766  0.96713679
   0.79505009  0.32343470  0.80750766
   0.34884408  0.17565449  0.74200955
   0.16575725  0.07929440  0.61473750
   0.96714676  0.86638651  0.43186977
   0.80752787  0.79506412  0.32342664
   0.25799724  0.65117764  0.82435956
   0.38527872  0.83427109  0.92072128
   0.56815110  0.03288420  0.13363060
   0.67658812  0.19250060  0.20495005
   0.82437816  0.25802118  0.65116324
   0.92072788  0.38528489  0.83424795
   0.13365118  0.56817284  0.03287713
   0.20496752  0.67660737  0.19249102
   0.65116633  0.82438029  0.25799640
   0.83426482  0.92074550  0.38527371
   0.03288459  0.13365869  0.56814737
   0.19249870  0.20497358  0.67658414
   0.18434619  0.65511161  0.63396798
   0.63399077  0.18436502  0.65510030
   0.65510072  0.63399274  0.18434017
   0.81566022  0.34492138  0.36601271
   0.36602555  0.81566804  0.34489360
   0.34490509  0.36603615  0.81564870
   0.69003535  0.32709625  0.06238926
   0.89746825  0.52171921  0.36352284
   0.35989946  0.92682504  0.73365069
   0.06241667  0.69006145  0.32708938
   0.36354012  0.89749451  0.52170050
   0.73366740  0.35992116  0.92681058
   0.32709871  0.06243012  0.69004948
   0.52170328  0.36353792  0.89745514
   0.92681439  0.73367660  0.35989252
   0.30996923  0.67293004  0.93759379
   0.10254052  0.47831779  0.63647278
   0.64011816  0.07320500  0.26633186
   0.93762065  0.30997989  0.67292543
   0.63650008  0.10259540  0.47830898
   0.26636094  0.64014872  0.07319655
   0.67292743  0.93762341  0.30997291
   0.47830757  0.63648415  0.10254495
   0.07320261  0.26636605  0.64010841
   0.51413267  0.10851837  0.78241206
   0.78241568  0.51414346  0.10849211
   0.10849985  0.78242172  0.51411920
   0.48589559  0.89154069  0.21760063
   0.21761372  0.48590911  0.89151792
   0.89151965  0.21761076  0.48588181
 
 position of ions in cartesian coordinates  (Angst):
   7.59511078  2.64754683  1.18809279
   7.63873105  1.30893925  0.54329165
  -6.43783813  2.86224369  5.76281678
  -6.45159843  1.54589633  5.28467471
  -5.07078245  5.91373205  2.32906165
  -4.33584125  6.35007213  1.11298466
   3.27898846 -5.54895842  6.42675457
   4.09541460 -5.13450572  5.36684846
  -1.19743264 -6.36168155  4.91917549
  -2.40204151 -6.16559605  4.07076941
   5.53246148  6.62036805  2.90059644
   4.37424905  6.93300785  2.17788070
  -6.54733970 -0.91088336  5.47310514
  -6.59084169  0.42772732  6.11787991
   7.48575173 -1.12559217  0.89835946
   7.49945629  0.19071693  1.37651201
   6.11851738 -4.17692977  4.33218995
   5.38356119 -4.61336960  5.54826430
  -2.23129294  7.28570654  0.23459412
  -3.04766241  6.87118412  1.29439876
   2.24507534  8.09817606  1.74211940
   3.44978811  7.90209766  2.59056074
  -4.48465298 -4.88386445  3.76077320
  -3.32641508 -5.19653070  4.48344660
  -6.34630927  1.38326026  4.21248863
   3.70894842 -5.21905851  4.35173836
   4.18117170  6.39459778  1.25052387
   7.39408289  0.35350742  2.44863915
  -2.66111790  6.95567174  2.30947696
  -3.13343604 -4.65798180  5.41065783
   7.76122131  3.68659803  0.43750293
   7.40382788  2.77060643  2.43851787
  -6.30653318  3.87969749  4.88257993
  -6.27463269  5.46730709  2.18121255
  -4.53665957  5.97898135  3.48049893
   2.05193633 -6.04678976  6.15508551
  -0.35556713 -7.27893549  4.57229794
  -0.99933933 -5.65370086  5.95586082
   6.37139789  5.67555000  2.42042758
  -6.71344453 -1.94994854  6.22364017
  -6.35615277 -1.03396038  4.22270878
   7.35448569 -2.14299152  1.77856029
   7.32257635 -3.73082814  4.48014175
   5.58433991 -4.24178379  3.18082142
  -1.00427807  7.78374439  0.50621851
   1.40319956  9.01548987  2.08910649
   2.04712062  7.39009271  0.70539501
  -5.32367499 -3.93888995  4.24083442
   1.51449077 -7.74281446  5.18874191
   7.51419913  5.67007421  0.74919627
  -7.55659294  4.51280695  3.42128208
  -0.46679633  9.47955771  1.47259858
  -6.46642219 -3.93338742  5.91212651
   8.60442569 -2.77628522  3.23998031
 


--------------------------------------------------------------------------------------------------------


 use serial FFT for orbitals x direction half grid
 k-point   1 :   0.0000 0.0000 0.0000  plane waves:   12430

 maximum and minimum number of plane-waves per node :     12430    12430

 maximum number of plane-waves:     12430
 maximum index in each direction: 
   IXMAX=   24   IYMAX=   22   IZMAX=   21
   IXMIN=    0   IYMIN=  -24   IZMIN=  -24


 serial   3D FFT for wavefunctions
 parallel 3D FFT for charge:
    minimum data exchange during FFTs selected (reduces bandwidth)


 FFT grid for exact exchange (Hartree Fock) 
  NGX = 80; NGY = 80; NGZ = 80

 use serial FFT for orbitals x direction half grid
 
 Radii for the augmentation spheres in the non-local exchange
 for species   1 augmentation radius   0.874 (default was   0.699)
       energy cutoff for augmentation   1600.0
 for species   2 augmentation radius   0.650 (default was   0.520)
       energy cutoff for augmentation   1600.0
 for species   3 augmentation radius   0.902 (default was   0.722)
       energy cutoff for augmentation   1600.0
 for species   4 augmentation radius   1.339 (default was   1.071)
       energy cutoff for augmentation   1600.0
 Maximum index for augmentation-charges in exchange         3769
  SETUP_FOCK is finished

 total amount of memory used by VASP MPI-rank0   143582. kBytes
=======================================================================

   base      :      30000. kBytes
   nonlr-proj:      45210. kBytes
   fftplans  :      10913. kBytes
   grid      :      54672. kBytes
   one-center:        219. kBytes
   HF        :        135. kBytes
   wavefun   :       2433. kBytes
 
     INWAV:  cpu time      0.0001: real time      0.0003
 Broyden mixing: mesh for mixing (old mesh)
   NGX = 49   NGY = 49   NGZ = 49
  (NGX  =200   NGY  =200   NGZ  =200)
  gives a total of 117649 points

 initial charge density was supplied:
 charge density of overlapping atoms calculated
 number of electron     222.0000000 magnetization 
 keeping initial charge density in first step


--------------------------------------------------------------------------------------------------------


 Maximum index for non-local projection operator        10171
 Maximum index for augmentation-charges          858 (set IRDMAX)


--------------------------------------------------------------------------------------------------------


 First call to EWALD:  gamma=   0.160
 Maximum number of real-space cells 4x 4x 4
 Maximum number of reciprocal cells 4x 4x 4

    FEWALD:  cpu time      0.0029: real time      0.0029


--------------------------------------- Iteration      1(   1)  ---------------------------------------


    POTLOK:  cpu time      0.1837: real time      0.1865
    SETDIJ:  cpu time      0.1838: real time      0.1846
    TRIAL :  cpu time      1.0683: real time      1.1179
    CORREC:  cpu time      0.0003: real time      0.0003
    --------------------------------------------
      LOOP:  cpu time      1.4382: real time      1.4932

 eigenvalue-minimisations  :   320
 total energy-change (2. order) : 0.5094232E+03  (-0.9990533E+04)
 number of electron     222.0000000 magnetization 
 augmentation part      222.0000000 magnetization 

 Free energy of the ion-electron system (eV)
  ---------------------------------------------------
  alpha Z        PSCENC =       171.49134797
  Ewald energy   TEWEN  =      9959.13138061
  -Hartree energ DENC   =    -19698.37978568
  -exchange      EXHF   =         0.00000000
  -V(xc)+E(xc)   XCENC  =       536.38217667
  PAW double counting   =      9247.06403337   -10688.65154079
  entropy T*S    EENTRO =        -0.08517047
  eigenvalues    EBANDS =      -444.07655077
  atomic energy  EATOM  =     11426.54730699
  ---------------------------------------------------
  free energy    TOTEN  =       509.42319791 eV

  energy without entropy =      509.50836838  energy(sigma->0) =      509.46578315
  exchange ACFDT corr.  =         0.00000000  see jH, gK, PRB 81, 115126


--------------------------------------------------------------------------------------------------------




--------------------------------------- Iteration      1(   2)  ---------------------------------------


    TRIAL :  cpu time      1.6155: real time      1.6210
    CORREC:  cpu time      0.0001: real time      0.0001
    --------------------------------------------
      LOOP:  cpu time      1.6215: real time      1.6285

 eigenvalue-minimisations  :   560
 total energy-change (2. order) :-0.2451751E+04  (-0.2372293E+04)
 number of electron     222.0000000 magnetization 
 augmentation part      222.0000000 magnetization 

 Free energy of the ion-electron system (eV)
  ---------------------------------------------------
  alpha Z        PSCENC =       171.49134797
  Ewald energy   TEWEN  =      9959.13138061
  -Hartree energ DENC   =    -19698.37978568
  -exchange      EXHF   =         0.00000000
  -V(xc)+E(xc)   XCENC  =       536.38217667
  PAW double counting   =      9247.06403337   -10688.65154079
  entropy T*S    EENTRO =        -0.00000000
  eigenvalues    EBANDS =     -2895.91272162
  atomic energy  EATOM  =     11426.54730699
  ---------------------------------------------------
  free energy    TOTEN  =     -1942.32780247 eV

  energy without entropy =    -1942.32780247  energy(sigma->0) =    -1942.32780247
  exchange ACFDT corr.  =         0.00000000  see jH, gK, PRB 81, 115126


--------------------------------------------------------------------------------------------------------




--------------------------------------- Iteration      1(   3)  ---------------------------------------


    TRIAL :  cpu time      1.2189: real time      1.2354
    CORREC:  cpu time      0.0001: real time      0.0001
    --------------------------------------------
      LOOP:  cpu time      1.2195: real time      1.2429

 eigenvalue-minimisations  :   400
 total energy-change (2. order) :-0.3530737E+03  (-0.3513193E+03)
 number of electron     222.0000000 magnetization 
 augmentation part      222.0000000 magnetization 

 Free energy of the ion-electron system (eV)
  ---------------------------------------------------
  alpha Z        PSCENC =       171.49134797
  Ewald energy   TEWEN  =      9959.13138061
  -Hartree energ DENC   =    -19698.37978568
  -exchange      EXHF   =         0.00000000
  -V(xc)+E(xc)   XCENC  =       536.38217667
  PAW double counting   =      9247.06403337   -10688.65154079
  entropy T*S    EENTRO =        -0.00000000
  eigenvalues    EBANDS =     -3248.98639705
  atomic energy  EATOM  =     11426.54730699
  ---------------------------------------------------
  free energy    TOTEN  =     -2295.40147789 eV

  energy without entropy =    -2295.40147789  energy(sigma->0) =    -2295.40147789
  exchange ACFDT corr.  =         0.00000000  see jH, gK, PRB 81, 115126


--------------------------------------------------------------------------------------------------------




--------------------------------------- Iteration      1(   4)  ---------------------------------------


    TRIAL :  cpu time      1.2315: real time      1.2417
    CORREC:  cpu time      0.0001: real time      0.0001
    --------------------------------------------
      LOOP:  cpu time      1.2381: real time      1.2487

 eigenvalue-minimisations  :   400
 total energy-change (2. order) :-0.8888280E+01  (-0.8865906E+01)
 number of electron     222.0000000 magnetization 
 augmentation part      222.0000000 magnetization 

 Free energy of the ion-electron system (eV)
  ---------------------------------------------------
  alpha Z        PSCENC =       171.49134797
  Ewald energy   TEWEN  =      9959.13138061
  -Hartree energ DENC   =    -19698.37978568
  -exchange      EXHF   =         0.00000000
  -V(xc)+E(xc)   XCENC  =       536.38217667
  PAW double counting   =      9247.06403337   -10688.65154079
  entropy T*S    EENTRO =        -0.00000000
  eigenvalues    EBANDS =     -3257.87467744
  atomic energy  EATOM  =     11426.54730699
  ---------------------------------------------------
  free energy    TOTEN  =     -2304.28975828 eV

  energy without entropy =    -2304.28975828  energy(sigma->0) =    -2304.28975828
  exchange ACFDT corr.  =         0.00000000  see jH, gK, PRB 81, 115126


--------------------------------------------------------------------------------------------------------




--------------------------------------- Iteration      1(   5)  ---------------------------------------


    POTLOK:  cpu time      0.3246: real time      0.3255
    SETDIJ:  cpu time      0.4709: real time      0.4722
    TRIAL :  cpu time     17.9456: real time     18.1810
    CORREC:  cpu time      0.0001: real time      0.0001
    CHARGE:  cpu time      0.1267: real time      0.1497
    --------------------------------------------
      LOOP:  cpu time     18.8697: real time     19.1358

 eigenvalue-minimisations  :   360
 total energy-change (2. order) : 0.1791950E+04  (-0.2400129E+01)
 number of electron     221.9999986 magnetization 
 augmentation part       16.3275300 magnetization 

 Free energy of the ion-electron system (eV)
  ---------------------------------------------------
  alpha Z        PSCENC =       171.49134797
  Ewald energy   TEWEN  =      9959.13138061
  -Hartree energ DENC   =    -19698.37978568
  -exchange      EXHF   =       621.62739741
  -V(xc)+E(xc)   XCENC  =       405.99294922
  PAW double counting   =      9353.69604993    -9135.27464734
  entropy T*S    EENTRO =        -0.00000000
  eigenvalues    EBANDS =     -3617.17158244
  atomic energy  EATOM  =     11426.54730699
  ---------------------------------------------------
  free energy    TOTEN  =      -512.33958333 eV

  energy without entropy =     -512.33958333  energy(sigma->0) =     -512.33958333
  exchange ACFDT corr.  =        -0.00000000  see jH, gK, PRB 81, 115126


--------------------------------------------------------------------------------------------------------




--------------------------------------- Iteration      1(   6)  ---------------------------------------


    POTLOK:  cpu time      0.3813: real time      0.4181
    SETDIJ:  cpu time      0.4577: real time      0.4830
    TRIAL :  cpu time     17.3879: real time     17.7127
    CORREC:  cpu time     71.3017: real time     72.1722
    CHARGE:  cpu time      0.1223: real time      0.1229
    --------------------------------------------
      LOOP:  cpu time     89.6605: real time     90.9281

 eigenvalue-minimisations  :     0
 total energy-change (2. order) : 0.9367307E+02  (-0.2400823E+01)
 number of electron     221.9999988 magnetization 
 augmentation part       14.5675586 magnetization 

 Free energy of the ion-electron system (eV)
  ---------------------------------------------------
  alpha Z        PSCENC =       171.49134797
  Ewald energy   TEWEN  =      9959.13138061
  -Hartree energ DENC   =    -21324.35995999
  -exchange      EXHF   =       624.55683450
  -V(xc)+E(xc)   XCENC  =       466.37528173
  PAW double counting   =     21065.22678514   -20858.88202607
  entropy T*S    EENTRO =        -0.00000000
  eigenvalues    EBANDS =     -1948.75346252
  atomic energy  EATOM  =     11426.54730699
  ---------------------------------------------------
  free energy    TOTEN  =      -418.66651165 eV

  energy without entropy =     -418.66651165  energy(sigma->0) =     -418.66651165
  exchange ACFDT corr.  =        -0.00000000  see jH, gK, PRB 81, 115126


--------------------------------------------------------------------------------------------------------




--------------------------------------- Iteration      1(   7)  ---------------------------------------


    POTLOK:  cpu time      0.3330: real time      0.3415
    SETDIJ:  cpu time      0.4849: real time      0.4864
    TRIAL :  cpu time     17.4420: real time     17.5976
    CORREC:  cpu time     70.9741: real time     72.4585
    CHARGE:  cpu time      0.1230: real time      0.1288
    --------------------------------------------
      LOOP:  cpu time     89.3605: real time     91.0219

 eigenvalue-minimisations  :     0
 total energy-change (2. order) :-0.4202775E+02  (-0.1762490E-01)
 number of electron     221.9999989 magnetization 
 augmentation part       14.0540974 magnetization 

 Free energy of the ion-electron system (eV)
  ---------------------------------------------------
  alpha Z        PSCENC =       171.49134797
  Ewald energy   TEWEN  =      9959.13138061
  -Hartree energ DENC   =    -20559.86339629
  -exchange      EXHF   =       592.25457203
  -V(xc)+E(xc)   XCENC  =       436.83582595
  PAW double counting   =     20569.63372965   -20357.76830158
  entropy T*S    EENTRO =        -0.00000000
  eigenvalues    EBANDS =     -2698.95672928
  atomic energy  EATOM  =     11426.54730699
  ---------------------------------------------------
  free energy    TOTEN  =      -460.69426395 eV

  energy without entropy =     -460.69426395  energy(sigma->0) =     -460.69426395
  exchange ACFDT corr.  =        -0.00000000  see jH, gK, PRB 81, 115126


--------------------------------------------------------------------------------------------------------




--------------------------------------- Iteration      1(   8)  ---------------------------------------


    POTLOK:  cpu time      0.3357: real time      0.3365
    SETDIJ:  cpu time      0.4864: real time      0.4878
    TRIAL :  cpu time     17.0102: real time     17.8992
    CORREC:  cpu time     17.6935: real time     17.9405
    CHARGE:  cpu time      0.1227: real time      0.1232
    --------------------------------------------
      LOOP:  cpu time     35.6512: real time     36.7956

 eigenvalue-minimisations  :     0
 total energy-change (2. order) :-0.4748444E+01  (-0.1932255E+01)
 number of electron     221.9999989 magnetization 
 augmentation part       13.9611486 magnetization 

 Free energy of the ion-electron system (eV)
  ---------------------------------------------------
  alpha Z        PSCENC =       171.49134797
  Ewald energy   TEWEN  =      9959.13138061
  -Hartree energ DENC   =    -20539.80396497
  -exchange      EXHF   =       590.69242106
  -V(xc)+E(xc)   XCENC  =       435.09214134
  PAW double counting   =     20852.86275912   -20638.28075803
  entropy T*S    EENTRO =        -0.00000000
  eigenvalues    EBANDS =     -2723.17534236
  atomic energy  EATOM  =     11426.54730699
  ---------------------------------------------------
  free energy    TOTEN  =      -465.44270828 eV

  energy without entropy =     -465.44270828  energy(sigma->0) =     -465.44270828
  exchange ACFDT corr.  =        -0.00000000  see jH, gK, PRB 81, 115126


--------------------------------------------------------------------------------------------------------




--------------------------------------- Iteration      1(   9)  ---------------------------------------


    POTLOK:  cpu time      0.3327: real time      0.3337
    SETDIJ:  cpu time      0.4860: real time      0.4875
    TRIAL :  cpu time     17.4198: real time     17.6032
    CORREC:  cpu time     17.1911: real time     18.4024
    CHARGE:  cpu time      0.1225: real time      0.1228
    --------------------------------------------
      LOOP:  cpu time     35.5530: real time     36.9578

 eigenvalue-minimisations  :     0
 total energy-change (2. order) :-0.1874711E+01  (-0.1019417E+01)
 number of electron     221.9999989 magnetization 
 augmentation part       14.0292093 magnetization 

 Free energy of the ion-electron system (eV)
  ---------------------------------------------------
  alpha Z        PSCENC =       171.49134797
  Ewald energy   TEWEN  =      9959.13138061
  -Hartree energ DENC   =    -20527.91909845
  -exchange      EXHF   =       589.67730657
  -V(xc)+E(xc)   XCENC  =       434.25183037
  PAW double counting   =     21023.06998015   -20808.08634774
  entropy T*S    EENTRO =        -0.00000000
  eigenvalues    EBANDS =     -2735.48112527
  atomic energy  EATOM  =     11426.54730699
  ---------------------------------------------------
  free energy    TOTEN  =      -467.31741881 eV

  energy without entropy =     -467.31741881  energy(sigma->0) =     -467.31741881
  exchange ACFDT corr.  =        -0.00000000  see jH, gK, PRB 81, 115126


--------------------------------------------------------------------------------------------------------




--------------------------------------- Iteration      1(  10)  ---------------------------------------


    POTLOK:  cpu time      0.3335: real time      0.3347
    SETDIJ:  cpu time      0.4783: real time      0.4853
    TRIAL :  cpu time     17.3597: real time     17.5241
    CORREC:  cpu time     17.7699: real time     17.9097
    CHARGE:  cpu time      0.1225: real time      0.1230
    --------------------------------------------
      LOOP:  cpu time     36.0666: real time     36.3849

 eigenvalue-minimisations  :     0
 total energy-change (2. order) :-0.1006290E+01  (-0.4382224E+00)
 number of electron     221.9999989 magnetization 
 augmentation part       14.0959699 magnetization 

 Free energy of the ion-electron system (eV)
  ---------------------------------------------------
  alpha Z        PSCENC =       171.49134797
  Ewald energy   TEWEN  =      9959.13138061
  -Hartree energ DENC   =    -20523.30743209
  -exchange      EXHF   =       589.39910838
  -V(xc)+E(xc)   XCENC  =       434.23959686
  PAW double counting   =     21060.88263575   -20846.25593538
  entropy T*S    EENTRO =        -0.00000000
  eigenvalues    EBANDS =     -2740.45171813
  atomic energy  EATOM  =     11426.54730699
  ---------------------------------------------------
  free energy    TOTEN  =      -468.32370905 eV

  energy without entropy =     -468.32370905  energy(sigma->0) =     -468.32370905
  exchange ACFDT corr.  =        -0.00000000  see jH, gK, PRB 81, 115126


--------------------------------------------------------------------------------------------------------




--------------------------------------- Iteration      1(  11)  ---------------------------------------


    POTLOK:  cpu time      0.3337: real time      0.3412
    SETDIJ:  cpu time      0.4863: real time      0.4878
    TRIAL :  cpu time     16.6755: real time     17.5493
    CORREC:  cpu time     17.6486: real time     17.8326
    CHARGE:  cpu time      0.1219: real time      0.1223
    --------------------------------------------
      LOOP:  cpu time     35.2675: real time     36.3414

 eigenvalue-minimisations  :     0
 total energy-change (2. order) :-0.4368049E+00  (-0.1645891E+00)
 number of electron     221.9999989 magnetization 
 augmentation part       14.1179694 magnetization 

 Free energy of the ion-electron system (eV)
  ---------------------------------------------------
  alpha Z        PSCENC =       171.49134797
  Ewald energy   TEWEN  =      9959.13138061
  -Hartree energ DENC   =    -20533.80657269
  -exchange      EXHF   =       589.87242360
  -V(xc)+E(xc)   XCENC  =       434.85138757
  PAW double counting   =     21039.71129314   -20825.31520847
  entropy T*S    EENTRO =        -0.00000000
  eigenvalues    EBANDS =     -2731.24387264
  atomic energy  EATOM  =     11426.54730699
  ---------------------------------------------------
  free energy    TOTEN  =      -468.76051390 eV

  energy without entropy =     -468.76051390  energy(sigma->0) =     -468.76051390
  exchange ACFDT corr.  =        -0.00000000  see jH, gK, PRB 81, 115126


--------------------------------------------------------------------------------------------------------




--------------------------------------- Iteration      1(  12)  ---------------------------------------


    POTLOK:  cpu time      0.3305: real time      0.3376
    SETDIJ:  cpu time      0.4831: real time      0.4871
    TRIAL :  cpu time     17.3489: real time     17.4866
    CORREC:  cpu time     17.6078: real time     18.0020
    CHARGE:  cpu time      0.1143: real time      0.1238
    --------------------------------------------
      LOOP:  cpu time     35.8870: real time     36.4452

 eigenvalue-minimisations  :     0
 total energy-change (2. order) :-0.1644169E+00  (-0.5210846E-01)
 number of electron     221.9999989 magnetization 
 augmentation part       14.1148019 magnetization 

 Free energy of the ion-electron system (eV)
  ---------------------------------------------------
  alpha Z        PSCENC =       171.49134797
  Ewald energy   TEWEN  =      9959.13138061
  -Hartree energ DENC   =    -20525.13783080
  -exchange      EXHF   =       589.47880619
  -V(xc)+E(xc)   XCENC  =       434.61397732
  PAW double counting   =     20984.22945312   -20769.97438998
  entropy T*S    EENTRO =        -0.00000000
  eigenvalues    EBANDS =     -2739.30498227
  atomic energy  EATOM  =     11426.54730699
  ---------------------------------------------------
  free energy    TOTEN  =      -468.92493085 eV

  energy without entropy =     -468.92493085  energy(sigma->0) =     -468.92493085
  exchange ACFDT corr.  =        -0.00000000  see jH, gK, PRB 81, 115126


--------------------------------------------------------------------------------------------------------




--------------------------------------- Iteration      1(  13)  ---------------------------------------


    POTLOK:  cpu time      0.3413: real time      0.3436
    SETDIJ:  cpu time      0.4840: real time      0.4870
    TRIAL :  cpu time     17.2713: real time     17.4889
    CORREC:  cpu time     17.6291: real time     17.8125
    CHARGE:  cpu time      0.1211: real time      0.1217
    --------------------------------------------
      LOOP:  cpu time     35.8481: real time     36.2615

 eigenvalue-minimisations  :     0
 total energy-change (2. order) :-0.5212927E-01  (-0.1629287E-01)
 number of electron     221.9999989 magnetization 
 augmentation part       14.1166311 magnetization 

 Free energy of the ion-electron system (eV)
  ---------------------------------------------------
  alpha Z        PSCENC =       171.49134797
  Ewald energy   TEWEN  =      9959.13138061
  -Hartree energ DENC   =    -20515.59930906
  -exchange      EXHF   =       589.02620509
  -V(xc)+E(xc)   XCENC  =       434.25598425
  PAW double counting   =     20947.45982333   -20733.25302156
  entropy T*S    EENTRO =        -0.00000000
  eigenvalues    EBANDS =     -2748.03677774
  atomic energy  EATOM  =     11426.54730699
  ---------------------------------------------------
  free energy    TOTEN  =      -468.97706011 eV

  energy without entropy =     -468.97706011  energy(sigma->0) =     -468.97706011
  exchange ACFDT corr.  =        -0.00000000  see jH, gK, PRB 81, 115126


--------------------------------------------------------------------------------------------------------




--------------------------------------- Iteration      1(  14)  ---------------------------------------


    POTLOK:  cpu time      0.3322: real time      0.3331
    SETDIJ:  cpu time      0.4854: real time      0.4871
    TRIAL :  cpu time     17.3379: real time     17.4993
    CORREC:  cpu time     17.8412: real time     18.1924
    CHARGE:  cpu time      0.1140: real time      0.1243
    --------------------------------------------
      LOOP:  cpu time     36.1124: real time     36.6440

 eigenvalue-minimisations  :     0
 total energy-change (2. order) :-0.1630422E-01  (-0.5075360E-02)
 number of electron     221.9999989 magnetization 
 augmentation part       14.1204323 magnetization 

 Free energy of the ion-electron system (eV)
  ---------------------------------------------------
  alpha Z        PSCENC =       171.49134797
  Ewald energy   TEWEN  =      9959.13138061
  -Hartree energ DENC   =    -20515.45180409
  -exchange      EXHF   =       588.99419017
  -V(xc)+E(xc)   XCENC  =       434.24228733
  PAW double counting   =     20936.88528484   -20722.69988204
  entropy T*S    EENTRO =        -0.00000000
  eigenvalues    EBANDS =     -2748.13347612
  atomic energy  EATOM  =     11426.54730699
  ---------------------------------------------------
  free energy    TOTEN  =      -468.99336433 eV

  energy without entropy =     -468.99336433  energy(sigma->0) =     -468.99336433
  exchange ACFDT corr.  =        -0.00000000  see jH, gK, PRB 81, 115126


--------------------------------------------------------------------------------------------------------




--------------------------------------- Iteration      1(  15)  ---------------------------------------


    POTLOK:  cpu time      0.3328: real time      0.3337
    SETDIJ:  cpu time      0.4859: real time      0.4874
    TRIAL :  cpu time     17.1981: real time     17.3334
    CORREC:  cpu time     17.6619: real time     17.8021
    CHARGE:  cpu time      0.1212: real time      0.1215
    --------------------------------------------
      LOOP:  cpu time     35.8021: real time     36.0861

 eigenvalue-minimisations  :     0
 total energy-change (2. order) :-0.5080326E-02  (-0.1809820E-02)
 number of electron     221.9999989 magnetization 
 augmentation part       14.1206093 magnetization 

 Free energy of the ion-electron system (eV)
  ---------------------------------------------------
  alpha Z        PSCENC =       171.49134797
  Ewald energy   TEWEN  =      9959.13138061
  -Hartree energ DENC   =    -20516.96957033
  -exchange      EXHF   =       589.05919746
  -V(xc)+E(xc)   XCENC  =       434.30078731
  PAW double counting   =     20935.67885362   -20721.50569618
  entropy T*S    EENTRO =        -0.00000000
  eigenvalues    EBANDS =     -2746.73205211
  atomic energy  EATOM  =     11426.54730699
  ---------------------------------------------------
  free energy    TOTEN  =      -468.99844466 eV

  energy without entropy =     -468.99844466  energy(sigma->0) =     -468.99844466
  exchange ACFDT corr.  =        -0.00000000  see jH, gK, PRB 81, 115126


--------------------------------------------------------------------------------------------------------




--------------------------------------- Iteration      1(  16)  ---------------------------------------


    POTLOK:  cpu time      0.3341: real time      0.3350
    SETDIJ:  cpu time      0.4869: real time      0.4882
    TRIAL :  cpu time     17.4511: real time     17.8908
    CORREC:  cpu time     17.5933: real time     17.7291
    CHARGE:  cpu time      0.1225: real time      0.1228
    --------------------------------------------
      LOOP:  cpu time     35.9899: real time     36.5771

 eigenvalue-minimisations  :     0
 total energy-change (2. order) :-0.1812771E-02  (-0.6485166E-03)
 number of electron     221.9999989 magnetization 
 augmentation part       14.1193592 magnetization 

 Free energy of the ion-electron system (eV)
  ---------------------------------------------------
  alpha Z        PSCENC =       171.49134797
  Ewald energy   TEWEN  =      9959.13138061
  -Hartree energ DENC   =    -20516.84506943
  -exchange      EXHF   =       589.06262140
  -V(xc)+E(xc)   XCENC  =       434.29867043
  PAW double counting   =     20935.32646363   -20721.15334357
  entropy T*S    EENTRO =        -0.00000000
  eigenvalues    EBANDS =     -2746.85963545
  atomic energy  EATOM  =     11426.54730699
  ---------------------------------------------------
  free energy    TOTEN  =      -469.00025743 eV

  energy without entropy =     -469.00025743  energy(sigma->0) =     -469.00025743
  exchange ACFDT corr.  =        -0.00000000  see jH, gK, PRB 81, 115126


--------------------------------------------------------------------------------------------------------




--------------------------------------- Iteration      1(  17)  ---------------------------------------


    POTLOK:  cpu time      0.3329: real time      0.3342
    SETDIJ:  cpu time      0.4877: real time      0.4891
    TRIAL :  cpu time     17.2245: real time     17.3707
    CORREC:  cpu time     17.5801: real time     18.0140
    CHARGE:  cpu time      0.1224: real time      0.1230
    --------------------------------------------
      LOOP:  cpu time     35.7491: real time     36.3390

 eigenvalue-minimisations  :     0
 total energy-change (2. order) :-0.6491235E-03  (-0.2558344E-03)
 number of electron     221.9999989 magnetization 
 augmentation part       14.1195163 magnetization 

 Free energy of the ion-electron system (eV)
  ---------------------------------------------------
  alpha Z        PSCENC =       171.49134797
  Ewald energy   TEWEN  =      9959.13138061
  -Hartree energ DENC   =    -20516.44329275
  -exchange      EXHF   =       589.04936596
  -V(xc)+E(xc)   XCENC  =       434.28281664
  PAW double counting   =     20935.49634272   -20721.31890303
  entropy T*S    EENTRO =        -0.00000000
  eigenvalues    EBANDS =     -2747.23727165
  atomic energy  EATOM  =     11426.54730699
  ---------------------------------------------------
  free energy    TOTEN  =      -469.00090655 eV

  energy without entropy =     -469.00090655  energy(sigma->0) =     -469.00090655
  exchange ACFDT corr.  =        -0.00000000  see jH, gK, PRB 81, 115126


--------------------------------------------------------------------------------------------------------




--------------------------------------- Iteration      1(  18)  ---------------------------------------


    POTLOK:  cpu time      0.3331: real time      0.3340
    SETDIJ:  cpu time      0.4868: real time      0.4882
    TRIAL :  cpu time     17.2159: real time     17.3473
    CORREC:  cpu time     17.6508: real time     17.8158
    CHARGE:  cpu time      0.1228: real time      0.1231
    --------------------------------------------
      LOOP:  cpu time     35.8116: real time     36.1163

 eigenvalue-minimisations  :     0
 total energy-change (2. order) :-0.2555773E-03  (-0.1021121E-03)
 number of electron     221.9999989 magnetization 
 augmentation part       14.1201050 magnetization 

 Free energy of the ion-electron system (eV)
  ---------------------------------------------------
  alpha Z        PSCENC =       171.49134797
  Ewald energy   TEWEN  =      9959.13138061
  -Hartree energ DENC   =    -20516.71141333
  -exchange      EXHF   =       589.06011073
  -V(xc)+E(xc)   XCENC  =       434.29097275
  PAW double counting   =     20936.53906400   -20722.36119655
  entropy T*S    EENTRO =        -0.00000000
  eigenvalues    EBANDS =     -2746.98873530
  atomic energy  EATOM  =     11426.54730699
  ---------------------------------------------------
  free energy    TOTEN  =      -469.00116213 eV

  energy without entropy =     -469.00116213  energy(sigma->0) =     -469.00116213
  exchange ACFDT corr.  =        -0.00000000  see jH, gK, PRB 81, 115126


--------------------------------------------------------------------------------------------------------




--------------------------------------- Iteration      1(  19)  ---------------------------------------


    POTLOK:  cpu time      0.3332: real time      0.3342
    SETDIJ:  cpu time      0.4873: real time      0.4889
    TRIAL :  cpu time     17.2745: real time     17.5602
    CORREC:  cpu time     17.7742: real time     18.0159
    CHARGE:  cpu time      0.1227: real time      0.1230
    --------------------------------------------
      LOOP:  cpu time     35.9945: real time     36.5302

 eigenvalue-minimisations  :     0
 total energy-change (2. order) :-0.1020410E-03  (-0.3802695E-04)
 number of electron     221.9999989 magnetization 
 augmentation part       14.1202282 magnetization 

 Free energy of the ion-electron system (eV)
  ---------------------------------------------------
  alpha Z        PSCENC =       171.49134797
  Ewald energy   TEWEN  =      9959.13138061
  -Hartree energ DENC   =    -20516.99447330
  -exchange      EXHF   =       589.07136396
  -V(xc)+E(xc)   XCENC  =       434.30074794
  PAW double counting   =     20937.38515313   -20723.20871802
  entropy T*S    EENTRO =        -0.00000000
  eigenvalues    EBANDS =     -2746.72537345
  atomic energy  EATOM  =     11426.54730699
  ---------------------------------------------------
  free energy    TOTEN  =      -469.00126417 eV

  energy without entropy =     -469.00126417  energy(sigma->0) =     -469.00126417
  exchange ACFDT corr.  =        -0.00000000  see jH, gK, PRB 81, 115126


--------------------------------------------------------------------------------------------------------




--------------------------------------- Iteration      1(  20)  ---------------------------------------


    POTLOK:  cpu time      0.3326: real time      0.3337
    SETDIJ:  cpu time      0.4864: real time      0.4877
    TRIAL :  cpu time     17.3248: real time     17.4516
    CORREC:  cpu time     17.6503: real time     17.7767
    CHARGE:  cpu time      0.1221: real time      0.1224
    --------------------------------------------
      LOOP:  cpu time     35.9191: real time     36.1800

 eigenvalue-minimisations  :     0
 total energy-change (2. order) :-0.3815123E-04  (-0.1513730E-04)
 number of electron     221.9999989 magnetization 
 augmentation part       14.1202114 magnetization 

 Free energy of the ion-electron system (eV)
  ---------------------------------------------------
  alpha Z        PSCENC =       171.49134797
  Ewald energy   TEWEN  =      9959.13138061
  -Hartree energ DENC   =    -20516.98407619
  -exchange      EXHF   =       589.07092543
  -V(xc)+E(xc)   XCENC  =       434.30034589
  PAW double counting   =     20937.58005808   -20723.40437679
  entropy T*S    EENTRO =        -0.00000000
  eigenvalues    EBANDS =     -2746.73421431
  atomic energy  EATOM  =     11426.54730699
  ---------------------------------------------------
  free energy    TOTEN  =      -469.00130232 eV

  energy without entropy =     -469.00130232  energy(sigma->0) =     -469.00130232
  exchange ACFDT corr.  =        -0.00000000  see jH, gK, PRB 81, 115126


--------------------------------------------------------------------------------------------------------




--------------------------------------- Iteration      1(  21)  ---------------------------------------


    POTLOK:  cpu time      0.3326: real time      0.3337
    SETDIJ:  cpu time      0.4873: real time      0.4886
    TRIAL :  cpu time     17.0241: real time     17.4777
    CORREC:  cpu time     16.9211: real time     18.5131
    CHARGE:  cpu time      0.1328: real time      0.1332
    --------------------------------------------
      LOOP:  cpu time     34.8996: real time     36.9542

 eigenvalue-minimisations  :     0
 total energy-change (2. order) :-0.1515199E-04  (-0.6585736E-05)
 number of electron     221.9999989 magnetization 
 augmentation part       14.1202857 magnetization 

 Free energy of the ion-electron system (eV)
  ---------------------------------------------------
  alpha Z        PSCENC =       171.49134797
  Ewald energy   TEWEN  =      9959.13138061
  -Hartree energ DENC   =    -20516.94442121
  -exchange      EXHF   =       589.06906868
  -V(xc)+E(xc)   XCENC  =       434.29882055
  PAW double counting   =     20937.52568490   -20723.35035440
  entropy T*S    EENTRO =        -0.00000000
  eigenvalues    EBANDS =     -2746.77015157
  atomic energy  EATOM  =     11426.54730699
  ---------------------------------------------------
  free energy    TOTEN  =      -469.00131747 eV

  energy without entropy =     -469.00131747  energy(sigma->0) =     -469.00131747
  exchange ACFDT corr.  =        -0.00000000  see jH, gK, PRB 81, 115126


--------------------------------------------------------------------------------------------------------




--------------------------------------- Iteration      1(  22)  ---------------------------------------


    POTLOK:  cpu time      0.4393: real time      0.4478
    SETDIJ:  cpu time      0.4895: real time      0.4914
    TRIAL :  cpu time     18.0234: real time     18.1936
    CORREC:  cpu time     18.7489: real time     19.3280
    EDDIAG:  cpu time     16.8568: real time     17.3966
    CHARGE:  cpu time      0.1099: real time      0.1464
    --------------------------------------------
      LOOP:  cpu time     54.6777: real time     56.0205

 eigenvalue-minimisations  :     0
 total energy-change (2. order) :-0.6484801E-05  (-0.3130755E-05)
 number of electron     221.9999989 magnetization 
 augmentation part       14.1203336 magnetization 

 Free energy of the ion-electron system (eV)
  ---------------------------------------------------
  alpha Z        PSCENC =       171.49134797
  Ewald energy   TEWEN  =      9959.13138061
  -Hartree energ DENC   =    -20516.98017676
  -exchange      EXHF   =       589.07051092
  -V(xc)+E(xc)   XCENC  =       434.29996791
  PAW double counting   =     20937.44979360   -20723.27485993
  entropy T*S    EENTRO =        -0.00000000
  eigenvalues    EBANDS =     -2746.73618824
  atomic energy  EATOM  =     11426.54730699
  ---------------------------------------------------
  free energy    TOTEN  =      -469.00132396 eV

  energy without entropy =     -469.00132396  energy(sigma->0) =     -469.00132396
  exchange ACFDT corr.  =        -0.00000000  see jH, gK, PRB 81, 115126


--------------------------------------------------------------------------------------------------------


  average scaling for gradient   0.8009


 average (electrostatic) potential at core
  the test charge radii are     0.6991  0.5201  0.7215  1.0714
  (the norm of the test charge is              1.0000)
       1 -55.9433       2 -52.9044       3 -53.9596       4 -52.3910       5 -55.9429
       6 -52.9044       7 -53.9598       8 -52.3911       9 -55.9426      10 -52.9042
      11 -53.9596      12 -52.3907      13 -55.9428      14 -52.9044      15 -53.9595
      16 -52.3908      17 -55.9431      18 -52.9046      19 -53.9596      20 -52.3908
      21 -55.9432      22 -52.9044      23 -53.9594      24 -52.3908      25 -35.1299
      26 -35.1305      27 -35.1296      28 -35.1300      29 -35.1305      30 -35.1302
      31 -71.9418      32 -71.6649      33 -71.1113      34 -71.9420      35 -71.6642
      36 -71.1113      37 -71.9415      38 -71.6643      39 -71.1114      40 -71.9414
      41 -71.6646      42 -71.1113      43 -71.9415      44 -71.6650      45 -71.1110
      46 -71.9418      47 -71.6648      48 -71.1109      49 -38.2478      50 -38.2480
      51 -38.2480      52 -38.2478      53 -38.2476      54 -38.2477
 
 
 
 E-fermi :  -2.4261     XC(G=0):  -3.7398     alpha+bet : -3.6057

 Fermi energy:        -2.4261087158

 k-point     1 :       0.0000    0.0000    0.0000
  band No.  band energies     occupation 
      1     -27.5632      2.00000
      2     -27.5575      2.00000
      3     -27.4174      2.00000
      4     -27.4174      2.00000
      5     -27.4124      2.00000
      6     -27.4124      2.00000
      7     -25.2125      2.00000
      8     -25.1905      2.00000
      9     -25.1658      2.00000
     10     -25.1654      2.00000
     11     -25.1207      2.00000
     12     -25.1204      2.00000
     13     -24.8559      2.00000
     14     -24.8559      2.00000
     15     -24.8427      2.00000
     16     -24.8332      2.00000
     17     -24.8331      2.00000
     18     -24.8008      2.00000
     19     -20.7856      2.00000
     20     -20.7336      2.00000
     21     -20.7335      2.00000
     22     -18.8162      2.00000
     23     -18.7653      2.00000
     24     -18.7651      2.00000
     25     -17.2970      2.00000
     26     -17.1910      2.00000
     27     -17.1909      2.00000
     28     -15.9584      2.00000
     29     -15.9438      2.00000
     30     -15.9437      2.00000
     31     -13.9545      2.00000
     32     -13.9288      2.00000
     33     -13.9287      2.00000
     34     -13.7009      2.00000
     35     -13.5794      2.00000
     36     -13.5793      2.00000
     37     -13.3239      2.00000
     38     -12.6406      2.00000
     39     -12.6405      2.00000
     40     -11.7777      2.00000
     41     -11.7777      2.00000
     42     -11.7574      2.00000
     43     -11.7574      2.00000
     44     -11.6544      2.00000
     45     -11.4585      2.00000
     46     -11.1975      2.00000
     47     -11.1341      2.00000
     48     -11.1340      2.00000
     49     -10.9971      2.00000
     50     -10.9970      2.00000
     51     -10.7747      2.00000
     52     -10.4316      2.00000
     53     -10.4314      2.00000
     54     -10.3429      2.00000
     55     -10.2325      2.00000
     56     -10.2324      2.00000
     57     -10.1711      2.00000
     58      -9.9713      2.00000
     59      -9.9712      2.00000
     60      -9.7986      2.00000
     61      -9.7985      2.00000
     62      -9.7645      2.00000
     63      -9.6044      2.00000
     64      -9.0181      2.00000
     65      -9.0181      2.00000
     66      -8.8983      2.00000
     67      -8.8217      2.00000
     68      -8.8213      2.00000
     69      -8.7777      2.00000
     70      -8.6254      2.00000
     71      -8.5514      2.00000
     72      -8.5513      2.00000
     73      -8.2513      2.00000
     74      -8.2511      2.00000
     75      -8.0890      2.00000
     76      -7.7643      2.00000
     77      -7.7470      2.00000
     78      -7.7468      2.00000
     79      -7.3220      2.00000
     80      -7.0383      2.00000
     81      -7.0382      2.00000
     82      -6.8929      2.00000
     83      -6.8664      2.00000
     84      -6.8662      2.00000
     85      -6.5120      2.00000
     86      -6.5119      2.00000
     87      -6.2856      2.00000
     88      -6.2855      2.00000
     89      -6.1271      2.00000
     90      -6.0399      2.00000
     91      -5.9024      2.00000
     92      -5.9024      2.00000
     93      -5.8967      2.00000
     94      -5.8967      2.00000
     95      -5.7714      2.00000
     96      -5.7539      2.00000
     97      -5.6691      2.00000
     98      -5.6691      2.00000
     99      -5.5729      2.00000
    100      -5.2673      2.00000
    101      -5.2672      2.00000
    102      -5.0987      2.00000
    103      -4.9563      2.00000
    104      -4.9563      2.00000
    105      -4.8513      2.00000
    106      -4.6420      2.00000
    107      -4.6418      2.00000
    108      -4.5923      2.00000
    109      -3.0454      2.00000
    110      -3.0453      2.00000
    111      -2.9014      2.00000
    112       0.1794      0.00000
    113       0.1795      0.00000
    114       0.2127      0.00000
    115       1.7436      0.00000
    116       2.2089      0.00000
    117       2.2089      0.00000
    118       2.2946      0.00000
    119       2.2947      0.00000
    120       2.3113      0.00000
    121       2.3217      0.00000
    122       2.3897      0.00000
    123       2.6862      0.00000
    124       2.6862      0.00000
    125       2.7106      0.00000
    126       2.7106      0.00000
    127       3.3797      0.00000
    128       3.9296      0.00000
    129       3.9297      0.00000
    130       4.2162      0.00000
    131       4.2162      0.00000
    132       4.3576      0.00000
    133       4.5328      0.00000
    134       4.5736      0.00000
    135       4.5812      0.00000
    136       4.5813      0.00000
    137       4.7598      0.00000
    138       4.7599      0.00000
    139       4.9393      0.00000
    140       4.9747      0.00000
    141       4.9747      0.00000
    142       5.0791      0.00000
    143       5.3074      0.00000
    144       5.3074      0.00000
    145       5.6839      0.00000
    146       5.7793      0.00000
    147       5.8342      0.00000
    148       5.8373      0.00000
    149       5.8607      0.00000
    150       5.8610      0.00000
    151       5.8735      0.00000
    152       6.0969      0.00000
    153       6.1002      0.00000
    154       6.4560      0.00000
    155       6.5720      0.00000
    156       6.6220      0.00000
    157       7.2178      0.00000
    158       7.2858      0.00000
    159       7.3115      0.00000
    160       7.4856      0.00000


--------------------------------------------------------------------------------------------------------


 soft charge-density along one line, spin component           1
         0         1         2         3         4         5         6         7         8         9
 total charge-density along one line
 
 pseudopotential strength for first ion, spin component:           1
 10.026  13.332   0.010   0.002  -0.000  -0.027  -0.006   0.001
 13.332  17.729   0.013   0.002  -0.000  -0.035  -0.008   0.001
  0.010   0.013  -4.262   0.003  -0.001   8.317  -0.006   0.002
  0.002   0.002   0.003  -4.270   0.004  -0.006   8.331  -0.006
 -0.000  -0.000  -0.001   0.004  -4.250   0.002  -0.006   8.297
 -0.027  -0.035   8.317  -0.006   0.002 -18.352   0.010  -0.003
 -0.006  -0.008  -0.006   8.331  -0.006   0.010 -18.376   0.010
  0.001   0.001   0.002  -0.006   8.297  -0.003   0.010 -18.319
 total augmentation occupancy for first ion, spin component:           1
  9.642  -4.689   0.419   0.244  -0.015   0.103   0.058  -0.003
 -4.689   2.428  -0.340  -0.173   0.011  -0.068  -0.037   0.002
  0.419  -0.340   1.782   0.003   0.030   0.179  -0.014   0.007
  0.244  -0.173   0.003   1.867  -0.131  -0.013   0.212  -0.021
 -0.015   0.011   0.030  -0.131   1.038   0.007  -0.022   0.083
  0.103  -0.068   0.179  -0.013   0.007   0.021  -0.003   0.001
  0.058  -0.037  -0.014   0.212  -0.022  -0.003   0.028  -0.004
 -0.003   0.002   0.007  -0.021   0.083   0.001  -0.004   0.007


------------------------ aborting loop because EDIFF is reached ----------------------------------------


    FORLOC:  cpu time      0.0526: real time      0.0690
    FORHF :  cpu time      8.6627: real time     12.1070
    FORNL :  cpu time      0.6450: real time      0.9633
    FORCOR:  cpu time      0.8208: real time      0.8309
    OFIELD:  cpu time      0.0007: real time      0.0007
 WARNING: Using user supplied parameters
     VDW_S8 = 0.109
     VDW_SR = 1.129
     because the xc functional is not supported. Required parameters not
     defined in the INCAR file will be replaced with PBE defaults ones.


 ---------------------------------------------------------------------------------------------

         DFTD3 V3.0 Rev 1        
 IVDW         = 11
 DF unknown   
 parameters
 VDW_S6       =    1.0000
 VDW_S8       =    0.1090
 VDW_SR       =    1.1290
 rs18     =    1.0000
 alpha6   =   14.0000
 alpha8   =   16.0000
 k1-k3    =   16.0000    1.3333   -4.0000
 VDW_RADIUS   =   50.2022 A
 VDW_CNRADIUS =   21.1671 A
 Edisp (eV)   -1.81320

 E6    (eV) :    -1.6347
 E8    (eV) :    -0.1785
 % E8        :  9.84
    FORVDW:  cpu time      0.5811: real time      0.5830

 VOLUME and BASIS-vectors are now :
 -----------------------------------------------------------------------------
  energy-cutoff  :      400.00
  volume of cell :     1371.39
      direct lattice vectors                 reciprocal lattice vectors
    15.258013385  0.006374814  0.024579381     0.065314117  0.034130566  0.130953070
    -7.105142985 13.502791256  0.024499078    -0.000241744  0.073693958  0.130953351
    -7.105097270-11.773071197  6.612175988    -0.000241896 -0.000399920  0.150264152

  length of vectors
    15.258034514 15.258080769 15.258062915     0.150264886  0.150265226  0.150264879


 FORCES acting on ions:
    Electron-Ion                     Ewald-Force                    Non-Local-Force
 -----------------------------------------------------------------------------------------------
   0.367E+02 0.139E+03 -.164E+02   -.366E+02 -.144E+03 0.147E+02   -.133E+00 0.566E+01 0.181E+01
   0.879E+01 0.436E+02 -.370E+02   -.890E+01 -.450E+02 0.364E+02   0.922E-01 0.119E+01 0.449E+00
   -.320E+02 0.811E+02 -.545E+01   0.315E+02 -.854E+02 0.832E+01   0.456E+00 0.413E+01 -.271E+01
   -.519E+02 0.228E+02 0.110E+03   0.525E+02 -.226E+02 -.112E+03   -.604E+00 -.115E+00 0.222E+01
   -.132E+03 -.278E+02 0.536E+02   0.135E+03 0.297E+02 -.577E+02   -.353E+01 -.201E+01 0.434E+01
   -.537E+02 -.184E+02 -.110E+02   0.546E+02 0.187E+02 0.976E+01   -.772E+00 -.302E+00 0.973E+00
   -.501E+02 -.625E+02 0.348E+02   0.549E+02 0.645E+02 -.344E+02   -.457E+01 -.189E+01 -.347E+00
   0.540E+02 -.302E+02 0.107E+03   -.553E+02 0.301E+02 -.109E+03   0.133E+01 0.166E-01 0.188E+01
   0.106E+03 -.929E+02 0.332E+02   -.111E+03 0.942E+02 -.358E+02   0.507E+01 -.131E+01 0.281E+01
   0.344E+02 -.426E+02 -.186E+02   -.357E+02 0.429E+02 0.176E+02   0.101E+01 -.338E+00 0.703E+00
   0.867E+02 -.110E+02 -.132E+00   -.902E+02 0.145E+02 0.146E+01   0.344E+01 -.335E+01 -.123E+01
   0.443E+02 0.843E+02 0.785E+02   -.445E+02 -.860E+02 -.802E+02   0.177E+00 0.160E+01 0.165E+01
   -.367E+02 -.139E+03 0.163E+02   0.366E+02 0.144E+03 -.147E+02   0.132E+00 -.566E+01 -.181E+01
   -.882E+01 -.436E+02 0.370E+02   0.893E+01 0.450E+02 -.364E+02   -.930E-01 -.119E+01 -.449E+00
   0.319E+02 -.811E+02 0.546E+01   -.315E+02 0.854E+02 -.834E+01   -.456E+00 -.413E+01 0.271E+01
   0.518E+02 -.228E+02 -.110E+03   -.525E+02 0.226E+02 0.112E+03   0.605E+00 0.118E+00 -.222E+01
   0.132E+03 0.278E+02 -.536E+02   -.135E+03 -.297E+02 0.577E+02   0.353E+01 0.201E+01 -.434E+01
   0.537E+02 0.184E+02 0.110E+02   -.546E+02 -.187E+02 -.975E+01   0.772E+00 0.302E+00 -.973E+00
   0.501E+02 0.625E+02 -.348E+02   -.548E+02 -.645E+02 0.344E+02   0.457E+01 0.189E+01 0.345E+00
   -.540E+02 0.302E+02 -.107E+03   0.553E+02 -.302E+02 0.109E+03   -.133E+01 -.167E-01 -.188E+01
   -.106E+03 0.929E+02 -.332E+02   0.111E+03 -.942E+02 0.358E+02   -.507E+01 0.131E+01 -.281E+01
   -.344E+02 0.426E+02 0.186E+02   0.357E+02 -.429E+02 -.177E+02   -.101E+01 0.338E+00 -.703E+00
   -.866E+02 0.110E+02 0.112E+00   0.902E+02 -.145E+02 -.144E+01   -.344E+01 0.335E+01 0.122E+01
   -.443E+02 -.843E+02 -.785E+02   0.444E+02 0.860E+02 0.802E+02   -.181E+00 -.160E+01 -.165E+01
   -.293E+02 0.909E+01 0.590E+02   0.299E+02 -.997E+01 -.647E+02   -.549E+00 0.872E+00 0.563E+01
   0.321E+02 -.162E+02 0.560E+02   -.342E+02 0.158E+02 -.613E+02   0.201E+01 0.440E+00 0.534E+01
   0.217E+02 0.477E+02 0.409E+02   -.227E+02 -.506E+02 -.458E+02   0.103E+01 0.282E+01 0.488E+01
   0.293E+02 -.909E+01 -.590E+02   -.299E+02 0.997E+01 0.647E+02   0.550E+00 -.873E+00 -.563E+01
   -.321E+02 0.162E+02 -.560E+02   0.342E+02 -.158E+02 0.613E+02   -.202E+01 -.440E+00 -.534E+01
   -.217E+02 -.478E+02 -.409E+02   0.227E+02 0.506E+02 0.458E+02   -.103E+01 -.282E+01 -.488E+01
   -.565E+01 -.265E+02 0.515E+02   0.967E+01 0.540E+02 -.734E+02   -.359E+01 -.244E+02 0.195E+02
   0.180E+03 0.130E+03 -.272E+03   -.189E+03 -.136E+03 0.315E+03   0.743E+01 0.466E+01 -.386E+02
   -.123E+03 0.680E+02 0.102E+03   0.129E+03 -.476E+02 -.125E+03   -.583E+01 -.180E+02 0.199E+02
   0.454E+02 0.175E+02 0.320E+02   -.779E+02 -.301E+02 -.377E+02   0.290E+02 0.112E+02 0.513E+01
   -.302E+03 0.446E+02 -.174E+03   0.329E+03 -.400E+02 0.209E+03   -.237E+02 -.412E+01 -.314E+02
   0.488E+02 -.113E+03 0.122E+03   -.773E+02 0.106E+03 -.132E+03   0.252E+02 0.671E+01 0.857E+01
   -.209E+02 0.403E+02 0.365E+02   0.432E+02 -.653E+02 -.476E+02   -.199E+02 0.222E+02 0.994E+01
   0.313E+02 -.325E+03 -.130E+03   -.321E+02 0.355E+03 0.163E+03   0.659E+00 -.265E+02 -.294E+02
   0.117E+03 0.117E+03 0.515E+02   -.102E+03 -.141E+03 -.636E+02   -.133E+02 0.216E+02 0.108E+02
   0.562E+01 0.265E+02 -.515E+02   -.964E+01 -.540E+02 0.734E+02   0.359E+01 0.244E+02 -.195E+02
   -.180E+03 -.130E+03 0.272E+03   0.189E+03 0.136E+03 -.315E+03   -.742E+01 -.466E+01 0.386E+02
   0.123E+03 -.680E+02 -.102E+03   -.129E+03 0.476E+02 0.125E+03   0.582E+01 0.180E+02 -.199E+02
   -.454E+02 -.174E+02 -.320E+02   0.779E+02 0.300E+02 0.378E+02   -.290E+02 -.112E+02 -.513E+01
   0.302E+03 -.448E+02 0.174E+03   -.329E+03 0.401E+02 -.209E+03   0.237E+02 0.410E+01 0.314E+02
   -.487E+02 0.113E+03 -.122E+03   0.773E+02 -.105E+03 0.132E+03   -.252E+02 -.672E+01 -.856E+01
   0.208E+02 -.403E+02 -.365E+02   -.432E+02 0.652E+02 0.476E+02   0.199E+02 -.222E+02 -.994E+01
   -.313E+02 0.325E+03 0.130E+03   0.321E+02 -.355E+03 -.163E+03   -.667E+00 0.265E+02 0.294E+02
   -.117E+03 -.117E+03 -.514E+02   0.102E+03 0.141E+03 0.636E+02   0.133E+02 -.216E+02 -.107E+02
   -.801E+02 0.171E+02 0.266E+01   0.784E+02 -.168E+02 -.300E+01   0.197E+01 -.393E+00 0.398E+00
   0.253E+02 -.772E+02 0.107E+02   -.249E+02 0.755E+02 -.108E+02   -.443E+00 0.200E+01 0.157E+00
   0.524E+02 0.562E+02 -.284E+02   -.513E+02 -.552E+02 0.274E+02   -.127E+01 -.117E+01 0.111E+01
   0.801E+02 -.171E+02 -.266E+01   -.784E+02 0.168E+02 0.300E+01   -.197E+01 0.395E+00 -.399E+00
   -.253E+02 0.772E+02 -.107E+02   0.249E+02 -.755E+02 0.108E+02   0.443E+00 -.200E+01 -.155E+00
   -.524E+02 -.562E+02 0.284E+02   0.514E+02 0.552E+02 -.274E+02   0.127E+01 0.117E+01 -.111E+01
 -----------------------------------------------------------------------------------------------
   0.424E-02 -.142E-01 -.459E-02   0.142E-13 0.242E-12 0.320E-13   -.439E-02 0.139E-01 0.400E-02
 
 
 POSITION                                       TOTAL-FORCE (eV/Angst)
 -----------------------------------------------------------------------------------
      7.59511      2.64755      1.18809        -0.023361      0.561203      0.280332
      7.63873      1.30894      0.54329        -0.016515     -0.229556     -0.178016
     -6.43784      2.86224      5.76282        -0.013673      0.072358      0.013992
     -6.45160      1.54590      5.28467        -0.014231      0.041487      0.153114
     -5.07078      5.91373      2.32906        -0.298691     -0.184489      0.522023
     -4.33584      6.35007      1.11298         0.105121      0.037437     -0.269914
      3.27899     -5.54896      6.42675        -0.043037     -0.038094      0.045911
      4.09541     -5.13451      5.36685         0.040393      0.004979      0.157525
     -1.19743     -6.36168      4.91918         0.507939     -0.072684      0.363263
     -2.40204     -6.16560      4.07077        -0.194766      0.017744     -0.215711
      5.53246      6.62037      2.90060         0.068699     -0.010809      0.021899
      4.37425      6.93301      2.17788         0.039853      0.071303      0.136510
     -6.54734     -0.91088      5.47311         0.023529     -0.561662     -0.279947
     -6.59084      0.42773      6.11788         0.015947      0.228236      0.178969
      7.48575     -1.12559      0.89836         0.013766     -0.071201     -0.014481
      7.49946      0.19072      1.37651         0.014731     -0.037895     -0.155125
      6.11852     -4.17693      4.33219         0.303243      0.185528     -0.517517
      5.38356     -4.61337      5.54826        -0.104454     -0.036845      0.271314
     -2.23129      7.28571      0.23459         0.044642      0.039110     -0.050116
     -3.04766      6.87118      1.29440        -0.040579     -0.005163     -0.156132
      2.24508      8.09818      1.74212        -0.506405      0.072691     -0.362545
      3.44979      7.90210      2.59056         0.195322     -0.018543      0.215767
     -4.48465     -4.88386      3.76077        -0.072241      0.012888     -0.023806
     -3.32642     -5.19653      4.48345        -0.044773     -0.068743     -0.138017
     -6.34631      1.38326      4.21249        -0.016603      0.042517      0.205968
      3.70895     -5.21906      4.35174         0.062563      0.014495      0.198275
      4.18117      6.39460      1.25052         0.046198      0.095782      0.182967
      7.39408      0.35351      2.44864         0.016653     -0.043301     -0.204964
     -2.66112      6.95567      2.30948        -0.063033     -0.014468     -0.197857
     -3.13344     -4.65798      5.41066        -0.044916     -0.095314     -0.180587
      7.76122      3.68660      0.43750        -0.095087     -0.606443      0.477979
      7.40383      2.77061      2.43852         0.189520      0.023131     -0.913301
     -6.30653      3.87970      4.88258        -0.093440     -0.245383      0.262179
     -6.27463      5.46731      2.18121         0.715122      0.269923      0.119159
     -4.53666      5.97898      3.48050        -0.500693     -0.049818     -0.785563
      2.05194     -6.04679      6.15509         0.346882      0.076603      0.109575
     -0.35557     -7.27894      4.57230        -0.490077      0.549488      0.234896
     -0.99934     -5.65370      5.95586        -0.068177     -0.599040     -0.707183
      6.37140      5.67555      2.42043        -0.170325      0.297480      0.132449
     -6.71344     -1.94995      6.22364         0.094907      0.606029     -0.475244
     -6.35615     -1.03396      4.22271        -0.188894     -0.023053      0.910416
      7.35449     -2.14299      1.77856         0.093198      0.242694     -0.260444
      7.32258     -3.73083      4.48014        -0.720395     -0.270949     -0.120930
      5.58434     -4.24178      3.18082         0.500051      0.049101      0.783526
     -1.00428      7.78374      0.50622        -0.347962     -0.078080     -0.109332
      1.40320      9.01549      2.08911         0.492423     -0.554165     -0.238618
      2.04712      7.39009      0.70540         0.066776      0.603346      0.711135
     -5.32367     -3.93889      4.24083         0.175146     -0.301354     -0.132824
      1.51449     -7.74281      5.18874        -0.086363      0.002772      0.009216
      7.51420      5.67007      0.74920         0.042465     -0.075309      0.009467
     -7.55659      4.51281      3.42128         0.042175      0.071398     -0.028167
     -0.46680      9.47956      1.47260         0.086658     -0.002120     -0.010118
     -6.46642     -3.93339      5.91213        -0.043018      0.075007     -0.009861
      8.60443     -2.77629      3.23998        -0.042214     -0.070251      0.028496
 -----------------------------------------------------------------------------------
    total drift:                               -0.000515      0.000448      0.000236


--------------------------------------------------------------------------------------------------------



  FREE ENERGIE OF THE ION-ELECTRON SYSTEM (eV)
  ---------------------------------------------------
  free  energy   TOTEN  =      -470.81451940 eV

  energy  without entropy=     -470.81451940  energy(sigma->0) =     -470.81451940
 


--------------------------------------------------------------------------------------------------------


    POTLOK:  cpu time      0.8225: real time      0.8250


--------------------------------------------------------------------------------------------------------


 writing wavefunctions
     LOOP+:  cpu time    777.1873: real time    797.8042
    4ORBIT:  cpu time      0.0000: real time      0.0000

 total amount of memory used by VASP MPI-rank0  1218127. kBytes
=======================================================================

   base      :      30000. kBytes
   nonlr-proj:      45210. kBytes
   fftplans  :      10913. kBytes
   grid      :      54672. kBytes
   one-center:        219. kBytes
   HF        :        135. kBytes
   wavefun   :       2433. kBytes
   fock_wrk  :    1074545. kBytes
 
  
  
 General timing and accounting informations for this job:
 ========================================================
  
                  Total CPU time used (sec):      789.616
                            User time (sec):      733.791
                          System time (sec):       55.824
                         Elapsed time (sec):      812.670
  
                   Maximum memory used (kb):     2700760.
                   Average memory used (kb):          N/A
  
                          Minor page faults:      3401355
                          Major page faults:            1
                 Voluntary context switches:        10759
