 vasp.6.3.2 27Jun22 (build Jul 28 2023 19:28:36) gamma-only                     
  
 executed on             LinuxIFC date 2024.06.14  08:31:39
 running on   40 total cores
 distrk:  each k-point on   40 cores,    1 groups
 distr:  one band on NCORE=   1 cores,   40 groups


--------------------------------------------------------------------------------------------------------


 INCAR:
   SYSTEM = MOF
   ISTART = 0
   ICHARG = 2
   ISMEAR = 0
   SIGMA = 0.1
   ENCUT = 1000.0
   PREC = Accurate
   EDIFF = 1E-7
   NELM = 500
   IBRION = -1
   NSW = 0
   ALGO = All
   TIME = 0.05
   LREAL = Auto
   IVDW = 11
   LWAVE = .TRUE.
   LCHARG = .TRUE.
   NWRITE = 1

 POTCAR:    PAW_PBE C 08Apr2002                   
 POTCAR:    PAW_PBE H 15Jun2001                   
 POTCAR:    PAW_PBE O 08Apr2002                   
 POTCAR:    PAW_PBE Mg 13Apr2007                  
 -----------------------------------------------------------------------------
|                                                                             |
|           W    W    AA    RRRRR   N    N  II  N    N   GGGG   !!!           |
|           W    W   A  A   R    R  NN   N  II  NN   N  G    G  !!!           |
|           W    W  A    A  R    R  N N  N  II  N N  N  G       !!!           |
|           W WW W  AAAAAA  RRRRR   N  N N  II  N  N N  G  GGG   !            |
|           WW  WW  A    A  R   R   N   NN  II  N   NN  G    G                |
|           W    W  A    A  R    R  N    N  II  N    N   GGGG   !!!           |
|                                                                             |
|     For optimal performance we recommend to set                             |
|       NCORE = 2 up to number-of-cores-per-socket                            |
|     NCORE specifies how many cores store one orbital (NPAR=cpu/NCORE).      |
|     This setting can greatly improve the performance of VASP for DFT.       |
|     The default, NCORE=1 might be grossly inefficient on modern             |
|     multi-core architectures or massively parallel machines. Do your        |
|     own testing! More info at https://www.vasp.at/wiki/index.php/NCORE      |
|     Unfortunately you need to use the default for GW and RPA                |
|     calculations (for HF NCORE is supported but not extensively tested      |
|     yet).                                                                   |
|                                                                             |
 -----------------------------------------------------------------------------

 POTCAR:    PAW_PBE C 08Apr2002                   
  local pseudopotential read in
  partial core-charges read in
  partial kinetic energy density read in
  atomic valenz-charges read in
  non local Contribution for L=           0  read in
    real space projection operators read in
  non local Contribution for L=           0  read in
    real space projection operators read in
  non local Contribution for L=           1  read in
    real space projection operators read in
  non local Contribution for L=           1  read in
    real space projection operators read in
    PAW grid and wavefunctions read in
 
   number of l-projection  operators is LMAX  =           4
   number of lm-projection operators is LMMAX =           8
 
 POTCAR:    PAW_PBE H 15Jun2001                   
  local pseudopotential read in
  atomic valenz-charges read in
  non local Contribution for L=           0  read in
    real space projection operators read in
  non local Contribution for L=           0  read in
    real space projection operators read in
  non local Contribution for L=           1  read in
    real space projection operators read in
    PAW grid and wavefunctions read in
 
   number of l-projection  operators is LMAX  =           3
   number of lm-projection operators is LMMAX =           5
 
 POTCAR:    PAW_PBE O 08Apr2002                   
  local pseudopotential read in
  partial core-charges read in
  partial kinetic energy density read in
  kinetic energy density of atom read in
  atomic valenz-charges read in
  non local Contribution for L=           0  read in
    real space projection operators read in
  non local Contribution for L=           0  read in
    real space projection operators read in
  non local Contribution for L=           1  read in
    real space projection operators read in
  non local Contribution for L=           1  read in
    real space projection operators read in
    PAW grid and wavefunctions read in
 
   number of l-projection  operators is LMAX  =           4
   number of lm-projection operators is LMMAX =           8
 
 POTCAR:    PAW_PBE Mg 13Apr2007                  
  local pseudopotential read in
  partial core-charges read in
  partial kinetic energy density read in
  atomic valenz-charges read in
  non local Contribution for L=           0  read in
    real space projection operators read in
  non local Contribution for L=           0  read in
    real space projection operators read in
  non local Contribution for L=           1  read in
    real space projection operators read in
  non local Contribution for L=           1  read in
    real space projection operators read in
  non local Contribution for L=           2  read in
    real space projection operators read in
    PAW grid and wavefunctions read in
 
   number of l-projection  operators is LMAX  =           5
   number of lm-projection operators is LMMAX =          13
 
 Optimization of the real space projectors (new method)

 maximal supplied QI-value         = 25.13
 optimisation between [QCUT,QGAM] = [ 16.09, 32.17] = [ 72.45,289.82] Ry 
 Optimized for a Real-space Cutoff    0.98 Angstroem

   l    n(q)    QCUT    max X(q) W(low)/X(q) W(high)/X(q)  e(spline) 
   0      9    16.085   115.676    0.97E-04    0.82E-04    0.14E-06
   0      9    16.085    87.132    0.96E-04    0.82E-04    0.14E-06
   1      9    16.085     4.429    0.14E-03    0.12E-03    0.10E-06
   1      9    16.085     2.733    0.11E-03    0.89E-04    0.96E-07
 Optimization of the real space projectors (new method)

 maximal supplied QI-value         = 34.20
 optimisation between [QCUT,QGAM] = [ 16.08, 32.15] = [ 72.37,289.48] Ry 
 Optimized for a Real-space Cutoff    0.90 Angstroem

   l    n(q)    QCUT    max X(q) W(low)/X(q) W(high)/X(q)  e(spline) 
   0      9    16.076    19.460    0.59E-04    0.17E-03    0.11E-06
   0      9    16.076    12.209    0.53E-04    0.16E-03    0.11E-06
   1      8    16.076     4.655    0.15E-03    0.16E-03    0.15E-06
 Optimization of the real space projectors (new method)

 maximal supplied QI-value         = 24.76
 optimisation between [QCUT,QGAM] = [ 16.09, 32.18] = [ 72.51,290.02] Ry 
 Optimized for a Real-space Cutoff    0.95 Angstroem

   l    n(q)    QCUT    max X(q) W(low)/X(q) W(high)/X(q)  e(spline) 
   0      9    16.091    20.381    0.21E-03    0.16E-03    0.13E-06
   0      9    16.091    15.268    0.23E-03    0.17E-03    0.14E-06
   1      9    16.091     5.964    0.15E-03    0.23E-03    0.12E-06
   1      9    16.091     5.382    0.12E-03    0.19E-03    0.11E-06
 Optimization of the real space projectors (new method)

 maximal supplied QI-value         = 18.90
 optimisation between [QCUT,QGAM] = [ 16.06, 32.31] = [ 72.25,292.41] Ry 
 Optimized for a Real-space Cutoff    1.14 Angstroem

   l    n(q)    QCUT    max X(q) W(low)/X(q) W(high)/X(q)  e(spline) 
   0     11    16.063    28.265    0.53E-04    0.32E-04    0.26E-06
   0     11    16.063    10.429    0.41E-04    0.26E-04    0.19E-06
   1     11    16.063    13.073    0.29E-04    0.84E-04    0.50E-06
   1     11    16.063     9.625    0.26E-04    0.67E-04    0.41E-06
   2     10    16.063     4.652    0.36E-04    0.11E-03    0.12E-06
  PAW_PBE C 08Apr2002                   :
 energy of atom  1       EATOM= -147.1560
 kinetic energy error for atom=    0.0010 (will be added to EATOM!!)
  PAW_PBE H 15Jun2001                   :
 energy of atom  2       EATOM=  -12.4884
 kinetic energy error for atom=    0.0001 (will be added to EATOM!!)
  PAW_PBE O 08Apr2002                   :
 energy of atom  3       EATOM= -432.3788
 kinetic energy error for atom=    0.0022 (will be added to EATOM!!)
  PAW_PBE Mg 13Apr2007                  :
 energy of atom  4       EATOM=  -23.0369
 kinetic energy error for atom=    0.0000 (will be added to EATOM!!)
 
 
 POSCAR:  C  H  O Mg
  positions in direct lattice
  No initial velocities read in
 exchange correlation table for  LEXCH =        8
   RHO(1)=    0.500       N(1)  =     2000
   RHO(2)=  100.500       N(2)  =     4000
 


--------------------------------------------------------------------------------------------------------


 ion  position               nearest neighbor table
   1  0.742  0.349  0.176-  32 1.27  31 1.29   2 1.49
   2  0.615  0.166  0.079-  16 1.40   3 1.43   1 1.49
   3  0.432  0.967  0.866-  33 1.35   4 1.40   2 1.43
   4  0.323  0.808  0.795-  25 1.09   3 1.40  14 1.40
   5  0.176  0.742  0.349-  35 1.27  34 1.29   6 1.49
   6  0.079  0.615  0.166-  20 1.40   7 1.43   5 1.49
   7  0.866  0.432  0.967-  36 1.35   8 1.40   6 1.43
   8  0.795  0.323  0.808-  26 1.09   7 1.40  18 1.40
   9  0.349  0.176  0.742-  38 1.27  37 1.29  10 1.49
  10  0.166  0.079  0.615-  24 1.40  11 1.43   9 1.49
  11  0.967  0.866  0.432-  39 1.35  12 1.40  10 1.43
  12  0.808  0.795  0.323-  27 1.09  11 1.40  22 1.40
  13  0.258  0.651  0.824-  41 1.27  40 1.29  14 1.49
  14  0.385  0.834  0.921-   4 1.40  15 1.43  13 1.49
  15  0.568  0.033  0.134-  42 1.35  16 1.40  14 1.43
  16  0.677  0.193  0.205-  28 1.09  15 1.40   2 1.40
  17  0.824  0.258  0.651-  44 1.27  43 1.29  18 1.49
  18  0.921  0.385  0.834-   8 1.40  19 1.43  17 1.49
  19  0.134  0.568  0.033-  45 1.35  20 1.40  18 1.43
  20  0.205  0.677  0.192-  29 1.09  19 1.40   6 1.40
  21  0.651  0.824  0.258-  47 1.27  46 1.29  22 1.49
  22  0.834  0.921  0.385-  12 1.40  23 1.43  21 1.49
  23  0.033  0.134  0.568-  48 1.35  24 1.40  22 1.43
  24  0.192  0.205  0.677-  30 1.09  23 1.40  10 1.40
  25  0.184  0.655  0.634-   4 1.09
  26  0.634  0.184  0.655-   8 1.09
  27  0.655  0.634  0.184-  12 1.09
  28  0.816  0.345  0.366-  16 1.09
  29  0.366  0.816  0.345-  20 1.09
  30  0.345  0.366  0.816-  24 1.09
  31  0.690  0.327  0.062-   1 1.29  50 2.02  49 2.08
  32  0.897  0.522  0.364-   1 1.27  51 2.04
  33  0.360  0.927  0.734-   3 1.35  51 2.02  49 2.04
  34  0.062  0.690  0.327-   5 1.29  51 2.02  50 2.08
  35  0.364  0.897  0.522-   5 1.27  49 2.04
  36  0.734  0.360  0.927-   7 1.35  49 2.02  50 2.04
  37  0.327  0.062  0.690-   9 1.29  49 2.02  51 2.08
  38  0.522  0.364  0.897-   9 1.27  50 2.04
  39  0.927  0.734  0.360-  11 1.35  50 2.02  51 2.04
  40  0.310  0.673  0.938-  13 1.29  53 2.02  52 2.08
  41  0.103  0.478  0.636-  13 1.27  54 2.04
  42  0.640  0.073  0.266-  15 1.35  54 2.02  52 2.04
  43  0.938  0.310  0.673-  17 1.29  54 2.02  53 2.08
  44  0.637  0.103  0.478-  17 1.27  52 2.04
  45  0.266  0.640  0.073-  19 1.35  52 2.02  53 2.04
  46  0.673  0.938  0.310-  21 1.29  52 2.02  54 2.08
  47  0.478  0.636  0.103-  21 1.27  53 2.04
  48  0.073  0.266  0.640-  23 1.35  53 2.02  54 2.04
  49  0.514  0.109  0.782-  37 2.02  36 2.02  33 2.04  35 2.04  31 2.08  50 2.94  51 2.94
  50  0.782  0.514  0.108-  31 2.02  39 2.02  36 2.04  38 2.04  34 2.08  49 2.94  51 2.94
  51  0.108  0.782  0.514-  34 2.02  33 2.02  39 2.04  32 2.04  37 2.08  49 2.94  50 2.94
  52  0.486  0.892  0.218-  46 2.02  45 2.02  42 2.04  44 2.04  40 2.08  54 2.94  53 2.94
  53  0.218  0.486  0.892-  40 2.02  48 2.02  45 2.04  47 2.04  43 2.08  54 2.94  52 2.94
  54  0.892  0.218  0.486-  43 2.02  42 2.02  48 2.04  41 2.04  46 2.08  52 2.94  53 2.94
 
  LATTYP: Found a trigonal (rhomboedric) cell.
 ALAT       =    15.2580629150
 COS(alpha) =    -0.4652854440
  
  Lattice vectors:
  
 A1 = (  15.2580133847,   0.0063748139,   0.0245793813)
 A2 = (  -7.1051429847,  13.5027912564,   0.0244990776)
 A3 = (  -7.1050972695, -11.7730711972,   6.6121759879)


Analysis of symmetry for initial positions (statically):
=====================================================================
 Subroutine PRICEL returns:
 Original cell was already a primitive cell.
 

 Routine SETGRP: Setting up the symmetry group for a 
 trigonal (rhombohedral) supercell.


 Subroutine GETGRP returns: Found  1 space group operations
 (whereof  1 operations were pure point group operations)
 out of a pool of 12 trial point group operations.


The static configuration has the point symmetry C_1 .


Analysis of symmetry for dynamics (positions and initial velocities):
=====================================================================
 Subroutine PRICEL returns:
 Original cell was already a primitive cell.
 

 Routine SETGRP: Setting up the symmetry group for a 
 trigonal (rhombohedral) supercell.


 Subroutine GETGRP returns: Found  1 space group operations
 (whereof  1 operations were pure point group operations)
 out of a pool of 12 trial point group operations.


The dynamic configuration has the point symmetry C_1 .


 Subroutine INISYM returns: Found  1 space group operations
 (whereof  1 operations are pure point group operations),
 and found     1 'primitive' translations


----------------------------------------------------------------------------------------

                                     Primitive cell                                     

  volume of cell :    1371.3921

  direct lattice vectors                    reciprocal lattice vectors
    15.258013385  0.006374814  0.024579381     0.065314117  0.034130566  0.130953070
    -7.105142985 13.502791256  0.024499078    -0.000241744  0.073693958  0.130953351
    -7.105097270-11.773071197  6.612175988    -0.000241896 -0.000399920  0.150264152

  length of vectors
    15.258034514 15.258080769 15.258062915     0.150264886  0.150265226  0.150264879

  position of ions in fractional coordinates (direct lattice)
     0.742014629  0.348856862  0.175631722
     0.614737524  0.165760157  0.079266010
     0.431866833  0.967146544  0.866357394
     0.323426239  0.807528718  0.795039545
     0.175643119  0.742030584  0.348836056
     0.079288672  0.614759186  0.165750997
     0.866378386  0.431887658  0.967136793
     0.795050085  0.323434695  0.807507662
     0.348844082  0.175654491  0.742009552
     0.165757245  0.079294396  0.614737504
     0.967146759  0.866386509  0.431869766
     0.807527866  0.795064117  0.323426635
     0.257997242  0.651177639  0.824359558
     0.385278725  0.834271091  0.920721278
     0.568151099  0.032884201  0.133630597
     0.676588120  0.192500595  0.204950051
     0.824378159  0.258021185  0.651163243
     0.920727875  0.385284889  0.834247949
     0.133651182  0.568172843  0.032877126
     0.204967516  0.676607365  0.192491024
     0.651166334  0.824380287  0.257996396
     0.834264817  0.920745497  0.385273715
     0.032884585  0.133658688  0.568147370
     0.192498695  0.204973580  0.676584145
     0.184346186  0.655111609  0.633967985
     0.633990768  0.184365023  0.655100302
     0.655100725  0.633992740  0.184340173
     0.815660221  0.344921385  0.366012712
     0.366025548  0.815668040  0.344893598
     0.344905088  0.366036147  0.815648698
     0.690035352  0.327096246  0.062389255
     0.897468252  0.521719207  0.363522843
     0.359899457  0.926825036  0.733650689
     0.062416671  0.690061449  0.327089376
     0.363540124  0.897494510  0.521700504
     0.733667396  0.359921155  0.926810583
     0.327098709  0.062430124  0.690049476
     0.521703281  0.363537920  0.897455141
     0.926814389  0.733676598  0.359892517
     0.309969235  0.672930044  0.937593791
     0.102540517  0.478317794  0.636472783
     0.640118158  0.073204996  0.266331859
     0.937620652  0.309979890  0.672925434
     0.636500080  0.102595403  0.478308979
     0.266360937  0.640148723  0.073196549
     0.672927425  0.937623414  0.309972911
     0.478307570  0.636484145  0.102544947
     0.073202609  0.266366054  0.640108405
     0.514132669  0.108518374  0.782412062
     0.782415681  0.514143460  0.108492112
     0.108499851  0.782421723  0.514119197
     0.485895590  0.891540695  0.217600628
     0.217613719  0.485909109  0.891517919
     0.891519652  0.217610760  0.485881812

  ion indices of the primitive-cell ions
   primitive index   ion index
                 1           1
                 2           2
                 3           3
                 4           4
                 5           5
                 6           6
                 7           7
                 8           8
                 9           9
                10          10
                11          11
                12          12
                13          13
                14          14
                15          15
                16          16
                17          17
                18          18
                19          19
                20          20
                21          21
                22          22
                23          23
                24          24
                25          25
                26          26
                27          27
                28          28
                29          29
                30          30
                31          31
                32          32
                33          33
                34          34
                35          35
                36          36
                37          37
                38          38
                39          39
                40          40
                41          41
                42          42
                43          43
                44          44
                45          45
                46          46
                47          47
                48          48
                49          49
                50          50
                51          51
                52          52
                53          53
                54          54

----------------------------------------------------------------------------------------

 
 
 KPOINTS: KPOINTS                                 

Automatic generation of k-mesh.
 Grid dimensions read from file:
 generate k-points for:    1    1    1

 Generating k-lattice:

  Cartesian coordinates                     Fractional coordinates (reciprocal lattice)
     0.065314117  0.034130566  0.130953070     1.000000000  0.000000000  0.000000000
    -0.000241744  0.073693958  0.130953351     0.000000000  1.000000000  0.000000000
    -0.000241896 -0.000399920  0.150264152     0.000000000 -0.000000000  1.000000000

  Length of vectors
     0.150264886  0.150265226  0.150264879

  Shift w.r.t. Gamma in fractional coordinates (k-lattice)
     0.000000000  0.000000000  0.000000000

 
 Subroutine IBZKPT returns following result:
 ===========================================
 
 Found      1 irreducible k-points:
 
 Following reciprocal coordinates:
            Coordinates               Weight
  0.000000  0.000000  0.000000      1.000000
 
 Following cartesian coordinates:
            Coordinates               Weight
  0.000000  0.000000  0.000000      1.000000
 


--------------------------------------------------------------------------------------------------------




 Dimension of arrays:
   k-points           NKPTS =      1   k-points in BZ     NKDIM =      1   number of bands    NBANDS=    160
   number of dos      NEDOS =    301   number of ions     NIONS =     54
   non local maximal  LDIM  =      5   non local SUM 2l+1 LMDIM =     13
   total plane-waves  NPLWV = ******
   max r-space proj   IRMAX =  18547   max aug-charges    IRDMAX= 127061
   dimension x,y,z NGX =   160 NGY =  160 NGZ =  160
   dimension x,y,z NGXF=   320 NGYF=  320 NGZF=  320
   support grid    NGXF=   320 NGYF=  320 NGZF=  320
   ions per type =              24   6  18   6
   NGX,Y,Z   is equivalent  to a cutoff of  17.43, 17.43, 17.43 a.u.
   NGXF,Y,Z  is equivalent  to a cutoff of  34.87, 34.87, 34.87 a.u.

 SYSTEM =  MOF                                     
 POSCAR =   C  H  O Mg                             

 Startparameter for this run:
   NWRITE =      1    write-flag & timer
   PREC   = accura    normal or accurate (medium, high low for compatibility)
   ISTART =      0    job   : 0-new  1-cont  2-samecut
   ICHARG =      2    charge: 1-file 2-atom 10-const
   ISPIN  =      1    spin polarized calculation?
   LNONCOLLINEAR =      F non collinear calculations
   LSORBIT =      F    spin-orbit coupling
   INIWAV =      1    electr: 0-lowe 1-rand  2-diag
   LASPH  =      F    aspherical Exc in radial PAW
 Electronic Relaxation 1
   ENCUT  = 1000.0 eV  73.50 Ry    8.57 a.u.  39.34 39.34 39.34*2*pi/ulx,y,z
   ENINI  = 1000.0     initial cutoff
   ENAUG  =  644.9 eV  augmentation charge cutoff
   NELM   =    500;   NELMIN=  2; NELMDL= -5     # of ELM steps 
   EDIFF  = 0.1E-06   stopping-criterion for ELM
   LREAL  =      T    real-space projection
   NLSPLINE    = F    spline interpolate recip. space projectors
   LCOMPAT=      F    compatible to vasp.4.4
   GGA_COMPAT  = T    GGA compatible to vasp.4.4-vasp.4.6
   LMAXPAW     = -100 max onsite density
   LMAXMIX     =    2 max onsite mixed and CHGCAR
   VOSKOWN=      0    Vosko Wilk Nusair interpolation
   ROPT   =   -0.00025  -0.00025  -0.00025  -0.00025
 Ionic relaxation
   EDIFFG = 0.1E-05   stopping-criterion for IOM
   NSW    =      0    number of steps for IOM
   NBLOCK =      1;   KBLOCK =      1    inner block; outer block 
   IBRION =     -1    ionic relax: 0-MD 1-quasi-New 2-CG
   NFREE  =      0    steps in history (QN), initial steepest desc. (CG)
   ISIF   =      2    stress and relaxation
   IWAVPR =     10    prediction:  0-non 1-charg 2-wave 3-comb
   ISYM   =      2    0-nonsym 1-usesym 2-fastsym
   LCORR  =      T    Harris-Foulkes like correction to forces

   POTIM  = 0.5000    time-step for ionic-motion
   TEIN   =    0.0    initial temperature
   TEBEG  =    0.0;   TEEND  =   0.0 temperature during run
   SMASS  =  -3.00    Nose mass-parameter (am)
   estimated Nose-frequenzy (Omega)   =  0.10E-29 period in steps = 0.13E+47 mass=  -0.532E-26a.u.
   SCALEE = 1.0000    scale energy and forces
   NPACO  =    256;   APACO  = 10.0  distance and # of slots for P.C.
   PSTRESS=    0.0 pullay stress

  Mass of Ions in am
   POMASS =  12.01  1.00 16.00 24.30
  Ionic Valenz
   ZVAL   =   4.00  1.00  6.00  2.00
  Atomic Wigner-Seitz radii
   RWIGS  =  -1.00 -1.00 -1.00 -1.00
  virtual crystal weights 
   VCA    =   1.00  1.00  1.00  1.00
   NELECT =     222.0000    total number of electrons
   NUPDOWN=      -1.0000    fix difference up-down

 DOS related values:
   EMIN   =  10.00;   EMAX   =-10.00  energy-range for DOS
   EFERMI =   0.00
   ISMEAR =     0;   SIGMA  =   0.10  broadening in eV -4-tet -1-fermi 0-gaus

 Electronic relaxation 2 (details)
   IALGO  =     58    algorithm
   LDIAG  =      T    sub-space diagonalisation (order eigenvalues)
   LSUBROT=      F    optimize rotation matrix (better conditioning)
   TURBO    =      0    0=normal 1=particle mesh
   IRESTART =      0    0=no restart 2=restart with 2 vectors
   NREBOOT  =      0    no. of reboots
   NMIN     =      0    reboot dimension
   EREF     =   0.00    reference energy to select bands
   IMIX   =      4    mixing-type and parameters
     AMIX     =   0.40;   BMIX     =  1.00
     AMIX_MAG =   1.60;   BMIX_MAG =  1.00
     AMIN     =   0.10
     WC   =   100.;   INIMIX=   1;  MIXPRE=   1;  MAXMIX= -45

 Intra band minimization:
   WEIMIN = 0.0000     energy-eigenvalue tresh-hold
   EBREAK =  0.16E-09  absolut break condition
   DEPER  =   0.30     relativ break condition  

   TIME   =   0.05     timestep for ELM

  volume/ion in A,a.u.               =      25.40       171.38
  Fermi-wavevector in a.u.,A,eV,Ry     =   0.892220  1.686051 10.831006  0.796057
  Thomas-Fermi vector in A             =   2.014141
 
 Write flags
   LWAVE        =      T    write WAVECAR
   LDOWNSAMPLE  =      F    k-point downsampling of WAVECAR
   LCHARG       =      T    write CHGCAR
   LVTOT        =      F    write LOCPOT, total local potential
   LVHAR        =      F    write LOCPOT, Hartree potential only
   LELF         =      F    write electronic localiz. function (ELF)
   LORBIT       =      0    0 simple, 1 ext, 2 COOP (PROOUT), +10 PAW based schemes


 Dipole corrections
   LMONO  =      F    monopole corrections only (constant potential shift)
   LDIPOL =      F    correct potential (dipole corrections)
   IDIPOL =      0    1-x, 2-y, 3-z, 4-all directions 
   EPSILON=  1.0000000 bulk dielectric constant

 Exchange correlation treatment:
   GGA     =    --    GGA type
   LEXCH   =     8    internal setting for exchange type
   LIBXC   =     F    Libxc                    
   VOSKOWN =     0    Vosko Wilk Nusair interpolation
   LHFCALC =     F    Hartree Fock is set to
   LHFONE  =     F    Hartree Fock one center treatment
   AEXX    =    0.0000 exact exchange contribution

 Linear response parameters
   LEPSILON=     F    determine dielectric tensor
   LRPA    =     F    only Hartree local field effects (RPA)
   LNABLA  =     F    use nabla operator in PAW spheres
   LVEL    =     F    velocity operator in full k-point grid
   CSHIFT  =0.1000    complex shift for real part using Kramers Kronig
   OMEGAMAX=  -1.0    maximum frequency
   DEG_THRESHOLD= 0.2000000E-02 threshold for treating states as degnerate
   RTIME   =   -0.100 relaxation time in fs
  (WPLASMAI=    0.000 imaginary part of plasma frequency in eV, 0.658/RTIME)
   DFIELD  = 0.0000000 0.0000000 0.0000000 field for delta impulse in time
 
  Optional k-point grid parameters
   LKPOINTS_OPT  =     F    use optional k-point grid
   KPOINTS_OPT_MODE=     1    mode for optional k-point grid
 
 Orbital magnetization related:
   ORBITALMAG=     F  switch on orbital magnetization
   LCHIMAG   =     F  perturbation theory with respect to B field
   DQ        =  0.001000  dq finite difference perturbation B field
   LLRAUG    =     F  two centre corrections for induced B field



--------------------------------------------------------------------------------------------------------


 Static calculation
 charge density and potential will be updated during run
 non-spin polarized calculation
 Conjugate gradient for all bands (Freysoldt, et al. PRB 79, 241103 (2009))
 preconditioned conjugated gradient                                        
 perform sub-space diagonalisation
    before iterative eigenvector-optimisation
 modified Broyden-mixing scheme, WC =      100.0
 initial mixing is a Kerker type mixing with AMIX =  0.4000 and BMIX =      1.0000
 Hartree-type preconditioning will be used
 using additional bands           49
 real space projection scheme for non local part
 use partial core corrections
 no Harris-corrections to forces 
 use gradient corrections 
 use of overlap-Matrix (Vanderbilt PP)
 Gauss-broadening in eV      SIGMA  =   0.10


--------------------------------------------------------------------------------------------------------


  energy-cutoff  :     1000.00
  volume of cell :     1371.39
      direct lattice vectors                 reciprocal lattice vectors
    15.258013385  0.006374814  0.024579381     0.065314117  0.034130566  0.130953070
    -7.105142985 13.502791256  0.024499078    -0.000241744  0.073693958  0.130953351
    -7.105097270-11.773071197  6.612175988    -0.000241896 -0.000399920  0.150264152

  length of vectors
    15.258034514 15.258080769 15.258062915     0.150264886  0.150265226  0.150264879


 
 k-points in units of 2pi/SCALE and weight: KPOINTS                                 
   0.00000000  0.00000000  0.00000000       1.000
 
 k-points in reciprocal lattice and weights: KPOINTS                                 
   0.00000000  0.00000000  0.00000000       1.000
 
 position of ions in fractional coordinates (direct lattice) 
   0.74201463  0.34885686  0.17563172
   0.61473752  0.16576016  0.07926601
   0.43186683  0.96714654  0.86635739
   0.32342624  0.80752872  0.79503954
   0.17564312  0.74203058  0.34883606
   0.07928867  0.61475919  0.16575100
   0.86637839  0.43188766  0.96713679
   0.79505009  0.32343470  0.80750766
   0.34884408  0.17565449  0.74200955
   0.16575725  0.07929440  0.61473750
   0.96714676  0.86638651  0.43186977
   0.80752787  0.79506412  0.32342664
   0.25799724  0.65117764  0.82435956
   0.38527872  0.83427109  0.92072128
   0.56815110  0.03288420  0.13363060
   0.67658812  0.19250060  0.20495005
   0.82437816  0.25802118  0.65116324
   0.92072788  0.38528489  0.83424795
   0.13365118  0.56817284  0.03287713
   0.20496752  0.67660737  0.19249102
   0.65116633  0.82438029  0.25799640
   0.83426482  0.92074550  0.38527371
   0.03288459  0.13365869  0.56814737
   0.19249870  0.20497358  0.67658414
   0.18434619  0.65511161  0.63396798
   0.63399077  0.18436502  0.65510030
   0.65510072  0.63399274  0.18434017
   0.81566022  0.34492138  0.36601271
   0.36602555  0.81566804  0.34489360
   0.34490509  0.36603615  0.81564870
   0.69003535  0.32709625  0.06238926
   0.89746825  0.52171921  0.36352284
   0.35989946  0.92682504  0.73365069
   0.06241667  0.69006145  0.32708938
   0.36354012  0.89749451  0.52170050
   0.73366740  0.35992116  0.92681058
   0.32709871  0.06243012  0.69004948
   0.52170328  0.36353792  0.89745514
   0.92681439  0.73367660  0.35989252
   0.30996923  0.67293004  0.93759379
   0.10254052  0.47831779  0.63647278
   0.64011816  0.07320500  0.26633186
   0.93762065  0.30997989  0.67292543
   0.63650008  0.10259540  0.47830898
   0.26636094  0.64014872  0.07319655
   0.67292743  0.93762341  0.30997291
   0.47830757  0.63648415  0.10254495
   0.07320261  0.26636605  0.64010841
   0.51413267  0.10851837  0.78241206
   0.78241568  0.51414346  0.10849211
   0.10849985  0.78242172  0.51411920
   0.48589559  0.89154069  0.21760063
   0.21761372  0.48590911  0.89151792
   0.89151965  0.21761076  0.48588181
 
 position of ions in cartesian coordinates  (Angst):
   7.59511078  2.64754683  1.18809279
   7.63873105  1.30893925  0.54329165
  -6.43783813  2.86224369  5.76281678
  -6.45159843  1.54589633  5.28467471
  -5.07078245  5.91373205  2.32906165
  -4.33584125  6.35007213  1.11298466
   3.27898846 -5.54895842  6.42675457
   4.09541460 -5.13450572  5.36684846
  -1.19743264 -6.36168155  4.91917549
  -2.40204151 -6.16559605  4.07076941
   5.53246148  6.62036805  2.90059644
   4.37424905  6.93300785  2.17788070
  -6.54733970 -0.91088336  5.47310514
  -6.59084169  0.42772732  6.11787991
   7.48575173 -1.12559217  0.89835946
   7.49945629  0.19071693  1.37651201
   6.11851738 -4.17692977  4.33218995
   5.38356119 -4.61336960  5.54826430
  -2.23129294  7.28570654  0.23459412
  -3.04766241  6.87118412  1.29439876
   2.24507534  8.09817606  1.74211940
   3.44978811  7.90209766  2.59056074
  -4.48465298 -4.88386445  3.76077320
  -3.32641508 -5.19653070  4.48344660
  -6.34630927  1.38326026  4.21248863
   3.70894842 -5.21905851  4.35173836
   4.18117170  6.39459778  1.25052387
   7.39408289  0.35350742  2.44863915
  -2.66111790  6.95567174  2.30947696
  -3.13343604 -4.65798180  5.41065783
   7.76122131  3.68659803  0.43750293
   7.40382788  2.77060643  2.43851787
  -6.30653318  3.87969749  4.88257993
  -6.27463269  5.46730709  2.18121255
  -4.53665957  5.97898135  3.48049893
   2.05193633 -6.04678976  6.15508551
  -0.35556713 -7.27893549  4.57229794
  -0.99933933 -5.65370086  5.95586082
   6.37139789  5.67555000  2.42042758
  -6.71344453 -1.94994854  6.22364017
  -6.35615277 -1.03396038  4.22270878
   7.35448569 -2.14299152  1.77856029
   7.32257635 -3.73082814  4.48014175
   5.58433991 -4.24178379  3.18082142
  -1.00427807  7.78374439  0.50621851
   1.40319956  9.01548987  2.08910649
   2.04712062  7.39009271  0.70539501
  -5.32367499 -3.93888995  4.24083442
   1.51449077 -7.74281446  5.18874191
   7.51419913  5.67007421  0.74919627
  -7.55659294  4.51280695  3.42128208
  -0.46679633  9.47955771  1.47259858
  -6.46642219 -3.93338742  5.91212651
   8.60442569 -2.77628522  3.23998031
 


--------------------------------------------------------------------------------------------------------


 use serial FFT for orbitals x direction half grid
 k-point   1 :   0.0000 0.0000 0.0000  plane waves:   49218

 maximum and minimum number of plane-waves per node :     49218    49218

 maximum number of plane-waves:     49218
 maximum index in each direction: 
   IXMAX=   39   IYMAX=   34   IZMAX=   34
   IXMIN=    0   IYMIN=  -39   IZMIN=  -39


 serial   3D FFT for wavefunctions
 parallel 3D FFT for charge:
    minimum data exchange during FFTs selected (reduces bandwidth)


 total amount of memory used by VASP MPI-rank0   354938. kBytes
=======================================================================

   base      :      30000. kBytes
   nonlr-proj:      47485. kBytes
   fftplans  :      44218. kBytes
   grid      :     223518. kBytes
   one-center:        219. kBytes
   wavefun   :       9498. kBytes
 
     INWAV:  cpu time      0.0001: real time      0.0004
 Broyden mixing: mesh for mixing (old mesh)
   NGX = 79   NGY = 79   NGZ = 79
  (NGX  =320   NGY  =320   NGZ  =320)
  gives a total of 493039 points

 initial charge density was supplied:
 charge density of overlapping atoms calculated
 number of electron     222.0000000 magnetization 
 keeping initial charge density in first step


--------------------------------------------------------------------------------------------------------


 Maximum index for non-local projection operator        17929
 Maximum index for augmentation-charges         3172 (set IRDMAX)


--------------------------------------------------------------------------------------------------------


 First call to EWALD:  gamma=   0.160
 Maximum number of real-space cells 4x 4x 4
 Maximum number of reciprocal cells 4x 4x 4

    FEWALD:  cpu time      0.0031: real time      0.0031


--------------------------------------- Iteration      1(   1)  ---------------------------------------


    POTLOK:  cpu time      0.8245: real time      0.8316
    SETDIJ:  cpu time      0.0626: real time      0.0627
    TRIAL :  cpu time      3.5672: real time      3.6168
    CORREC:  cpu time      0.0003: real time      0.0003
    --------------------------------------------
      LOOP:  cpu time      4.4624: real time      4.5218

 eigenvalue-minimisations  :   320
 total energy-change (2. order) : 0.3019962E+04  (-0.1558446E+05)
 number of electron     222.0000000 magnetization 
 augmentation part      222.0000000 magnetization 

 Free energy of the ion-electron system (eV)
  ---------------------------------------------------
  alpha Z        PSCENC =       171.49134797
  Ewald energy   TEWEN  =      9959.13138061
  -Hartree energ DENC   =    -19698.37978568
  -exchange      EXHF   =         0.00000000
  -V(xc)+E(xc)   XCENC  =       536.38216156
  PAW double counting   =      9247.06403337    -8981.98269228
  entropy T*S    EENTRO =        -0.11167269
  eigenvalues    EBANDS =       258.71500161
  atomic energy  EATOM  =     11527.65184868
  ---------------------------------------------------
  free energy    TOTEN  =      3019.96162316 eV

  energy without entropy =     3020.07329585  energy(sigma->0) =     3020.01745950


--------------------------------------------------------------------------------------------------------




--------------------------------------- Iteration      1(   2)  ---------------------------------------


    TRIAL :  cpu time      5.4511: real time      5.4758
    CORREC:  cpu time      0.0001: real time      0.0001
    --------------------------------------------
      LOOP:  cpu time      5.4546: real time      5.4853

 eigenvalue-minimisations  :   560
 total energy-change (2. order) :-0.3015748E+04  (-0.2899652E+04)
 number of electron     222.0000000 magnetization 
 augmentation part      222.0000000 magnetization 

 Free energy of the ion-electron system (eV)
  ---------------------------------------------------
  alpha Z        PSCENC =       171.49134797
  Ewald energy   TEWEN  =      9959.13138061
  -Hartree energ DENC   =    -19698.37978568
  -exchange      EXHF   =         0.00000000
  -V(xc)+E(xc)   XCENC  =       536.38216156
  PAW double counting   =      9247.06403337    -8981.98269228
  entropy T*S    EENTRO =        -0.00000000
  eigenvalues    EBANDS =     -2757.14494984
  atomic energy  EATOM  =     11527.65184868
  ---------------------------------------------------
  free energy    TOTEN  =         4.21334440 eV

  energy without entropy =        4.21334440  energy(sigma->0) =        4.21334440


--------------------------------------------------------------------------------------------------------




--------------------------------------- Iteration      1(   3)  ---------------------------------------


    TRIAL :  cpu time      4.1604: real time      4.1749
    CORREC:  cpu time      0.0001: real time      0.0001
    --------------------------------------------
      LOOP:  cpu time      4.1632: real time      4.1846

 eigenvalue-minimisations  :   400
 total energy-change (2. order) :-0.4221619E+03  (-0.4198163E+03)
 number of electron     222.0000000 magnetization 
 augmentation part      222.0000000 magnetization 

 Free energy of the ion-electron system (eV)
  ---------------------------------------------------
  alpha Z        PSCENC =       171.49134797
  Ewald energy   TEWEN  =      9959.13138061
  -Hartree energ DENC   =    -19698.37978568
  -exchange      EXHF   =         0.00000000
  -V(xc)+E(xc)   XCENC  =       536.38216156
  PAW double counting   =      9247.06403337    -8981.98269228
  entropy T*S    EENTRO =        -0.00000000
  eigenvalues    EBANDS =     -3179.30680739
  atomic energy  EATOM  =     11527.65184868
  ---------------------------------------------------
  free energy    TOTEN  =      -417.94851315 eV

  energy without entropy =     -417.94851315  energy(sigma->0) =     -417.94851315


--------------------------------------------------------------------------------------------------------




--------------------------------------- Iteration      1(   4)  ---------------------------------------


    TRIAL :  cpu time      4.1649: real time      4.1940
    CORREC:  cpu time      0.0001: real time      0.0001
    --------------------------------------------
      LOOP:  cpu time      4.1661: real time      4.2039

 eigenvalue-minimisations  :   400
 total energy-change (2. order) :-0.1164997E+02  (-0.1162212E+02)
 number of electron     222.0000000 magnetization 
 augmentation part      222.0000000 magnetization 

 Free energy of the ion-electron system (eV)
  ---------------------------------------------------
  alpha Z        PSCENC =       171.49134797
  Ewald energy   TEWEN  =      9959.13138061
  -Hartree energ DENC   =    -19698.37978568
  -exchange      EXHF   =         0.00000000
  -V(xc)+E(xc)   XCENC  =       536.38216156
  PAW double counting   =      9247.06403337    -8981.98269228
  entropy T*S    EENTRO =        -0.00000000
  eigenvalues    EBANDS =     -3190.95678045
  atomic energy  EATOM  =     11527.65184868
  ---------------------------------------------------
  free energy    TOTEN  =      -429.59848622 eV

  energy without entropy =     -429.59848622  energy(sigma->0) =     -429.59848622


--------------------------------------------------------------------------------------------------------




--------------------------------------- Iteration      1(   5)  ---------------------------------------


    TRIAL :  cpu time      4.8008: real time      4.8654
    CORREC:  cpu time      0.0001: real time      0.0001
    CHARGE:  cpu time      0.6041: real time      0.6073
    --------------------------------------------
      LOOP:  cpu time      5.4057: real time      5.4803

 eigenvalue-minimisations  :   480
 total energy-change (2. order) :-0.3032582E+00  (-0.3032039E+00)
 number of electron     222.0000002 magnetization 
 augmentation part       16.3334738 magnetization 

 Free energy of the ion-electron system (eV)
  ---------------------------------------------------
  alpha Z        PSCENC =       171.49134797
  Ewald energy   TEWEN  =      9959.13138061
  -Hartree energ DENC   =    -19698.37978568
  -exchange      EXHF   =         0.00000000
  -V(xc)+E(xc)   XCENC  =       536.38216156
  PAW double counting   =      9247.06403337    -8981.98269228
  entropy T*S    EENTRO =        -0.00000000
  eigenvalues    EBANDS =     -3191.26003863
  atomic energy  EATOM  =     11527.65184868
  ---------------------------------------------------
  free energy    TOTEN  =      -429.90174439 eV

  energy without entropy =     -429.90174439  energy(sigma->0) =     -429.90174439


--------------------------------------------------------------------------------------------------------




--------------------------------------- Iteration      1(   6)  ---------------------------------------


    POTLOK:  cpu time      0.6984: real time      0.7400
    SETDIJ:  cpu time      0.0608: real time      0.0610
    TRIAL :  cpu time      2.2627: real time      2.2708
    CORREC:  cpu time      7.5381: real time      7.8085
    CHARGE:  cpu time      0.7226: real time      0.7903
    --------------------------------------------
      LOOP:  cpu time     11.2861: real time     11.6808

 eigenvalue-minimisations  :     0
 total energy-change (2. order) : 0.7939026E+02  (-0.2303593E+01)
 number of electron     222.0000002 magnetization 
 augmentation part       14.6826985 magnetization 

 Free energy of the ion-electron system (eV)
  ---------------------------------------------------
  alpha Z        PSCENC =       171.49134797
  Ewald energy   TEWEN  =      9959.13138061
  -Hartree energ DENC   =    -21263.92822666
  -exchange      EXHF   =         0.00000000
  -V(xc)+E(xc)   XCENC  =       613.47117193
  PAW double counting   =     19548.74355133   -19301.67104610
  entropy T*S    EENTRO =        -0.00000000
  eigenvalues    EBANDS =     -1605.40151303
  atomic energy  EATOM  =     11527.65184868
  ---------------------------------------------------
  free energy    TOTEN  =      -350.51148525 eV

  energy without entropy =     -350.51148525  energy(sigma->0) =     -350.51148525


--------------------------------------------------------------------------------------------------------




--------------------------------------- Iteration      1(   7)  ---------------------------------------


    POTLOK:  cpu time      0.7242: real time      0.7472
    SETDIJ:  cpu time      0.0595: real time      0.0598
    TRIAL :  cpu time      2.2493: real time      2.2687
    CORREC:  cpu time      7.3887: real time      7.4480
    CHARGE:  cpu time      0.5987: real time      0.6005
    --------------------------------------------
      LOOP:  cpu time     11.0319: real time     11.1479

 eigenvalue-minimisations  :     0
 total energy-change (2. order) :-0.3666410E+02  (-0.2892845E-01)
 number of electron     222.0000002 magnetization 
 augmentation part       14.2090334 magnetization 

 Free energy of the ion-electron system (eV)
  ---------------------------------------------------
  alpha Z        PSCENC =       171.49134797
  Ewald energy   TEWEN  =      9959.13138061
  -Hartree energ DENC   =    -20563.40196325
  -exchange      EXHF   =         0.00000000
  -V(xc)+E(xc)   XCENC  =       577.22034900
  PAW double counting   =     19093.09723227   -18838.29516985
  entropy T*S    EENTRO =        -0.00000000
  eigenvalues    EBANDS =     -2314.07060781
  atomic energy  EATOM  =     11527.65184868
  ---------------------------------------------------
  free energy    TOTEN  =      -387.17558237 eV

  energy without entropy =     -387.17558237  energy(sigma->0) =     -387.17558237


--------------------------------------------------------------------------------------------------------




--------------------------------------- Iteration      1(   8)  ---------------------------------------


    POTLOK:  cpu time      0.7205: real time      0.7303
    SETDIJ:  cpu time      0.0600: real time      0.0601
    TRIAL :  cpu time      2.2446: real time      2.2636
    CORREC:  cpu time      1.8425: real time      1.8572
    CHARGE:  cpu time      0.5973: real time      0.5991
    --------------------------------------------
      LOOP:  cpu time      5.4678: real time      5.5199

 eigenvalue-minimisations  :     0
 total energy-change (2. order) :-0.3651865E+01  (-0.1348460E+01)
 number of electron     222.0000002 magnetization 
 augmentation part       14.1226803 magnetization 

 Free energy of the ion-electron system (eV)
  ---------------------------------------------------
  alpha Z        PSCENC =       171.49134797
  Ewald energy   TEWEN  =      9959.13138061
  -Hartree energ DENC   =    -20530.25474968
  -exchange      EXHF   =         0.00000000
  -V(xc)+E(xc)   XCENC  =       574.59943456
  PAW double counting   =     19277.73035132   -19019.86911313
  entropy T*S    EENTRO =        -0.00000000
  eigenvalues    EBANDS =     -2351.30794782
  atomic energy  EATOM  =     11527.65184868
  ---------------------------------------------------
  free energy    TOTEN  =      -390.82744749 eV

  energy without entropy =     -390.82744749  energy(sigma->0) =     -390.82744749


--------------------------------------------------------------------------------------------------------




--------------------------------------- Iteration      1(   9)  ---------------------------------------


    POTLOK:  cpu time      0.7211: real time      0.7301
    SETDIJ:  cpu time      0.0595: real time      0.0598
    TRIAL :  cpu time      2.2184: real time      2.2771
    CORREC:  cpu time      1.8446: real time      1.8586
    CHARGE:  cpu time      0.5991: real time      0.6010
    --------------------------------------------
      LOOP:  cpu time      5.4446: real time      5.5354

 eigenvalue-minimisations  :     0
 total energy-change (2. order) :-0.1312160E+01  (-0.6259748E+00)
 number of electron     222.0000002 magnetization 
 augmentation part       14.1794120 magnetization 

 Free energy of the ion-electron system (eV)
  ---------------------------------------------------
  alpha Z        PSCENC =       171.49134797
  Ewald energy   TEWEN  =      9959.13138061
  -Hartree energ DENC   =    -20521.29000530
  -exchange      EXHF   =         0.00000000
  -V(xc)+E(xc)   XCENC  =       573.82974782
  PAW double counting   =     19400.29198156   -19141.85890076
  entropy T*S    EENTRO =        -0.00000000
  eigenvalues    EBANDS =     -2361.38700826
  atomic energy  EATOM  =     11527.65184868
  ---------------------------------------------------
  free energy    TOTEN  =      -392.13960768 eV

  energy without entropy =     -392.13960768  energy(sigma->0) =     -392.13960768


--------------------------------------------------------------------------------------------------------




--------------------------------------- Iteration      1(  10)  ---------------------------------------


    POTLOK:  cpu time      0.7297: real time      0.7320
    SETDIJ:  cpu time      0.0596: real time      0.0598
    TRIAL :  cpu time      2.1984: real time      2.3000
    CORREC:  cpu time      1.8536: real time      1.8665
    CHARGE:  cpu time      0.5902: real time      0.6035
    --------------------------------------------
      LOOP:  cpu time      5.4331: real time      5.5725

 eigenvalue-minimisations  :     0
 total energy-change (2. order) :-0.6176977E+00  (-0.2247126E+00)
 number of electron     222.0000002 magnetization 
 augmentation part       14.2234649 magnetization 

 Free energy of the ion-electron system (eV)
  ---------------------------------------------------
  alpha Z        PSCENC =       171.49134797
  Ewald energy   TEWEN  =      9959.13138061
  -Hartree energ DENC   =    -20523.89987440
  -exchange      EXHF   =         0.00000000
  -V(xc)+E(xc)   XCENC  =       574.23378174
  PAW double counting   =     19432.48521010   -19174.35699071
  entropy T*S    EENTRO =        -0.00000000
  eigenvalues    EBANDS =     -2359.49400935
  atomic energy  EATOM  =     11527.65184868
  ---------------------------------------------------
  free energy    TOTEN  =      -392.75730537 eV

  energy without entropy =     -392.75730537  energy(sigma->0) =     -392.75730537


--------------------------------------------------------------------------------------------------------




--------------------------------------- Iteration      1(  11)  ---------------------------------------


    POTLOK:  cpu time      0.7354: real time      0.7377
    SETDIJ:  cpu time      0.0603: real time      0.0606
    TRIAL :  cpu time      2.2463: real time      2.2672
    CORREC:  cpu time      1.8553: real time      1.8715
    CHARGE:  cpu time      0.5994: real time      0.6016
    --------------------------------------------
      LOOP:  cpu time      5.4977: real time      5.5484

 eigenvalue-minimisations  :     0
 total energy-change (2. order) :-0.2233515E+00  (-0.7324584E-01)
 number of electron     222.0000002 magnetization 
 augmentation part       14.2237837 magnetization 

 Free energy of the ion-electron system (eV)
  ---------------------------------------------------
  alpha Z        PSCENC =       171.49134797
  Ewald energy   TEWEN  =      9959.13138061
  -Hartree energ DENC   =    -20525.10723854
  -exchange      EXHF   =         0.00000000
  -V(xc)+E(xc)   XCENC  =       574.53411102
  PAW double counting   =     19402.85476739   -19144.97980904
  entropy T*S    EENTRO =        -0.00000000
  eigenvalues    EBANDS =     -2358.55706494
  atomic energy  EATOM  =     11527.65184868
  ---------------------------------------------------
  free energy    TOTEN  =      -392.98065684 eV

  energy without entropy =     -392.98065684  energy(sigma->0) =     -392.98065684


--------------------------------------------------------------------------------------------------------




--------------------------------------- Iteration      1(  12)  ---------------------------------------


    POTLOK:  cpu time      0.7279: real time      0.7405
    SETDIJ:  cpu time      0.0603: real time      0.0607
    TRIAL :  cpu time      2.2525: real time      2.2683
    CORREC:  cpu time      1.8478: real time      1.8644
    CHARGE:  cpu time      0.6010: real time      0.6027
    --------------------------------------------
      LOOP:  cpu time      5.4927: real time      5.5465

 eigenvalue-minimisations  :     0
 total energy-change (2. order) :-0.7309329E-01  (-0.1973716E-01)
 number of electron     222.0000002 magnetization 
 augmentation part       14.2211746 magnetization 

 Free energy of the ion-electron system (eV)
  ---------------------------------------------------
  alpha Z        PSCENC =       171.49134797
  Ewald energy   TEWEN  =      9959.13138061
  -Hartree energ DENC   =    -20514.26415146
  -exchange      EXHF   =         0.00000000
  -V(xc)+E(xc)   XCENC  =       574.01376251
  PAW double counting   =     19355.96894613   -19098.17597763
  entropy T*S    EENTRO =        -0.00000000
  eigenvalues    EBANDS =     -2368.87090694
  atomic energy  EATOM  =     11527.65184868
  ---------------------------------------------------
  free energy    TOTEN  =      -393.05375013 eV

  energy without entropy =     -393.05375013  energy(sigma->0) =     -393.05375013


--------------------------------------------------------------------------------------------------------




--------------------------------------- Iteration      1(  13)  ---------------------------------------


    POTLOK:  cpu time      0.7236: real time      0.7355
    SETDIJ:  cpu time      0.0594: real time      0.0596
    TRIAL :  cpu time      2.2479: real time      2.2668
    CORREC:  cpu time      1.8435: real time      1.8726
    CHARGE:  cpu time      0.6002: real time      0.6025
    --------------------------------------------
      LOOP:  cpu time      5.4758: real time      5.5459

 eigenvalue-minimisations  :     0
 total energy-change (2. order) :-0.1973939E-01  (-0.5522547E-02)
 number of electron     222.0000002 magnetization 
 augmentation part       14.2245550 magnetization 

 Free energy of the ion-electron system (eV)
  ---------------------------------------------------
  alpha Z        PSCENC =       171.49134797
  Ewald energy   TEWEN  =      9959.13138061
  -Hartree energ DENC   =    -20511.33189927
  -exchange      EXHF   =         0.00000000
  -V(xc)+E(xc)   XCENC  =       573.84836620
  PAW double counting   =     19334.41467860   -19076.64534692
  entropy T*S    EENTRO =        -0.00000000
  eigenvalues    EBANDS =     -2371.63386540
  atomic energy  EATOM  =     11527.65184868
  ---------------------------------------------------
  free energy    TOTEN  =      -393.07348952 eV

  energy without entropy =     -393.07348952  energy(sigma->0) =     -393.07348952


--------------------------------------------------------------------------------------------------------




--------------------------------------- Iteration      1(  14)  ---------------------------------------


    POTLOK:  cpu time      0.7323: real time      0.7349
    SETDIJ:  cpu time      0.0592: real time      0.0594
    TRIAL :  cpu time      2.2498: real time      2.2680
    CORREC:  cpu time      1.8464: real time      1.8819
    CHARGE:  cpu time      0.5942: real time      0.6052
    --------------------------------------------
      LOOP:  cpu time      5.4840: real time      5.5610

 eigenvalue-minimisations  :     0
 total energy-change (2. order) :-0.5525729E-02  (-0.1447931E-02)
 number of electron     222.0000002 magnetization 
 augmentation part       14.2246370 magnetization 

 Free energy of the ion-electron system (eV)
  ---------------------------------------------------
  alpha Z        PSCENC =       171.49134797
  Ewald energy   TEWEN  =      9959.13138061
  -Hartree energ DENC   =    -20512.63494274
  -exchange      EXHF   =         0.00000000
  -V(xc)+E(xc)   XCENC  =       573.91965260
  PAW double counting   =     19327.92688690   -19070.17900408
  entropy T*S    EENTRO =        -0.00000000
  eigenvalues    EBANDS =     -2370.38618519
  atomic energy  EATOM  =     11527.65184868
  ---------------------------------------------------
  free energy    TOTEN  =      -393.07901525 eV

  energy without entropy =     -393.07901525  energy(sigma->0) =     -393.07901525


--------------------------------------------------------------------------------------------------------




--------------------------------------- Iteration      1(  15)  ---------------------------------------


    POTLOK:  cpu time      0.7311: real time      0.7337
    SETDIJ:  cpu time      0.0593: real time      0.0595
    TRIAL :  cpu time      2.2603: real time      2.2766
    CORREC:  cpu time      1.8589: real time      1.8736
    CHARGE:  cpu time      0.5994: real time      0.6019
    --------------------------------------------
      LOOP:  cpu time      5.5107: real time      5.5551

 eigenvalue-minimisations  :     0
 total energy-change (2. order) :-0.1452980E-02  (-0.4281012E-03)
 number of electron     222.0000002 magnetization 
 augmentation part       14.2236997 magnetization 

 Free energy of the ion-electron system (eV)
  ---------------------------------------------------
  alpha Z        PSCENC =       171.49134797
  Ewald energy   TEWEN  =      9959.13138061
  -Hartree energ DENC   =    -20512.25136948
  -exchange      EXHF   =         0.00000000
  -V(xc)+E(xc)   XCENC  =       573.90609290
  PAW double counting   =     19324.50340806   -19066.75780982
  entropy T*S    EENTRO =        -0.00000000
  eigenvalues    EBANDS =     -2370.75536714
  atomic energy  EATOM  =     11527.65184868
  ---------------------------------------------------
  free energy    TOTEN  =      -393.08046823 eV

  energy without entropy =     -393.08046823  energy(sigma->0) =     -393.08046823


--------------------------------------------------------------------------------------------------------




--------------------------------------- Iteration      1(  16)  ---------------------------------------


    POTLOK:  cpu time      0.7249: real time      0.7361
    SETDIJ:  cpu time      0.0601: real time      0.0602
    TRIAL :  cpu time      2.2504: real time      2.5005
    CORREC:  cpu time      2.1007: real time      2.1650
    CHARGE:  cpu time      0.5940: real time      0.6454
    --------------------------------------------
      LOOP:  cpu time      5.7317: real time      6.1169

 eigenvalue-minimisations  :     0
 total energy-change (2. order) :-0.4298893E-03  (-0.1315095E-03)
 number of electron     222.0000002 magnetization 
 augmentation part       14.2239658 magnetization 

 Free energy of the ion-electron system (eV)
  ---------------------------------------------------
  alpha Z        PSCENC =       171.49134797
  Ewald energy   TEWEN  =      9959.13138061
  -Hartree energ DENC   =    -20511.85328352
  -exchange      EXHF   =         0.00000000
  -V(xc)+E(xc)   XCENC  =       573.88660526
  PAW double counting   =     19323.10339695   -19065.35407471
  entropy T*S    EENTRO =        -0.00000000
  eigenvalues    EBANDS =     -2371.13811936
  atomic energy  EATOM  =     11527.65184868
  ---------------------------------------------------
  free energy    TOTEN  =      -393.08089812 eV

  energy without entropy =     -393.08089812  energy(sigma->0) =     -393.08089812


--------------------------------------------------------------------------------------------------------




--------------------------------------- Iteration      1(  17)  ---------------------------------------


    POTLOK:  cpu time      0.7253: real time      0.7279
    SETDIJ:  cpu time      0.0597: real time      0.0599
    TRIAL :  cpu time      2.2477: real time      2.2685
    CORREC:  cpu time      1.8474: real time      1.8603
    CHARGE:  cpu time      0.6006: real time      0.6029
    --------------------------------------------
      LOOP:  cpu time      5.4822: real time      5.5289

 eigenvalue-minimisations  :     0
 total energy-change (2. order) :-0.1314437E-03  (-0.4214656E-04)
 number of electron     222.0000002 magnetization 
 augmentation part       14.2241116 magnetization 

 Free energy of the ion-electron system (eV)
  ---------------------------------------------------
  alpha Z        PSCENC =       171.49134797
  Ewald energy   TEWEN  =      9959.13138061
  -Hartree energ DENC   =    -20512.13893915
  -exchange      EXHF   =         0.00000000
  -V(xc)+E(xc)   XCENC  =       573.89991724
  PAW double counting   =     19323.40333339   -19065.65437064
  entropy T*S    EENTRO =        -0.00000000
  eigenvalues    EBANDS =     -2370.86554767
  atomic energy  EATOM  =     11527.65184868
  ---------------------------------------------------
  free energy    TOTEN  =      -393.08102956 eV

  energy without entropy =     -393.08102956  energy(sigma->0) =     -393.08102956


--------------------------------------------------------------------------------------------------------




--------------------------------------- Iteration      1(  18)  ---------------------------------------


    POTLOK:  cpu time      0.7253: real time      0.7349
    SETDIJ:  cpu time      0.0600: real time      0.0602
    TRIAL :  cpu time      2.2521: real time      2.2698
    CORREC:  cpu time      1.8503: real time      1.8649
    CHARGE:  cpu time      0.6000: real time      0.6020
    --------------------------------------------
      LOOP:  cpu time      5.4892: real time      5.5421

 eigenvalue-minimisations  :     0
 total energy-change (2. order) :-0.4225509E-04  (-0.1433838E-04)
 number of electron     222.0000002 magnetization 
 augmentation part       14.2239900 magnetization 

 Free energy of the ion-electron system (eV)
  ---------------------------------------------------
  alpha Z        PSCENC =       171.49134797
  Ewald energy   TEWEN  =      9959.13138061
  -Hartree energ DENC   =    -20512.25787576
  -exchange      EXHF   =         0.00000000
  -V(xc)+E(xc)   XCENC  =       573.90509123
  PAW double counting   =     19323.73744828   -19065.98859250
  entropy T*S    EENTRO =        -0.00000000
  eigenvalues    EBANDS =     -2370.75172033
  atomic energy  EATOM  =     11527.65184868
  ---------------------------------------------------
  free energy    TOTEN  =      -393.08107181 eV

  energy without entropy =     -393.08107181  energy(sigma->0) =     -393.08107181


--------------------------------------------------------------------------------------------------------




--------------------------------------- Iteration      1(  19)  ---------------------------------------


    POTLOK:  cpu time      0.7259: real time      0.7309
    SETDIJ:  cpu time      0.0597: real time      0.0599
    TRIAL :  cpu time      2.2466: real time      2.2737
    CORREC:  cpu time      1.8598: real time      1.8735
    CHARGE:  cpu time      0.6002: real time      0.6028
    --------------------------------------------
      LOOP:  cpu time      5.4940: real time      5.5507

 eigenvalue-minimisations  :     0
 total energy-change (2. order) :-0.1429245E-04  (-0.4880534E-05)
 number of electron     222.0000002 magnetization 
 augmentation part       14.2240450 magnetization 

 Free energy of the ion-electron system (eV)
  ---------------------------------------------------
  alpha Z        PSCENC =       171.49134797
  Ewald energy   TEWEN  =      9959.13138061
  -Hartree energ DENC   =    -20512.20875436
  -exchange      EXHF   =         0.00000000
  -V(xc)+E(xc)   XCENC  =       573.90245423
  PAW double counting   =     19323.86213391   -19066.11263998
  entropy T*S    EENTRO =        -0.00000000
  eigenvalues    EBANDS =     -2370.79885717
  atomic energy  EATOM  =     11527.65184868
  ---------------------------------------------------
  free energy    TOTEN  =      -393.08108611 eV

  energy without entropy =     -393.08108611  energy(sigma->0) =     -393.08108611


--------------------------------------------------------------------------------------------------------




--------------------------------------- Iteration      1(  20)  ---------------------------------------


    POTLOK:  cpu time      0.7199: real time      0.7360
    SETDIJ:  cpu time      0.0597: real time      0.0601
    TRIAL :  cpu time      2.2626: real time      2.2773
    CORREC:  cpu time      1.8551: real time      1.8696
    CHARGE:  cpu time      0.5986: real time      0.6083
    --------------------------------------------
      LOOP:  cpu time      5.4972: real time      5.5619

 eigenvalue-minimisations  :     0
 total energy-change (2. order) :-0.4636036E-05  (-0.1620270E-05)
 number of electron     222.0000002 magnetization 
 augmentation part       14.2240793 magnetization 

 Free energy of the ion-electron system (eV)
  ---------------------------------------------------
  alpha Z        PSCENC =       171.49134797
  Ewald energy   TEWEN  =      9959.13138061
  -Hartree energ DENC   =    -20512.24172963
  -exchange      EXHF   =         0.00000000
  -V(xc)+E(xc)   XCENC  =       573.90376402
  PAW double counting   =     19324.00777656   -19066.25857238
  entropy T*S    EENTRO =        -0.00000000
  eigenvalues    EBANDS =     -2370.76690658
  atomic energy  EATOM  =     11527.65184868
  ---------------------------------------------------
  free energy    TOTEN  =      -393.08109074 eV

  energy without entropy =     -393.08109074  energy(sigma->0) =     -393.08109074


--------------------------------------------------------------------------------------------------------




--------------------------------------- Iteration      1(  21)  ---------------------------------------


    POTLOK:  cpu time      0.7279: real time      0.7306
    SETDIJ:  cpu time      0.0601: real time      0.0603
    TRIAL :  cpu time      2.3036: real time      2.3243
    CORREC:  cpu time      1.8478: real time      1.8632
    CHARGE:  cpu time      0.5985: real time      0.6009
    --------------------------------------------
      LOOP:  cpu time      5.5455: real time      5.5886

 eigenvalue-minimisations  :     0
 total energy-change (2. order) :-0.1443521E-05  (-0.5583698E-06)
 number of electron     222.0000002 magnetization 
 augmentation part       14.2240540 magnetization 

 Free energy of the ion-electron system (eV)
  ---------------------------------------------------
  alpha Z        PSCENC =       171.49134797
  Ewald energy   TEWEN  =      9959.13138061
  -Hartree energ DENC   =    -20512.26324312
  -exchange      EXHF   =         0.00000000
  -V(xc)+E(xc)   XCENC  =       573.90459710
  PAW double counting   =     19324.05535570   -19066.30635929
  entropy T*S    EENTRO =        -0.00000000
  eigenvalues    EBANDS =     -2370.74601985
  atomic energy  EATOM  =     11527.65184868
  ---------------------------------------------------
  free energy    TOTEN  =      -393.08109219 eV

  energy without entropy =     -393.08109219  energy(sigma->0) =     -393.08109219


--------------------------------------------------------------------------------------------------------




--------------------------------------- Iteration      1(  22)  ---------------------------------------


    POTLOK:  cpu time      0.7364: real time      0.7669
    SETDIJ:  cpu time      0.0598: real time      0.0600
    TRIAL :  cpu time      2.2537: real time      2.2690
    CORREC:  cpu time      1.8515: real time      1.8666
    CHARGE:  cpu time      0.5986: real time      0.6003
    --------------------------------------------
      LOOP:  cpu time      5.5010: real time      5.5718

 eigenvalue-minimisations  :     0
 total energy-change (2. order) :-0.4661160E-06  (-0.2096262E-06)
 number of electron     222.0000002 magnetization 
 augmentation part       14.2240564 magnetization 

 Free energy of the ion-electron system (eV)
  ---------------------------------------------------
  alpha Z        PSCENC =       171.49134797
  Ewald energy   TEWEN  =      9959.13138061
  -Hartree energ DENC   =    -20512.24991490
  -exchange      EXHF   =         0.00000000
  -V(xc)+E(xc)   XCENC  =       573.90405510
  PAW double counting   =     19324.00989478   -19066.26077854
  entropy T*S    EENTRO =        -0.00000000
  eigenvalues    EBANDS =     -2370.75892636
  atomic energy  EATOM  =     11527.65184868
  ---------------------------------------------------
  free energy    TOTEN  =      -393.08109265 eV

  energy without entropy =     -393.08109265  energy(sigma->0) =     -393.08109265


--------------------------------------------------------------------------------------------------------




--------------------------------------- Iteration      1(  23)  ---------------------------------------


    POTLOK:  cpu time      0.7259: real time      0.7346
    SETDIJ:  cpu time      0.0553: real time      0.0554
    TRIAL :  cpu time      2.2480: real time      2.2637
    CORREC:  cpu time      1.8464: real time      1.8641
    CHARGE:  cpu time      0.6017: real time      0.6054
    --------------------------------------------
      LOOP:  cpu time      5.4787: real time      5.5317

 eigenvalue-minimisations  :     0
 total energy-change (2. order) :-0.1588887E-06  (-0.8850984E-07)
 number of electron     222.0000002 magnetization 
 augmentation part       14.2240565 magnetization 

 Free energy of the ion-electron system (eV)
  ---------------------------------------------------
  alpha Z        PSCENC =       171.49134797
  Ewald energy   TEWEN  =      9959.13138061
  -Hartree energ DENC   =    -20512.25122813
  -exchange      EXHF   =         0.00000000
  -V(xc)+E(xc)   XCENC  =       573.90409263
  PAW double counting   =     19323.96514645   -19066.21602770
  entropy T*S    EENTRO =        -0.00000000
  eigenvalues    EBANDS =     -2370.75765332
  atomic energy  EATOM  =     11527.65184868
  ---------------------------------------------------
  free energy    TOTEN  =      -393.08109281 eV

  energy without entropy =     -393.08109281  energy(sigma->0) =     -393.08109281


--------------------------------------------------------------------------------------------------------




--------------------------------------- Iteration      1(  24)  ---------------------------------------


    POTLOK:  cpu time      0.7305: real time      0.7331
    SETDIJ:  cpu time      0.0599: real time      0.0601
    TRIAL :  cpu time      2.2412: real time      2.2681
    CORREC:  cpu time      1.8477: real time      1.8650
    EDDIAG:  cpu time      0.8025: real time      0.8162
    CHARGE:  cpu time      0.5984: real time      0.6002
    --------------------------------------------
      LOOP:  cpu time      6.2816: real time      6.3534

 eigenvalue-minimisations  :     0
 total energy-change (2. order) :-0.4657340E-07  (-0.8264196E-07)
 number of electron     222.0000002 magnetization 
 augmentation part       14.2240563 magnetization 

 Free energy of the ion-electron system (eV)
  ---------------------------------------------------
  alpha Z        PSCENC =       171.49134797
  Ewald energy   TEWEN  =      9959.13138061
  -Hartree energ DENC   =    -20512.24976324
  -exchange      EXHF   =         0.00000000
  -V(xc)+E(xc)   XCENC  =       573.90407510
  PAW double counting   =     19323.92539405   -19066.17628098
  entropy T*S    EENTRO =        -0.00000000
  eigenvalues    EBANDS =     -2370.75909506
  atomic energy  EATOM  =     11527.65184868
  ---------------------------------------------------
  free energy    TOTEN  =      -393.08109286 eV

  energy without entropy =     -393.08109286  energy(sigma->0) =     -393.08109286


--------------------------------------------------------------------------------------------------------


  average scaling for gradient   0.7345


 average (electrostatic) potential at core
  the test charge radii are     0.6991  0.5201  0.7215  1.0714
  (the norm of the test charge is              1.0000)
       1 -59.3605       2 -56.5582       3 -57.5571       4 -56.0610       5 -59.3602
       6 -56.5582       7 -57.5572       8 -56.0611       9 -59.3600      10 -56.5581
      11 -57.5570      12 -56.0608      13 -59.3602      14 -56.5582      15 -57.5570
      16 -56.0609      17 -59.3604      18 -56.5583      19 -57.5570      20 -56.0609
      21 -59.3605      22 -56.5581      23 -57.5569      24 -56.0609      25 -39.2635
      26 -39.2642      27 -39.2631      28 -39.2636      29 -39.2642      30 -39.2638
      31 -78.0975      32 -77.7935      33 -77.3283      34 -78.0976      35 -77.7928
      36 -77.3283      37 -78.0972      38 -77.7929      39 -77.3284      40 -78.0971
      41 -77.7932      42 -77.3284      43 -78.0972      44 -77.7936      45 -77.3281
      46 -78.0975      47 -77.7933      48 -77.3279      49 -42.5757      50 -42.5759
      51 -42.5759      52 -42.5757      53 -42.5755      54 -42.5757
 
 
 
 E-fermi :  -1.7687     XC(G=0):  -4.4497     alpha+bet : -3.6057

 Fermi energy:        -1.7686732685

 k-point     1 :       0.0000    0.0000    0.0000
  band No.  band energies     occupation 
      1     -24.6462      2.00000
      2     -24.6408      2.00000
      3     -24.5102      2.00000
      4     -24.5101      2.00000
      5     -24.5056      2.00000
      6     -24.5056      2.00000
      7     -22.4645      2.00000
      8     -22.4420      2.00000
      9     -22.4271      2.00000
     10     -22.4268      2.00000
     11     -22.3843      2.00000
     12     -22.3839      2.00000
     13     -22.1008      2.00000
     14     -22.1007      2.00000
     15     -22.0935      2.00000
     16     -22.0822      2.00000
     17     -22.0821      2.00000
     18     -22.0581      2.00000
     19     -18.3484      2.00000
     20     -18.3009      2.00000
     21     -18.3008      2.00000
     22     -16.5299      2.00000
     23     -16.4813      2.00000
     24     -16.4811      2.00000
     25     -15.1245      2.00000
     26     -15.0229      2.00000
     27     -15.0229      2.00000
     28     -13.9529      2.00000
     29     -13.9353      2.00000
     30     -13.9352      2.00000
     31     -12.1624      2.00000
     32     -12.1336      2.00000
     33     -12.1334      2.00000
     34     -11.8727      2.00000
     35     -11.7442      2.00000
     36     -11.7441      2.00000
     37     -11.5935      2.00000
     38     -10.9212      2.00000
     39     -10.9211      2.00000
     40     -10.1876      2.00000
     41     -10.1875      2.00000
     42     -10.1468      2.00000
     43     -10.1468      2.00000
     44     -10.0775      2.00000
     45      -9.8502      2.00000
     46      -9.6124      2.00000
     47      -9.5246      2.00000
     48      -9.5245      2.00000
     49      -9.4168      2.00000
     50      -9.4167      2.00000
     51      -9.2178      2.00000
     52      -8.9551      2.00000
     53      -8.9550      2.00000
     54      -8.8218      2.00000
     55      -8.7949      2.00000
     56      -8.7948      2.00000
     57      -8.7182      2.00000
     58      -8.5749      2.00000
     59      -8.5749      2.00000
     60      -8.4124      2.00000
     61      -8.4123      2.00000
     62      -8.4014      2.00000
     63      -8.2439      2.00000
     64      -7.6107      2.00000
     65      -7.6106      2.00000
     66      -7.5452      2.00000
     67      -7.4598      2.00000
     68      -7.4594      2.00000
     69      -7.4270      2.00000
     70      -7.3381      2.00000
     71      -7.2734      2.00000
     72      -7.2732      2.00000
     73      -6.9363      2.00000
     74      -6.9362      2.00000
     75      -6.8053      2.00000
     76      -6.4834      2.00000
     77      -6.4594      2.00000
     78      -6.4593      2.00000
     79      -5.9512      2.00000
     80      -5.6835      2.00000
     81      -5.6834      2.00000
     82      -5.6010      2.00000
     83      -5.5391      2.00000
     84      -5.5389      2.00000
     85      -5.2980      2.00000
     86      -5.2980      2.00000
     87      -5.1051      2.00000
     88      -5.1051      2.00000
     89      -4.8387      2.00000
     90      -4.7597      2.00000
     91      -4.6909      2.00000
     92      -4.6908      2.00000
     93      -4.6484      2.00000
     94      -4.5218      2.00000
     95      -4.5217      2.00000
     96      -4.4603      2.00000
     97      -4.3543      2.00000
     98      -4.3543      2.00000
     99      -4.2616      2.00000
    100      -3.9666      2.00000
    101      -3.9666      2.00000
    102      -3.9305      2.00000
    103      -3.9303      2.00000
    104      -3.8676      2.00000
    105      -3.7800      2.00000
    106      -3.6682      2.00000
    107      -3.6681      2.00000
    108      -3.5525      2.00000
    109      -2.4056      2.00000
    110      -2.4055      2.00000
    111      -2.2594      2.00000
    112      -0.1903      0.00000
    113      -0.1902      0.00000
    114      -0.1559      0.00000
    115       1.4860      0.00000
    116       1.5139      0.00000
    117       1.5140      0.00000
    118       1.5936      0.00000
    119       1.8063      0.00000
    120       1.8065      0.00000
    121       1.8242      0.00000
    122       1.9662      0.00000
    123       2.3889      0.00000
    124       2.3889      0.00000
    125       2.3962      0.00000
    126       2.3962      0.00000
    127       3.2933      0.00000
    128       3.3504      0.00000
    129       3.3505      0.00000
    130       3.6535      0.00000
    131       3.8021      0.00000
    132       3.8021      0.00000
    133       4.0671      0.00000
    134       4.0672      0.00000
    135       4.1328      0.00000
    136       4.1518      0.00000
    137       4.3358      0.00000
    138       4.3424      0.00000
    139       4.6579      0.00000
    140       4.6645      0.00000
    141       4.6843      0.00000
    142       4.7770      0.00000
    143       4.9654      0.00000
    144       4.9670      0.00000
    145       5.2257      0.00000
    146       5.3672      0.00000
    147       5.4761      0.00000
    148       5.4800      0.00000
    149       5.4840      0.00000
    150       5.5186      0.00000
    151       5.5539      0.00000
    152       5.6800      0.00000
    153       5.6866      0.00000
    154       6.0375      0.00000
    155       6.0678      0.00000
    156       6.1312      0.00000
    157       6.3042      0.00000
    158       6.4823      0.00000
    159       6.4972      0.00000
    160       6.6327      0.00000


--------------------------------------------------------------------------------------------------------


 soft charge-density along one line, spin component           1
         0         1         2         3         4         5         6         7         8         9
 total charge-density along one line
 
 pseudopotential strength for first ion, spin component:           1
 10.273  13.664   0.006   0.002  -0.000  -0.019  -0.007   0.000
 13.664  18.172   0.008   0.003  -0.000  -0.025  -0.009   0.001
  0.006   0.008  -4.413   0.005  -0.001   8.640  -0.010   0.002
  0.002   0.003   0.005  -4.423   0.002  -0.010   8.657  -0.003
 -0.000  -0.000  -0.001   0.002  -4.412   0.002  -0.003   8.642
 -0.019  -0.025   8.640  -0.010   0.002 -19.057   0.018  -0.003
 -0.007  -0.009  -0.010   8.657  -0.003   0.018 -19.088   0.005
  0.000   0.001   0.002  -0.003   8.642  -0.003   0.005 -19.071
 total augmentation occupancy for first ion, spin component:           1
  8.545  -4.037   0.429   0.255  -0.017   0.101   0.058  -0.004
 -4.037   2.070  -0.345  -0.181   0.012  -0.065  -0.037   0.002
  0.429  -0.345   1.754  -0.002   0.028   0.168  -0.015   0.007
  0.255  -0.181  -0.002   1.844  -0.121  -0.015   0.203  -0.022
 -0.017   0.012   0.028  -0.121   1.076   0.007  -0.022   0.072
  0.101  -0.065   0.168  -0.015   0.007   0.019  -0.003   0.001
  0.058  -0.037  -0.015   0.203  -0.022  -0.003   0.027  -0.004
 -0.004   0.002   0.007  -0.022   0.072   0.001  -0.004   0.005


------------------------ aborting loop because EDIFF is reached ----------------------------------------


    FORLOC:  cpu time      0.2186: real time      0.2195
    FORNL :  cpu time      2.0361: real time      2.0524
    STRESS:  cpu time      5.9711: real time      6.0165
    FORCOR:  cpu time      0.7730: real time      0.7824
    OFIELD:  cpu time      0.0032: real time      0.0032

 ---------------------------------------------------------------------------------------------

         DFTD3 V3.0 Rev 1        
 IVDW         = 11
 DF pbe       
 parameters
 VDW_S6       =    1.0000
 VDW_S8       =    0.7220
 VDW_SR       =    1.2170
 rs18     =    1.0000
 alpha6   =   14.0000
 alpha8   =   16.0000
 k1-k3    =   16.0000    1.3333   -4.0000
 VDW_RADIUS   =   50.2022 A
 VDW_CNRADIUS =   21.1671 A
 Edisp (eV)   -2.44846

 E6    (eV) :    -1.2664
 E8    (eV) :    -1.1820
 % E8        : 48.28
    FORVDW:  cpu time      0.5847: real time      0.5878

  FORCE on cell =-STRESS in cart. coord.  units (eV):
  Direction    XX          YY          ZZ          XY          YZ          ZX
  --------------------------------------------------------------------------------------
  Alpha Z   171.49135   171.49135   171.49135
  Ewald   -2415.38025 -1685.80552 14060.28395   692.37927  4402.91845  2657.36715
  Hartree  1805.37415  2445.48076 16261.38976   607.52656  3863.20853  2331.59018
  E(xc)    -958.48217  -958.20077  -952.12708     0.26694     1.69825     1.02519
  Local   -2234.45697 -3599.78840-33067.94949 -1295.78426 -8239.88797 -4973.11583
  n-local  -499.63992  -500.35048  -515.71070    -0.66273    -4.29269    -2.58975
  augment   113.35124   113.39607   114.36810     0.03145     0.26996     0.16084
  Kinetic  4017.72886  4013.76117  3928.21660    -3.75861   -23.92090   -14.44254
  Fock        0.00000     0.00000     0.00000     0.00000     0.00000     0.00000
  vdW        -1.00993    -1.03675    -1.61571    -0.02547    -0.16190    -0.09770
  -------------------------------------------------------------------------------------
  Total      -1.02364    -1.05258    -1.65322    -0.02684    -0.16827    -0.10246
  in kB      -1.19591    -1.22972    -1.93143    -0.03136    -0.19659    -0.11970
  external pressure =       -1.45 kB  Pullay stress =        0.00 kB


 VOLUME and BASIS-vectors are now :
 -----------------------------------------------------------------------------
  energy-cutoff  :     1000.00
  volume of cell :     1371.39
      direct lattice vectors                 reciprocal lattice vectors
    15.258013385  0.006374814  0.024579381     0.065314117  0.034130566  0.130953070
    -7.105142985 13.502791256  0.024499078    -0.000241744  0.073693958  0.130953351
    -7.105097270-11.773071197  6.612175988    -0.000241896 -0.000399920  0.150264152

  length of vectors
    15.258034514 15.258080769 15.258062915     0.150264886  0.150265226  0.150264879


 FORCES acting on ions:
    Electron-Ion                     Ewald-Force                    Non-Local-Force
 -----------------------------------------------------------------------------------------------
   0.368E+02 0.138E+03 -.167E+02   -.366E+02 -.144E+03 0.147E+02   -.154E+00 0.597E+01 0.200E+01
   0.881E+01 0.439E+02 -.368E+02   -.890E+01 -.450E+02 0.364E+02   0.922E-01 0.115E+01 0.439E+00
   -.320E+02 0.810E+02 -.535E+01   0.315E+02 -.854E+02 0.832E+01   0.513E+00 0.443E+01 -.299E+01
   -.519E+02 0.227E+02 0.110E+03   0.525E+02 -.226E+02 -.112E+03   -.575E+00 -.136E+00 0.216E+01
   -.131E+03 -.276E+02 0.530E+02   0.135E+03 0.297E+02 -.577E+02   -.367E+01 -.211E+01 0.465E+01
   -.539E+02 -.184E+02 -.107E+02   0.546E+02 0.187E+02 0.976E+01   -.744E+00 -.287E+00 0.945E+00
   -.499E+02 -.624E+02 0.349E+02   0.549E+02 0.645E+02 -.344E+02   -.495E+01 -.203E+01 -.451E+00
   0.540E+02 -.302E+02 0.107E+03   -.553E+02 0.301E+02 -.109E+03   0.131E+01 0.375E-01 0.182E+01
   0.105E+03 -.929E+02 0.328E+02   -.111E+03 0.942E+02 -.358E+02   0.535E+01 -.133E+01 0.303E+01
   0.347E+02 -.426E+02 -.183E+02   -.357E+02 0.429E+02 0.176E+02   0.977E+00 -.326E+00 0.686E+00
   0.866E+02 -.109E+02 -.830E-01   -.902E+02 0.145E+02 0.146E+01   0.368E+01 -.366E+01 -.138E+01
   0.443E+02 0.844E+02 0.785E+02   -.445E+02 -.860E+02 -.802E+02   0.145E+00 0.156E+01 0.160E+01
   -.368E+02 -.138E+03 0.167E+02   0.366E+02 0.144E+03 -.147E+02   0.153E+00 -.597E+01 -.200E+01
   -.884E+01 -.439E+02 0.368E+02   0.893E+01 0.450E+02 -.364E+02   -.928E-01 -.115E+01 -.440E+00
   0.320E+02 -.810E+02 0.537E+01   -.315E+02 0.854E+02 -.834E+01   -.513E+00 -.443E+01 0.299E+01
   0.519E+02 -.227E+02 -.110E+03   -.525E+02 0.226E+02 0.112E+03   0.576E+00 0.139E+00 -.216E+01
   0.131E+03 0.276E+02 -.530E+02   -.135E+03 -.297E+02 0.577E+02   0.367E+01 0.211E+01 -.465E+01
   0.539E+02 0.184E+02 0.107E+02   -.546E+02 -.187E+02 -.975E+01   0.744E+00 0.288E+00 -.945E+00
   0.499E+02 0.624E+02 -.348E+02   -.548E+02 -.645E+02 0.344E+02   0.495E+01 0.203E+01 0.448E+00
   -.540E+02 0.302E+02 -.107E+03   0.553E+02 -.302E+02 0.109E+03   -.131E+01 -.376E-01 -.182E+01
   -.105E+03 0.929E+02 -.328E+02   0.111E+03 -.942E+02 0.358E+02   -.535E+01 0.133E+01 -.303E+01
   -.347E+02 0.426E+02 0.183E+02   0.357E+02 -.429E+02 -.177E+02   -.977E+00 0.326E+00 -.685E+00
   -.865E+02 0.108E+02 0.635E-01   0.902E+02 -.145E+02 -.144E+01   -.368E+01 0.366E+01 0.138E+01
   -.443E+02 -.844E+02 -.785E+02   0.444E+02 0.860E+02 0.802E+02   -.148E+00 -.155E+01 -.161E+01
   -.293E+02 0.907E+01 0.589E+02   0.299E+02 -.997E+01 -.647E+02   -.566E+00 0.899E+00 0.580E+01
   0.321E+02 -.162E+02 0.558E+02   -.342E+02 0.158E+02 -.613E+02   0.207E+01 0.452E+00 0.550E+01
   0.217E+02 0.477E+02 0.408E+02   -.227E+02 -.506E+02 -.458E+02   0.106E+01 0.290E+01 0.502E+01
   0.293E+02 -.907E+01 -.589E+02   -.299E+02 0.997E+01 0.647E+02   0.566E+00 -.900E+00 -.580E+01
   -.321E+02 0.162E+02 -.558E+02   0.342E+02 -.158E+02 0.613E+02   -.207E+01 -.452E+00 -.550E+01
   -.217E+02 -.477E+02 -.408E+02   0.227E+02 0.506E+02 0.458E+02   -.106E+01 -.290E+01 -.502E+01
   -.577E+01 -.273E+02 0.521E+02   0.967E+01 0.540E+02 -.734E+02   -.390E+01 -.266E+02 0.213E+02
   0.181E+03 0.130E+03 -.273E+03   -.189E+03 -.136E+03 0.315E+03   0.804E+01 0.532E+01 -.423E+02
   -.123E+03 0.674E+02 0.103E+03   0.129E+03 -.476E+02 -.125E+03   -.631E+01 -.198E+02 0.218E+02
   0.463E+02 0.179E+02 0.321E+02   -.779E+02 -.301E+02 -.377E+02   0.316E+02 0.122E+02 0.561E+01
   -.303E+03 0.447E+02 -.175E+03   0.329E+03 -.400E+02 0.209E+03   -.261E+02 -.469E+01 -.343E+02
   0.497E+02 -.113E+03 0.122E+03   -.773E+02 0.106E+03 -.132E+03   0.277E+02 0.744E+01 0.941E+01
   -.215E+02 0.410E+02 0.368E+02   0.432E+02 -.653E+02 -.476E+02   -.218E+02 0.243E+02 0.109E+02
   0.312E+02 -.326E+03 -.131E+03   -.321E+02 0.355E+03 0.163E+03   0.954E+00 -.290E+02 -.323E+02
   0.117E+03 0.118E+03 0.518E+02   -.102E+03 -.141E+03 -.636E+02   -.146E+02 0.236E+02 0.118E+02
   0.574E+01 0.273E+02 -.521E+02   -.964E+01 -.540E+02 0.734E+02   0.390E+01 0.266E+02 -.213E+02
   -.181E+03 -.130E+03 0.273E+03   0.189E+03 0.136E+03 -.315E+03   -.803E+01 -.531E+01 0.423E+02
   0.123E+03 -.674E+02 -.103E+03   -.129E+03 0.476E+02 0.125E+03   0.630E+01 0.198E+02 -.218E+02
   -.463E+02 -.178E+02 -.321E+02   0.779E+02 0.300E+02 0.378E+02   -.316E+02 -.122E+02 -.561E+01
   0.303E+03 -.448E+02 0.175E+03   -.329E+03 0.401E+02 -.209E+03   0.261E+02 0.467E+01 0.344E+02
   -.496E+02 0.113E+03 -.122E+03   0.773E+02 -.105E+03 0.132E+03   -.276E+02 -.744E+01 -.940E+01
   0.215E+02 -.410E+02 -.368E+02   -.432E+02 0.652E+02 0.476E+02   0.217E+02 -.243E+02 -.109E+02
   -.311E+02 0.326E+03 0.131E+03   0.321E+02 -.355E+03 -.163E+03   -.963E+00 0.290E+02 0.323E+02
   -.117E+03 -.118E+03 -.518E+02   0.102E+03 0.141E+03 0.636E+02   0.146E+02 -.236E+02 -.118E+02
   -.800E+02 0.171E+02 0.265E+01   0.784E+02 -.168E+02 -.300E+01   0.209E+01 -.378E+00 0.419E+00
   0.253E+02 -.772E+02 0.106E+02   -.249E+02 0.755E+02 -.108E+02   -.499E+00 0.210E+01 0.183E+00
   0.524E+02 0.562E+02 -.284E+02   -.513E+02 -.552E+02 0.274E+02   -.131E+01 -.125E+01 0.118E+01
   0.800E+02 -.171E+02 -.265E+01   -.784E+02 0.168E+02 0.300E+01   -.209E+01 0.379E+00 -.420E+00
   -.253E+02 0.772E+02 -.106E+02   0.249E+02 -.755E+02 0.108E+02   0.499E+00 -.210E+01 -.181E+00
   -.524E+02 -.562E+02 0.284E+02   0.514E+02 0.552E+02 -.274E+02   0.131E+01 0.125E+01 -.118E+01
 -----------------------------------------------------------------------------------------------
   0.402E-02 -.143E-01 -.459E-02   0.142E-13 0.242E-12 0.320E-13   -.342E-02 0.109E-01 0.458E-02
 
 
 POSITION                                       TOTAL-FORCE (eV/Angst)
 -----------------------------------------------------------------------------------
      7.59511      2.64755      1.18809        -0.003863     -0.017463     -0.000496
      7.63873      1.30894      0.54329        -0.000668     -0.000002      0.007925
     -6.43784      2.86224      5.76282        -0.002163     -0.008918     -0.006724
     -6.45160      1.54590      5.28467        -0.005690      0.005097     -0.018795
     -5.07078      5.91373      2.32906         0.017816      0.004442     -0.005582
     -4.33584      6.35007      1.11298         0.001132      0.000580      0.004740
      3.27899     -5.54896      6.42675         0.005597      0.000629     -0.011762
      4.09541     -5.13451      5.36685        -0.009858     -0.011665     -0.010218
     -1.19743     -6.36168      4.91918        -0.013356      0.010624     -0.005011
     -2.40204     -6.16560      4.07077         0.000736      0.003233      0.005771
      5.53246      6.62037      2.90060        -0.008686      0.003480     -0.009454
      4.37425      6.93301      2.17788         0.003590     -0.004711     -0.018299
     -6.54734     -0.91088      5.47311         0.003913      0.017381      0.000853
     -6.59084      0.42773      6.11788         0.000269     -0.001147     -0.007266
      7.48575     -1.12559      0.89836         0.002338      0.010216      0.005817
      7.49946      0.19072      1.37651         0.005995     -0.001536      0.016829
      6.11852     -4.17693      4.33219        -0.013371     -0.003323      0.010041
      5.38356     -4.61337      5.54826        -0.000405      0.000228     -0.003091
     -2.23129      7.28571      0.23459        -0.004012      0.000539      0.007382
     -3.04766      6.87118      1.29440         0.009284      0.011483      0.011788
      2.24508      8.09818      1.74212         0.014721     -0.010557      0.005675
      3.44979      7.90210      2.59056        -0.000420     -0.003859     -0.005802
     -4.48465     -4.88386      3.76077         0.005005     -0.001426      0.007684
     -3.32642     -5.19653      4.48345        -0.008429      0.006909      0.016411
     -6.34631      1.38326      4.21249        -0.006006      0.011378     -0.014547
      3.70895     -5.21906      4.35174        -0.013523     -0.013534     -0.009388
      4.18117      6.39460      1.25052         0.013607     -0.007264     -0.012080
      7.39408      0.35351      2.44864         0.006013     -0.011960      0.015556
     -2.66112      6.95567      2.30948         0.013023      0.013668      0.009806
     -3.13344     -4.65798      5.41066        -0.012401      0.007915      0.014416
      7.76122      3.68660      0.43750        -0.001911      0.015901     -0.003620
      7.40383      2.77061      2.43852         0.006934      0.015843      0.018247
     -6.30653      3.87970      4.88258        -0.003539      0.006531     -0.022589
     -6.27463      5.46731      2.18121        -0.016788     -0.009751      0.002699
     -4.53666      5.97898      3.48050        -0.007206      0.003573      0.023142
      2.05194     -6.04679      6.15509        -0.012381     -0.011556     -0.015654
     -0.35557     -7.27894      4.57230         0.016835     -0.010724     -0.003054
     -0.99934     -5.65370      5.95586         0.010147     -0.000873      0.025226
      6.37140      5.67555      2.42043         0.010917     -0.013597     -0.020547
     -6.71344     -1.94995      6.22364         0.001531     -0.015916      0.005349
     -6.35615     -1.03396      4.22271        -0.006924     -0.014967     -0.020450
      7.35449     -2.14299      1.77856         0.003683     -0.010138      0.024976
      7.32258     -3.73083      4.48014         0.011432      0.008401     -0.004576
      5.58434     -4.24178      3.18082         0.007799     -0.004517     -0.024838
     -1.00428      7.78374      0.50622         0.011092      0.009695      0.016810
      1.40320      9.01549      2.08911        -0.014236      0.005882     -0.000142
      2.04712      7.39009      0.70540        -0.011400      0.005216     -0.021461
     -5.32367     -3.93889      4.24083        -0.005929      0.008781      0.019761
      1.51449     -7.74281      5.18874         0.030150      0.010156      0.002573
      7.51420      5.67007      0.74920        -0.020190      0.023305      0.007688
     -7.55659      4.51281      3.42128        -0.005568     -0.024515      0.018168
     -0.46680      9.47956      1.47260        -0.029948     -0.009606     -0.003969
     -6.46642     -3.93339      5.91213         0.019895     -0.023401     -0.007776
      8.60443     -2.77629      3.23998         0.005415      0.025837     -0.018140
 -----------------------------------------------------------------------------------
    total drift:                                0.000599     -0.003428     -0.000009


--------------------------------------------------------------------------------------------------------



  FREE ENERGIE OF THE ION-ELECTRON SYSTEM (eV)
  ---------------------------------------------------
  free  energy   TOTEN  =      -395.52955484 eV

  energy  without entropy=     -395.52955484  energy(sigma->0) =     -395.52955484
 


--------------------------------------------------------------------------------------------------------


    POTLOK:  cpu time      0.8193: real time      0.8947


--------------------------------------------------------------------------------------------------------


 writing wavefunctions
     LOOP+:  cpu time    179.1995: real time    181.9817
    4ORBIT:  cpu time      0.0000: real time      0.0000

 total amount of memory used by VASP MPI-rank0   354938. kBytes
=======================================================================

   base      :      30000. kBytes
   nonlr-proj:      47485. kBytes
   fftplans  :      44218. kBytes
   grid      :     223518. kBytes
   one-center:        219. kBytes
   wavefun   :       9498. kBytes
 
  
  
 General timing and accounting informations for this job:
 ========================================================
  
                  Total CPU time used (sec):      217.149
                            User time (sec):      193.708
                          System time (sec):       23.441
                         Elapsed time (sec):      221.317
  
                   Maximum memory used (kb):      783156.
                   Average memory used (kb):          N/A
  
                          Minor page faults:       244393
                          Major page faults:            1
                 Voluntary context switches:         4543
