 vasp.6.2.1 16May21 (build Aug 03 2024 02:50:01) gamma-only                     
  
 executed on             LinuxIFC date 2024.08.31  16:46:36
 running on   40 total cores
 distrk:  each k-point on   40 cores,    1 groups
 distr:  one band on NCORE=   1 cores,   40 groups


--------------------------------------------------------------------------------------------------------


 INCAR:
   SYSTEM = MOF
   ISTART = 0
   ICHARG = 2
   ISMEAR = 0
   SIGMA = 0.1
   ENCUT = 320.
   PREC = Accurate
   ISYM = -1
   EDIFF = 1E-6
   NELM = 500
   IBRION = -1
   NSW = 0
   ALGO = All
   TIME = 0.05
   LHFCALC = .TRUE.
   AEXX = 1
   LASPH = .TRUE.
   PRECFOCK = Normal
   LWAVE = .TRUE.
   LCHARG = .TRUE.
   NWRITE = 1
   LORBIT = 11

 POTCAR:    PAW_PBE C_GW 28Sep2005                
 POTCAR:    PAW_PBE H_GW 21Apr2008                
 POTCAR:    PAW_PBE O_GW 28Sep2005                
 POTCAR:    PAW_PBE Fe_sv_GW 05Dec2013            
 -----------------------------------------------------------------------------
|                                                                             |
|           W    W    AA    RRRRR   N    N  II  N    N   GGGG   !!!           |
|           W    W   A  A   R    R  NN   N  II  NN   N  G    G  !!!           |
|           W    W  A    A  R    R  N N  N  II  N N  N  G       !!!           |
|           W WW W  AAAAAA  RRRRR   N  N N  II  N  N N  G  GGG   !            |
|           WW  WW  A    A  R   R   N   NN  II  N   NN  G    G                |
|           W    W  A    A  R    R  N    N  II  N    N   GGGG   !!!           |
|                                                                             |
|     For optimal performance we recommend to set                             |
|       NCORE = 2 up to number-of-cores-per-socket                            |
|     NCORE specifies how many cores store one orbital (NPAR=cpu/NCORE).      |
|     This setting can greatly improve the performance of VASP for DFT.       |
|     The default, NCORE=1 might be grossly inefficient on modern             |
|     multi-core architectures or massively parallel machines. Do your        |
|     own testing! More info at https://www.vasp.at/wiki/index.php/NCORE      |
|     Unfortunately you need to use the default for GW and RPA                |
|     calculations (for HF NCORE is supported but not extensively tested      |
|     yet).                                                                   |
|                                                                             |
 -----------------------------------------------------------------------------

 POTCAR:    PAW_PBE C_GW 28Sep2005                
  local pseudopotential read in
  kinetic energy density of atom read in
  atomic valenz-charges read in
  non local Contribution for L=           0  read in
    real space projection operators read in
  non local Contribution for L=           0  read in
    real space projection operators read in
  non local Contribution for L=           1  read in
    real space projection operators read in
  non local Contribution for L=           1  read in
    real space projection operators read in
    PAW grid and wavefunctions read in
 
   number of l-projection  operators is LMAX  =           4
   number of lm-projection operators is LMMAX =           8
 
 POTCAR:    PAW_PBE H_GW 21Apr2008                
  local pseudopotential read in
  kinetic energy density of atom read in
  atomic valenz-charges read in
  non local Contribution for L=           0  read in
    real space projection operators read in
  non local Contribution for L=           0  read in
    real space projection operators read in
  non local Contribution for L=           1  read in
    real space projection operators read in
  non local Contribution for L=           1  read in
    real space projection operators read in
  non local Contribution for L=           2  read in
    real space projection operators read in
    PAW grid and wavefunctions read in
 
   number of l-projection  operators is LMAX  =           5
   number of lm-projection operators is LMMAX =          13
 
 POTCAR:    PAW_PBE O_GW 28Sep2005                
  local pseudopotential read in
  kinetic energy density of atom read in
  atomic valenz-charges read in
  non local Contribution for L=           0  read in
    real space projection operators read in
  non local Contribution for L=           0  read in
    real space projection operators read in
  non local Contribution for L=           1  read in
    real space projection operators read in
  non local Contribution for L=           1  read in
    real space projection operators read in
    PAW grid and wavefunctions read in
 
   number of l-projection  operators is LMAX  =           4
   number of lm-projection operators is LMMAX =           8
 
 POTCAR:    PAW_PBE Fe_sv_GW 05Dec2013            
  local pseudopotential read in
  partial core-charges read in
  partial kinetic energy density read in
  kinetic energy density of atom read in
  atomic valenz-charges read in
  non local Contribution for L=           0  read in
    real space projection operators read in
  non local Contribution for L=           0  read in
    real space projection operators read in
  non local Contribution for L=           0  read in
    real space projection operators read in
  non local Contribution for L=           1  read in
    real space projection operators read in
  non local Contribution for L=           1  read in
    real space projection operators read in
  non local Contribution for L=           1  read in
    real space projection operators read in
  non local Contribution for L=           2  read in
    real space projection operators read in
  non local Contribution for L=           2  read in
    real space projection operators read in
  non local Contribution for L=           2  read in
    real space projection operators read in
  non local Contribution for L=           3  read in
    real space projection operators read in
  non local Contribution for L=           3  read in
    real space projection operators read in
    PAW grid and wavefunctions read in
 
   number of l-projection  operators is LMAX  =          11
   number of lm-projection operators is LMMAX =          41
 
 -----------------------------------------------------------------------------
|                                                                             |
|               ----> ADVICE to this user running VASP <----                  |
|                                                                             |
|     You have a (more or less) 'large supercell' and for larger cells it     |
|     might be more efficient to use real-space projection operators.         |
|     Therefore, try LREAL= Auto in the INCAR file.                           |
|     Mind: For very accurate calculation, you might also keep the            |
|     reciprocal projection scheme (i.e. LREAL=.FALSE.).                      |
|                                                                             |
 -----------------------------------------------------------------------------

  PAW_PBE C_GW 28Sep2005                :
 energy of atom  1       EATOM= -147.1560
 kinetic energy error for atom=    0.1682 (will be added to EATOM!!)
  PAW_PBE H_GW 21Apr2008                :
 energy of atom  2       EATOM=  -12.4884
 kinetic energy error for atom=    0.0737 (will be added to EATOM!!)
  PAW_PBE O_GW 28Sep2005                :
 energy of atom  3       EATOM= -432.3788
 kinetic energy error for atom=    0.7698 (will be added to EATOM!!)
  PAW_PBE Fe_sv_GW 05Dec2013            :
 energy of atom  4       EATOM=-3376.4015
 kinetic energy error for atom=    1.3391 (will be added to EATOM!!)
 
 
 POSCAR:  C  H  O Fe
  positions in direct lattice
  velocities in cartesian coordinates
 exchange correlation table for  LEXCH =        8
   RHO(1)=    0.500       N(1)  =     2000
   RHO(2)=  100.500       N(2)  =     4000
 


--------------------------------------------------------------------------------------------------------


 ion  position               nearest neighbor table
   1  0.032  0.132  0.567-  32 1.36   6 1.40  21 1.43
   2  0.081  0.617  0.166-   7 1.40  22 1.43   5 1.49
   3  0.131  0.566  0.032-  34 1.36   7 1.40  23 1.43
   4  0.166  0.081  0.617-   6 1.40  24 1.43  10 1.49
   5  0.179  0.747  0.349-  38 1.27  31 1.29   2 1.49
   6  0.192  0.205  0.678-  26 1.09   1 1.40   4 1.40
   7  0.205  0.677  0.192-  27 1.09   3 1.40   2 1.40
   8  0.253  0.651  0.822-  33 1.27  35 1.29  11 1.49
   9  0.322  0.808  0.795-  25 1.09  12 1.40  11 1.40
  10  0.349  0.179  0.747-  40 1.27  36 1.29   4 1.49
  11  0.383  0.834  0.919-   9 1.40  13 1.43   8 1.49
  12  0.433  0.968  0.868-  37 1.36   9 1.40  14 1.43
  13  0.567  0.032  0.132-  42 1.36  16 1.40  11 1.43
  14  0.617  0.166  0.081-  16 1.40  12 1.43  17 1.49
  15  0.651  0.821  0.253-  39 1.27  43 1.29  21 1.49
  16  0.678  0.192  0.205-  30 1.09  13 1.40  14 1.40
  17  0.747  0.349  0.178-  46 1.27  44 1.29  14 1.49
  18  0.795  0.323  0.808-  28 1.09  22 1.40  23 1.40
  19  0.808  0.795  0.322-  29 1.09  24 1.40  21 1.40
  20  0.821  0.253  0.651-  41 1.27  48 1.29  23 1.49
  21  0.834  0.919  0.383-  19 1.40   1 1.43  15 1.49
  22  0.869  0.434  0.968-  45 1.36  18 1.40   2 1.43
  23  0.919  0.383  0.834-  18 1.40   3 1.43  20 1.49
  24  0.968  0.868  0.433-  47 1.36  19 1.40   4 1.43
  25  0.182  0.656  0.634-   9 1.09
  26  0.344  0.366  0.818-   6 1.09
  27  0.366  0.817  0.344-   7 1.09
  28  0.634  0.183  0.656-  18 1.09
  29  0.656  0.634  0.182-  19 1.09
  30  0.818  0.344  0.366-  16 1.09
  31  0.067  0.696  0.328-   5 1.29  51 2.11  49 2.12
  32  0.073  0.264  0.640-   1 1.36  54 2.06  52 2.07
  33  0.098  0.479  0.633-   8 1.27  54 2.07
  34  0.264  0.638  0.074-   3 1.36  52 2.05  53 2.09
  35  0.303  0.671  0.933-   8 1.29  53 2.10  52 2.12
  36  0.328  0.067  0.696-  10 1.29  49 2.10  50 2.12
  37  0.361  0.926  0.736-  12 1.36  50 2.06  49 2.08
  38  0.367  0.903  0.521-   5 1.27  50 2.07
  39  0.479  0.633  0.098-  15 1.27  52 2.07
  40  0.521  0.367  0.902-  10 1.27  51 2.07
  41  0.633  0.097  0.479-  20 1.27  53 2.07
  42  0.639  0.074  0.264-  13 1.36  53 2.06  54 2.08
  43  0.672  0.933  0.304-  15 1.29  54 2.10  53 2.12
  44  0.697  0.329  0.067-  17 1.29  50 2.10  51 2.12
  45  0.736  0.362  0.926-  22 1.36  51 2.05  50 2.09
  46  0.902  0.521  0.367-  17 1.27  49 2.07
  47  0.927  0.736  0.360-  24 1.36  49 2.06  51 2.07
  48  0.933  0.304  0.672-  20 1.29  52 2.11  54 2.12
  49  0.107  0.783  0.515-  47 2.06  46 2.07  37 2.08  36 2.10  31 2.12
  50  0.515  0.107  0.783-  37 2.06  38 2.07  45 2.09  44 2.10  36 2.12
  51  0.783  0.516  0.106-  45 2.05  47 2.07  40 2.07  31 2.11  44 2.12
  52  0.217  0.484  0.894-  34 2.05  32 2.07  39 2.07  48 2.11  35 2.12
  53  0.485  0.893  0.217-  42 2.06  41 2.07  34 2.09  35 2.10  43 2.12
  54  0.893  0.217  0.485-  32 2.06  33 2.07  42 2.08  43 2.10  48 2.12
 

IMPORTANT INFORMATION: All symmetrisations will be switched off!
NOSYMM: (Re-)initialisation of all symmetry stuff for point group C_1.


----------------------------------------------------------------------------------------

                                     Primitive cell                                     

  volume of cell :    1403.0148

  direct lattice vectors                    reciprocal lattice vectors
    15.439217752  0.004465832 -0.038376892     0.065085042  0.034326685  0.130688713
    -7.186282924 13.630928377 -0.001416099     0.000303919  0.073536393  0.130825479
    -7.182834812-11.890639092  6.700359279     0.000372844  0.000212151  0.150021909

  length of vectors
    15.439266094 15.409246337 15.423204220     0.149979744  0.150076646  0.150022522

  position of ions in fractional coordinates (direct lattice)
     0.032140205  0.131596472  0.567243074
     0.080939400  0.617136620  0.166081282
     0.131311660  0.566131401  0.032072370
     0.166052468  0.080890174  0.616656951
     0.178934143  0.747136406  0.349358741
     0.192223384  0.205099135  0.677753253
     0.204817095  0.677208988  0.192172431
     0.252895436  0.650728993  0.821583851
     0.322307724  0.807597299  0.795016362
     0.349319458  0.178891109  0.746556755
     0.382922059  0.833947320  0.919292900
     0.433306216  0.967704379  0.868314174
     0.566693754  0.032295640  0.131685826
     0.617077941  0.166052695  0.080707123
     0.650680572  0.821108876  0.253443275
     0.677692276  0.192402701  0.204983653
     0.747104594  0.349271007  0.178416179
     0.795182905  0.322791042  0.807827584
     0.807776602  0.794900865  0.322246747
     0.821065842  0.252863594  0.650641229
     0.833947517  0.919109811  0.383343020
     0.868688340  0.433868599  0.967927620
     0.919060577  0.382863380  0.833918703
     0.967859819  0.868403528  0.432756926
     0.182479428  0.655565764  0.633945057
     0.344103209  0.366270524  0.817662957
     0.365791429  0.816735938  0.344089651
     0.634208571  0.183264047  0.655910379
     0.655896791  0.633729476  0.182337028
     0.817520572  0.344434206  0.366054943
     0.067421933  0.696011040  0.328229224
     0.073185170  0.264301200  0.639867354
     0.097668867  0.478758507  0.633498145
     0.264148327  0.637872795  0.073659183
     0.302715318  0.671496338  0.932846989
     0.328490557  0.067484104  0.696479021
     0.361353031  0.926373201  0.735541372
     0.367302190  0.903369468  0.521413749
     0.478945773  0.633023796  0.098161017
     0.521054227  0.366976174  0.901838960
     0.632697810  0.096630539  0.478586221
     0.638646969  0.073626784  0.264458628
     0.671509473  0.932515918  0.303521008
     0.697284712  0.328503632  0.067153018
     0.735851673  0.362127205  0.926340817
     0.902331148  0.521241523  0.366501884
     0.926814852  0.735698800  0.360132676
     0.932578089  0.303988990  0.671770806
     0.107174485  0.783307327  0.515334558
     0.515337162  0.106795323  0.782801462
     0.783372319  0.515771295  0.106356464
     0.216627696  0.484228705  0.893643529
     0.484662838  0.893204670  0.217198508
     0.892825508  0.216692673  0.484665412

  ion indices of the primitive-cell ions
   primitive index   ion index
                 1           1
                 2           2
                 3           3
                 4           4
                 5           5
                 6           6
                 7           7
                 8           8
                 9           9
                10          10
                11          11
                12          12
                13          13
                14          14
                15          15
                16          16
                17          17
                18          18
                19          19
                20          20
                21          21
                22          22
                23          23
                24          24
                25          25
                26          26
                27          27
                28          28
                29          29
                30          30
                31          31
                32          32
                33          33
                34          34
                35          35
                36          36
                37          37
                38          38
                39          39
                40          40
                41          41
                42          42
                43          43
                44          44
                45          45
                46          46
                47          47
                48          48
                49          49
                50          50
                51          51
                52          52
                53          53
                54          54

----------------------------------------------------------------------------------------

 
 
 KPOINTS: KPOINTS                                 

Automatic generation of k-mesh.
 Grid dimensions read from file:
 generate k-points for:    1    1    1

 Generating k-lattice:

  Cartesian coordinates                     Fractional coordinates (reciprocal lattice)
     0.065085042  0.034326685  0.130688713     1.000000000  0.000000000 -0.000000000
     0.000303919  0.073536393  0.130825479     0.000000000  1.000000000  0.000000000
     0.000372844  0.000212151  0.150021909    -0.000000000  0.000000000  1.000000000

  Length of vectors
     0.149979744  0.150076646  0.150022522

  Shift w.r.t. Gamma in fractional coordinates (k-lattice)
     0.000000000  0.000000000  0.000000000

 
 Subroutine IBZKPT returns following result:
 ===========================================
 
 Found      1 irreducible k-points:
 
 Following reciprocal coordinates:
            Coordinates               Weight
  0.000000  0.000000  0.000000      1.000000
 
 Following cartesian coordinates:
            Coordinates               Weight
  0.000000  0.000000  0.000000      1.000000
 
 WARNING: full set of k-points will be restricted to regular points only.

 
 Subroutine IBZKPT_HF returns following result:
 ==============================================
 
 Found      1 k-points in 1st BZ
 the following      1 k-points will be used (e.g. in the exchange kernel)
 Following reciprocal coordinates:   # in IRBZ
  0.000000  0.000000  0.000000    1.00000000   1 t-inv F


--------------------------------------------------------------------------------------------------------




 Dimension of arrays:
   k-points           NKPTS =      1   k-points in BZ     NKDIM =      1   number of bands    NBANDS=    200
   number of dos      NEDOS =    301   number of ions     NIONS =     54
   non local maximal  LDIM  =     11   non local SUM 2l+1 LMDIM =     41
   total plane-waves  NPLWV = 729000
   max r-space proj   IRMAX =      1   max aug-charges    IRDMAX=  12993
   dimension x,y,z NGX =    90 NGY =   90 NGZ =   90
   dimension x,y,z NGXF=   180 NGYF=  180 NGZF=  180
   support grid    NGXF=   180 NGYF=  180 NGZF=  180
   ions per type =              24   6  18   6
   NGX,Y,Z   is equivalent  to a cutoff of   9.69,  9.71,  9.70 a.u.
   NGXF,Y,Z  is equivalent  to a cutoff of  19.38, 19.42, 19.40 a.u.

 SYSTEM =  MOF                                     
 POSCAR =   C  H  O Fe                             

 Startparameter for this run:
   NWRITE =      1    write-flag & timer
   PREC   = accura    normal or accurate (medium, high low for compatibility)
   ISTART =      0    job   : 0-new  1-cont  2-samecut
   ICHARG =      2    charge: 1-file 2-atom 10-const
   ISPIN  =      1    spin polarized calculation?
   LNONCOLLINEAR =      F non collinear calculations
   LSORBIT =      F    spin-orbit coupling
   INIWAV =      1    electr: 0-lowe 1-rand  2-diag
   LASPH  =      T    aspherical Exc in radial PAW
 Electronic Relaxation 1
   ENCUT  =  320.0 eV  23.52 Ry    4.85 a.u.  22.52 22.48 22.50*2*pi/ulx,y,z
   ENINI  =  320.0     initial cutoff
   ENAUG  =  963.7 eV  augmentation charge cutoff
   NELM   =    500;   NELMIN=  2; NELMDL= -5     # of ELM steps 
   EDIFF  = 0.1E-05   stopping-criterion for ELM
   LREAL  =      F    real-space projection
   NLSPLINE    = F    spline interpolate recip. space projectors
   LCOMPAT=      F    compatible to vasp.4.4
   GGA_COMPAT  = T    GGA compatible to vasp.4.4-vasp.4.6
   LMAXPAW     = -100 max onsite density
   LMAXMIX     =    2 max onsite mixed and CHGCAR
   VOSKOWN=      0    Vosko Wilk Nusair interpolation
   ROPT   =    0.00000   0.00000   0.00000   0.00000
 Ionic relaxation
   EDIFFG = 0.1E-04   stopping-criterion for IOM
   NSW    =      0    number of steps for IOM
   NBLOCK =      1;   KBLOCK =      1    inner block; outer block 
   IBRION =     -1    ionic relax: 0-MD 1-quasi-New 2-CG
   NFREE  =      0    steps in history (QN), initial steepest desc. (CG)
   ISIF   =      0    stress and relaxation
   IWAVPR =     10    prediction:  0-non 1-charg 2-wave 3-comb
   ISYM   =     -1    0-nonsym 1-usesym 2-fastsym
   LCORR  =      T    Harris-Foulkes like correction to forces

   POTIM  = 0.5000    time-step for ionic-motion
   TEIN   =    0.0    initial temperature
   TEBEG  =    0.0;   TEEND  =   0.0 temperature during run
   SMASS  =  -3.00    Nose mass-parameter (am)
   estimated Nose-frequenzy (Omega)   =  0.10E-29 period in steps = 0.13E+47 mass=  -0.545E-26a.u.
   SCALEE = 1.0000    scale energy and forces
   NPACO  =    256;   APACO  = 16.0  distance and # of slots for P.C.
   PSTRESS=    0.0 pullay stress

  Mass of Ions in am
   POMASS =  12.01  1.00 16.00 55.85
  Ionic Valenz
   ZVAL   =   4.00  1.00  6.00 16.00
  Atomic Wigner-Seitz radii
   RWIGS  =  -1.00 -1.00 -1.00 -1.00
  virtual crystal weights 
   VCA    =   1.00  1.00  1.00  1.00
   NELECT =     306.0000    total number of electrons
   NUPDOWN=      -1.0000    fix difference up-down

 DOS related values:
   EMIN   =  10.00;   EMAX   =-10.00  energy-range for DOS
   EFERMI =   0.00
   ISMEAR =     0;   SIGMA  =   0.10  broadening in eV -4-tet -1-fermi 0-gaus

 Electronic relaxation 2 (details)
   IALGO  =     58    algorithm
   LDIAG  =      T    sub-space diagonalisation (order eigenvalues)
   LSUBROT=      F    optimize rotation matrix (better conditioning)
   TURBO    =      0    0=normal 1=particle mesh
   IRESTART =      0    0=no restart 2=restart with 2 vectors
   NREBOOT  =      0    no. of reboots
   NMIN     =      0    reboot dimension
   EREF     =   0.00    reference energy to select bands
   IMIX   =      4    mixing-type and parameters
     AMIX     =   0.40;   BMIX     =  1.00
     AMIX_MAG =   1.60;   BMIX_MAG =  1.00
     AMIN     =   0.10
     WC   =   100.;   INIMIX=   1;  MIXPRE=   1;  MAXMIX= -45

 Intra band minimization:
   WEIMIN = 0.0000     energy-eigenvalue tresh-hold
   EBREAK =  0.13E-08  absolut break condition
   DEPER  =   0.30     relativ break condition  

   TIME   =   0.05     timestep for ELM

  volume/ion in A,a.u.               =      25.98       175.33
  Fermi-wavevector in a.u.,A,eV,Ry     =   0.985435  1.862202 13.212369  0.971082
  Thomas-Fermi vector in A             =   2.116742
 
 Write flags
   LWAVE        =      T    write WAVECAR
   LDOWNSAMPLE  =      F    k-point downsampling of WAVECAR
   LCHARG       =      T    write CHGCAR
   LVTOT        =      F    write LOCPOT, total local potential
   LVHAR        =      F    write LOCPOT, Hartree potential only
   LELF         =      F    write electronic localiz. function (ELF)
   LORBIT       =     11    0 simple, 1 ext, 2 COOP (PROOUT), +10 PAW based schemes


 Dipole corrections
   LMONO  =      F    monopole corrections only (constant potential shift)
   LDIPOL =      F    correct potential (dipole corrections)
   IDIPOL =      0    1-x, 2-y, 3-z, 4-all directions 
   EPSILON=  1.0000000 bulk dielectric constant

 Exchange correlation treatment:
   GGA     =    --    GGA type
   LEXCH   =     8    internal setting for exchange type
   VOSKOWN=      0    Vosko Wilk Nusair interpolation
   EXXOEP  =     0    0=HF, 1=EXX-LHF (local Hartree Fock) 2=EXX OEP
   LHFCALC =     T    Hartree Fock is set to
   LSYMGRAD=     F    symmetrize gradient (conserves proper symmetry)
   PRECFOCK=normal    Normal, Fast or Accurate (Low or Medium for compatibility)
   LRHFCALC=     F    long range Hartree Fock
   LRSCOR  =     F    long range correlation only (use DFT for short range part)
   LTHOMAS =     F    Thomas Fermi screening in HF
   LMODELHF=     F    short range full HF, long range fraction AEXX
   LFOCKACE=     T    use Adeptively-Compressed-Exchange operator
   ENCUT4O =  -1.0   cutoff for four orbital integrals eV
   LMAXFOCK=     4    L truncation for augmentation on plane wave grid
   LMAXFOCKAE=  -1    L truncation for all-electron charge restoration on plane wave grid
   NMAXFOCKAE=   1    number of basis functions for all-electron charge restoration
   LFOCKAEDFT=     F  apply the AE augmentation even for DFT
   NKREDX  =     1    reduce k-point grid by
   NKREDY  =     1    reduce k-point grid by
   NKREDZ  =     1    reduce k-point grid by
   SHIFTRED=     F    shift reduced grid of Gamma
   HFKIDENT=     F    idential grid for each k-point
   ODDONLY =     F    use only odd q-grid points
   EVENONLY=     F    use only even q-grid points
   HFALPHA =   -1.0000 decay constant for conv. correction
   MCALPHA =    0.0000 extent of test-charge in conv. correction in multipole expansion
   AEXX    =    1.0000 exact exchange contribution
   HFSCREEN=    0.0000 screening length (either q_TF or 0.3 A-1)
   HFSCREENC=   0.0000 screening length for correlation (either q_TF or 0.3 A-1)
   HFRCUT  =    0.0000 spherical cutoff for potential kernel
   ALDAX   =    0.0000 LDA exchange part
   AGGAX   =    0.0000 GGA exchange part
   ALDAC   =    0.0000 LDA correlation
   AGGAC   =    0.0000 GGA correlation
   ENCUTFOCK=  -1.0 apply spherical cutoff to Coloumb kernel
   NBANDSGWLOW=     1    first orbital included in HF term
   NBLOCK_FOCK=    64    blocking factor in FOCK_ACC
 Linear response parameters
   LEPSILON=     F    determine dielectric tensor
   LRPA    =     F    only Hartree local field effects (RPA)
   LNABLA  =     F    use nabla operator in PAW spheres
   LVEL    =     F    velocity operator in full k-point grid
   CSHIFT  =0.1000    complex shift for real part using Kramers Kronig
   OMEGAMAX=  -1.0    maximum frequency
   DEG_THRESHOLD= 0.2000000E-02 threshold for treating states as degnerate
   RTIME   =   -0.100 relaxation time in fs
  (WPLASMAI=    0.000 imaginary part of plasma frequency in eV, 0.658/RTIME)
   DFIELD  = 0.0000000 0.0000000 0.0000000 field for delta impulse in time
 
  Optional k-point grid parameters
   LKPOINTS_OPT  =     F    use optional k-point grid
   KPOINTS_OPT_MODE=     1    mode for optional k-point grid
 
 Orbital magnetization related:
   ORBITALMAG=     F  switch on orbital magnetization
   LCHIMAG   =     F  perturbation theory with respect to B field
   DQ        =  0.001000  dq finite difference perturbation B field
   LLRAUG    =     F  two centre corrections for induced B field



--------------------------------------------------------------------------------------------------------


 Static calculation
 charge density and potential will be updated during run
 non-spin polarized calculation
 Conjugate gradient for all bands (Freysoldt, et al. PRB 79, 241103 (2009))
 preconditioned conjugated gradient                                        
 perform sub-space diagonalisation
    before iterative eigenvector-optimisation
 modified Broyden-mixing scheme, WC =      100.0
 initial mixing is a Kerker type mixing with AMIX =  0.4000 and BMIX =      1.0000
 Hartree-type preconditioning will be used
 using additional bands           47
 reciprocal scheme for non local part
 use partial core corrections
 no Harris-corrections to forces 
 use gradient corrections 
 use of overlap-Matrix (Vanderbilt PP)
 Gauss-broadening in eV      SIGMA  =   0.10


--------------------------------------------------------------------------------------------------------


  energy-cutoff  :      320.00
  volume of cell :     1403.01
      direct lattice vectors                 reciprocal lattice vectors
    15.439217752  0.004465832 -0.038376892     0.065085042  0.034326685  0.130688713
    -7.186282924 13.630928377 -0.001416099     0.000303919  0.073536393  0.130825479
    -7.182834812-11.890639092  6.700359279     0.000372844  0.000212151  0.150021909

  length of vectors
    15.439266094 15.409246337 15.423204220     0.149979744  0.150076646  0.150022522


 
 k-points in units of 2pi/SCALE and weight: KPOINTS                                 
   0.00000000  0.00000000  0.00000000       1.000
 
 k-points in reciprocal lattice and weights: KPOINTS                                 
   0.00000000  0.00000000  0.00000000       1.000
 
 position of ions in fractional coordinates (direct lattice) 
   0.03214020  0.13159647  0.56724307
   0.08093940  0.61713662  0.16608128
   0.13131166  0.56613140  0.03207237
   0.16605247  0.08089017  0.61665695
   0.17893414  0.74713641  0.34935874
   0.19222338  0.20509913  0.67775325
   0.20481709  0.67720899  0.19217243
   0.25289544  0.65072899  0.82158385
   0.32230772  0.80759730  0.79501636
   0.34931946  0.17889111  0.74655676
   0.38292206  0.83394732  0.91929290
   0.43330622  0.96770438  0.86831417
   0.56669375  0.03229564  0.13168583
   0.61707794  0.16605269  0.08070712
   0.65068057  0.82110888  0.25344327
   0.67769228  0.19240270  0.20498365
   0.74710459  0.34927101  0.17841618
   0.79518291  0.32279104  0.80782758
   0.80777660  0.79490087  0.32224675
   0.82106584  0.25286359  0.65064123
   0.83394752  0.91910981  0.38334302
   0.86868834  0.43386860  0.96792762
   0.91906058  0.38286338  0.83391870
   0.96785982  0.86840353  0.43275693
   0.18247943  0.65556576  0.63394506
   0.34410321  0.36627052  0.81766296
   0.36579143  0.81673594  0.34408965
   0.63420857  0.18326405  0.65591038
   0.65589679  0.63372948  0.18233703
   0.81752057  0.34443421  0.36605494
   0.06742193  0.69601104  0.32822922
   0.07318517  0.26430120  0.63986735
   0.09766887  0.47875851  0.63349814
   0.26414833  0.63787280  0.07365918
   0.30271532  0.67149634  0.93284699
   0.32849056  0.06748410  0.69647902
   0.36135303  0.92637320  0.73554137
   0.36730219  0.90336947  0.52141375
   0.47894577  0.63302380  0.09816102
   0.52105423  0.36697617  0.90183896
   0.63269781  0.09663054  0.47858622
   0.63864697  0.07362678  0.26445863
   0.67150947  0.93251592  0.30352101
   0.69728471  0.32850363  0.06715302
   0.73585167  0.36212720  0.92634082
   0.90233115  0.52124152  0.36650188
   0.92681485  0.73569880  0.36013268
   0.93257809  0.30398899  0.67177081
   0.10717448  0.78330733  0.51533456
   0.51533716  0.10679532  0.78280146
   0.78337232  0.51577130  0.10635646
   0.21662770  0.48422870  0.89364353
   0.48466284  0.89320467  0.21719851
   0.89282551  0.21669267  0.48466541
 
 position of ions in cartesian coordinates  (Angst):
  -4.52388317 -4.95095705  3.79931260
  -4.37821175  6.43769394  1.10882413
  -2.27140164  7.33612202  0.20905537
  -2.44692449 -6.22909552  4.12533600
  -5.11591652  6.03086322  2.33290413
  -3.37431139 -5.26236927  4.53352292
  -3.08474249  6.94684887  1.27880509
  -6.67311603 -0.89798737  5.49428014
  -6.53791475  1.55648768  5.31338245
  -1.25473680 -6.43702504  4.98853936
  -6.68409337  0.43820617  6.14371640
  -6.50124571  2.86783369  5.80001762
   7.57134513 -1.12307831  0.86054867
   7.75419311  1.30654888  0.51685004
   2.32483717  8.18177960  1.67202713
   7.60801466  0.18826726  1.34718394
   7.74321629  2.64274213  1.16628635
   4.15484218 -5.20209353  5.38176130
   4.44441119  7.00712439  2.12704337
   6.18601652 -4.28610774  4.32766196
   3.51702459  7.97385078  2.53523010
   3.34150173 -5.59136678  6.45151085
   5.44831152 -4.69293864  5.55174206
   5.59398355  6.69571217  2.86125369
  -6.44726406  1.39877301  4.23972831
  -3.19257720 -4.72839114  5.46491130
  -2.69330113  7.04305679  2.29032977
   3.76340103 -5.29830223  4.37023672
   4.26267732  6.47314643  1.19565489
   7.51736429  0.34598169  2.42083798
  -6.31840665  5.58472248  2.19568066
  -5.36548293 -4.00543421  4.28415826
  -6.48287571 -1.00633871  4.24023897
  -1.03477259  7.82012327  0.48250251
  -6.85236078 -1.93767650  6.23784180
  -0.41601639 -7.36024271  4.65395766
  -6.36144396  3.88288350  4.91321202
  -4.56623892  6.11546212  3.47828427
   2.14038562  7.46364369  0.63843721
  -1.07028522 -5.71888870  6.02212893
   5.63633910 -4.37070655  3.18228181
   7.43154408 -2.13812859  1.74735427
   1.48611650  9.10499778  2.00660882
   7.92246143  3.68243113  0.42272453
   2.10487260 -6.07536816  6.17806378
   7.55297553  2.75109390  2.42032751
   6.43558307  5.75018897  2.37640822
   7.38850658 -3.83996731  4.46488582
  -7.67594086  4.55002746  3.44770442
   1.56620766 -7.84998885  5.22512277
   7.62423645  5.76929366  0.68183275
  -6.55413615 -4.02453846  5.97873350
  -0.49610738  9.59474423  1.43544332
   8.74604099 -2.80527198  3.21286166
 


--------------------------------------------------------------------------------------------------------


 use serial FFT for orbitals x direction half grid
 k-point   1 :   0.0000 0.0000 0.0000  plane waves:    9119

 maximum and minimum number of plane-waves per node :      9119     9119

 maximum number of plane-waves:      9119
 maximum index in each direction: 
   IXMAX=   22   IYMAX=   19   IZMAX=   19
   IXMIN=    0   IYMIN=  -22   IZMIN=  -22


 serial   3D FFT for wavefunctions
 parallel 3D FFT for charge:
    minimum data exchange during FFTs selected (reduces bandwidth)


 FFT grid for exact exchange (Hartree Fock) 
  NGX = 70; NGY = 70; NGZ = 70

 use serial FFT for orbitals x direction half grid
 
 Radii for the augmentation spheres in the non-local exchange
 for species   1 augmentation radius   0.874 (default was   0.699)
       energy cutoff for augmentation   1280.0
 for species   2 augmentation radius   0.735 (default was   0.588)
       energy cutoff for augmentation   1280.0
 for species   3 augmentation radius   0.902 (default was   0.722)
       energy cutoff for augmentation   1280.0
 for species   4 augmentation radius   1.117 (default was   0.893)
       energy cutoff for augmentation   1280.0
 Maximum index for augmentation-charges in exchange         1435
  SETUP_FOCK is finished

 total amount of memory used by VASP MPI-rank0   109876. kBytes
=======================================================================

   base      :      30000. kBytes
   nonl-proj :      19845. kBytes
   fftplans  :       8382. kBytes
   grid      :      41054. kBytes
   one-center:       2178. kBytes
   HF        :       1344. kBytes
   nonlr-proj:       4805. kBytes
   wavefun   :       2268. kBytes
 
     INWAV:  cpu time      0.0001: real time      0.0003
 Broyden mixing: mesh for mixing (old mesh)
   NGX = 45   NGY = 45   NGZ = 45
  (NGX  =180   NGY  =180   NGZ  =180)
  gives a total of  91125 points

 initial charge density was supplied:
 charge density of overlapping atoms calculated
 number of electron     306.0000000 magnetization 
 keeping initial charge density in first step


--------------------------------------------------------------------------------------------------------


 Maximum index for augmentation-charges          526 (set IRDMAX)


--------------------------------------------------------------------------------------------------------


    FEWALD:  cpu time      0.0018: real time      0.0018


--------------------------------------- Iteration      1(   1)  ---------------------------------------


    POTLOK:  cpu time      0.1402: real time      0.1457
    SETDIJ:  cpu time      0.4323: real time      0.4333
    TRIAL :  cpu time      0.9914: real time      1.0557
    CORREC:  cpu time      0.0004: real time      0.0004
    --------------------------------------------
      LOOP:  cpu time      1.5663: real time      1.6392

 eigenvalue-minimisations  :   480
 total energy-change (2. order) :-0.8586644E+04  (-0.1401752E+05)
 number of electron     306.0000000 magnetization 
 augmentation part      306.0000000 magnetization 

 Free energy of the ion-electron system (eV)
  ---------------------------------------------------
  alpha Z        PSCENC =       346.31287096
  Ewald energy   TEWEN  =     19232.08394480
  -Hartree energ DENC   =    -46673.01407369
  -exchange      EXHF   =         0.00000000
  -V(xc)+E(xc)   XCENC  =      1482.78277833
  PAW double counting   =     25501.90799688   -37252.29458436
  entropy T*S    EENTRO =        -0.09869601
  eigenvalues    EBANDS =     -1924.46912345
  atomic energy  EATOM  =     30700.14502859
  ---------------------------------------------------
  free energy    TOTEN  =     -8586.64385795 eV

  energy without entropy =    -8586.54516194  energy(sigma->0) =    -8586.59450994
  exchange ACFDT corr.  =         0.00000000  see jH, gK, PRB 81, 115126


--------------------------------------------------------------------------------------------------------




--------------------------------------- Iteration      1(   2)  ---------------------------------------


    TRIAL :  cpu time      1.0101: real time      1.0133
    CORREC:  cpu time      0.0002: real time      0.0002
    --------------------------------------------
      LOOP:  cpu time      1.0170: real time      1.0205

 eigenvalue-minimisations  :   520
 total energy-change (2. order) :-0.3857530E+04  (-0.3603778E+04)
 number of electron     306.0000000 magnetization 
 augmentation part      306.0000000 magnetization 

 Free energy of the ion-electron system (eV)
  ---------------------------------------------------
  alpha Z        PSCENC =       346.31287096
  Ewald energy   TEWEN  =     19232.08394480
  -Hartree energ DENC   =    -46673.01407369
  -exchange      EXHF   =         0.00000000
  -V(xc)+E(xc)   XCENC  =      1482.78277833
  PAW double counting   =     25501.90799688   -37252.29458436
  entropy T*S    EENTRO =        -0.00064828
  eigenvalues    EBANDS =     -5782.09739837
  atomic energy  EATOM  =     30700.14502859
  ---------------------------------------------------
  free energy    TOTEN  =    -12444.17408514 eV

  energy without entropy =   -12444.17343686  energy(sigma->0) =   -12444.17376100
  exchange ACFDT corr.  =         0.00000000  see jH, gK, PRB 81, 115126


--------------------------------------------------------------------------------------------------------




--------------------------------------- Iteration      1(   3)  ---------------------------------------


    TRIAL :  cpu time      1.2531: real time      1.2570
    CORREC:  cpu time      0.0001: real time      0.0001
    --------------------------------------------
      LOOP:  cpu time      1.2542: real time      1.2640

 eigenvalue-minimisations  :   680
 total energy-change (2. order) :-0.6855441E+03  (-0.6527837E+03)
 number of electron     306.0000000 magnetization 
 augmentation part      306.0000000 magnetization 

 Free energy of the ion-electron system (eV)
  ---------------------------------------------------
  alpha Z        PSCENC =       346.31287096
  Ewald energy   TEWEN  =     19232.08394480
  -Hartree energ DENC   =    -46673.01407369
  -exchange      EXHF   =         0.00000000
  -V(xc)+E(xc)   XCENC  =      1482.78277833
  PAW double counting   =     25501.90799688   -37252.29458436
  entropy T*S    EENTRO =        -0.25470182
  eigenvalues    EBANDS =     -6467.38745709
  atomic energy  EATOM  =     30700.14502859
  ---------------------------------------------------
  free energy    TOTEN  =    -13129.71819740 eV

  energy without entropy =   -13129.46349558  energy(sigma->0) =   -13129.59084649
  exchange ACFDT corr.  =         0.00000000  see jH, gK, PRB 81, 115126


--------------------------------------------------------------------------------------------------------




--------------------------------------- Iteration      1(   4)  ---------------------------------------


    TRIAL :  cpu time      1.0685: real time      1.0716
    CORREC:  cpu time      0.0001: real time      0.0001
    --------------------------------------------
      LOOP:  cpu time      1.0691: real time      1.0785

 eigenvalue-minimisations  :   560
 total energy-change (2. order) :-0.7119887E+02  (-0.6147431E+02)
 number of electron     306.0000000 magnetization 
 augmentation part      306.0000000 magnetization 

 Free energy of the ion-electron system (eV)
  ---------------------------------------------------
  alpha Z        PSCENC =       346.31287096
  Ewald energy   TEWEN  =     19232.08394480
  -Hartree energ DENC   =    -46673.01407369
  -exchange      EXHF   =         0.00000000
  -V(xc)+E(xc)   XCENC  =      1482.78277833
  PAW double counting   =     25501.90799688   -37252.29458436
  entropy T*S    EENTRO =        -0.23368057
  eigenvalues    EBANDS =     -6538.60734986
  atomic energy  EATOM  =     30700.14502859
  ---------------------------------------------------
  free energy    TOTEN  =    -13200.91706892 eV

  energy without entropy =   -13200.68338835  energy(sigma->0) =   -13200.80022864
  exchange ACFDT corr.  =         0.00000000  see jH, gK, PRB 81, 115126


--------------------------------------------------------------------------------------------------------




--------------------------------------- Iteration      1(   5)  ---------------------------------------


    POTLOK:  cpu time      0.1246: real time      0.1249
    SETDIJ:  cpu time      0.4405: real time      0.4416
    TRIAL :  cpu time     21.4257: real time     21.5029
    CORREC:  cpu time      0.0002: real time      0.0002
    CHARGE:  cpu time      0.1100: real time      0.1103
    --------------------------------------------
      LOOP:  cpu time     22.1019: real time     22.1867

 eigenvalue-minimisations  :   640
 total energy-change (2. order) : 0.1225772E+05  (-0.5133265E+02)
 number of electron     306.0000073 magnetization 
 augmentation part       39.5928520 magnetization 

 Free energy of the ion-electron system (eV)
  ---------------------------------------------------
  alpha Z        PSCENC =       346.31287096
  Ewald energy   TEWEN  =     19232.08394480
  -Hartree energ DENC   =    -46673.01407369
  -exchange      EXHF   =      4324.32389771
  -V(xc)+E(xc)   XCENC  =         0.00000000
  PAW double counting   =     26881.58429795   -27097.93232303
  entropy T*S    EENTRO =        -0.06293864
  eigenvalues    EBANDS =     -8656.63533918
  atomic energy  EATOM  =     30700.14502859
  ---------------------------------------------------
  free energy    TOTEN  =      -943.19463453 eV

  energy without entropy =     -943.13169590  energy(sigma->0) =     -943.16316521
  exchange ACFDT corr.  =       -11.52889084  see jH, gK, PRB 81, 115126


--------------------------------------------------------------------------------------------------------




--------------------------------------- Iteration      1(   6)  ---------------------------------------


    POTLOK:  cpu time      0.1229: real time      0.1234
    SETDIJ:  cpu time      0.4398: real time      0.4409
    TRIAL :  cpu time     17.6498: real time     18.0587
    CORREC:  cpu time     17.7656: real time     17.8403
    CHARGE:  cpu time      0.1058: real time      0.1060
    --------------------------------------------
      LOOP:  cpu time     36.0871: real time     36.5775

 eigenvalue-minimisations  :     0
 total energy-change (2. order) : 0.1164774E+04  (-0.3699850E+03)
 number of electron     306.0000070 magnetization 
 augmentation part       46.1338642 magnetization 

 Free energy of the ion-electron system (eV)
  ---------------------------------------------------
  alpha Z        PSCENC =       346.31287096
  Ewald energy   TEWEN  =     19232.08394480
  -Hartree energ DENC   =    -42905.42251988
  -exchange      EXHF   =      4302.60857682
  -V(xc)+E(xc)   XCENC  =         0.00000000
  PAW double counting   =     28431.87795953   -28556.17654773
  entropy T*S    EENTRO =        -0.07887410
  eigenvalues    EBANDS =    -11329.78749840
  atomic energy  EATOM  =     30700.14502859
  ---------------------------------------------------
  free energy    TOTEN  =       221.57887603 eV

  energy without entropy =      221.65775014  energy(sigma->0) =      221.61831308
  exchange ACFDT corr.  =        -1.30039115  see jH, gK, PRB 81, 115126


--------------------------------------------------------------------------------------------------------




--------------------------------------- Iteration      1(   7)  ---------------------------------------


    POTLOK:  cpu time      0.1160: real time      0.1165
    SETDIJ:  cpu time      0.4428: real time      0.4439
    TRIAL :  cpu time     17.4260: real time     17.5204
    CORREC:  cpu time     17.6715: real time     17.7456
    CHARGE:  cpu time      0.1165: real time      0.1167
    --------------------------------------------
      LOOP:  cpu time     35.7756: real time     35.9514

 eigenvalue-minimisations  :     0
 total energy-change (2. order) :-0.4157458E+03  (-0.2492550E+03)
 number of electron     306.0000054 magnetization 
 augmentation part       52.5949302 magnetization 

 Free energy of the ion-electron system (eV)
  ---------------------------------------------------
  alpha Z        PSCENC =       346.31287096
  Ewald energy   TEWEN  =     19232.08394480
  -Hartree energ DENC   =    -44221.68974613
  -exchange      EXHF   =      4295.20619665
  -V(xc)+E(xc)   XCENC  =         0.00000000
  PAW double counting   =     29491.68051885   -29772.03855907
  entropy T*S    EENTRO =        -0.01133198
  eigenvalues    EBANDS =    -10265.78827683
  atomic energy  EATOM  =     30700.14502859
  ---------------------------------------------------
  free energy    TOTEN  =      -194.16689628 eV

  energy without entropy =     -194.15556430  energy(sigma->0) =     -194.16123029
  exchange ACFDT corr.  =       -41.53013222  see jH, gK, PRB 81, 115126


--------------------------------------------------------------------------------------------------------




--------------------------------------- Iteration      1(   8)  ---------------------------------------


    POTLOK:  cpu time      0.1161: real time      0.1166
    SETDIJ:  cpu time      0.4420: real time      0.4462
    TRIAL :  cpu time     17.3386: real time     18.1305
    CORREC:  cpu time     17.7604: real time     17.9694
    CHARGE:  cpu time      0.1065: real time      0.1068
    --------------------------------------------
      LOOP:  cpu time     35.7661: real time     36.7773

 eigenvalue-minimisations  :     0
 total energy-change (2. order) :-0.2035322E+03  (-0.3801543E+02)
 number of electron     306.0000047 magnetization 
 augmentation part       52.5146215 magnetization 

 Free energy of the ion-electron system (eV)
  ---------------------------------------------------
  alpha Z        PSCENC =       346.31287096
  Ewald energy   TEWEN  =     19232.08394480
  -Hartree energ DENC   =    -46260.17302077
  -exchange      EXHF   =      4208.52942012
  -V(xc)+E(xc)   XCENC  =         0.00000000
  PAW double counting   =     30976.59991051   -31519.48369445
  entropy T*S    EENTRO =        -0.01586905
  eigenvalues    EBANDS =     -8081.70224345
  atomic energy  EATOM  =     30700.14502859
  ---------------------------------------------------
  free energy    TOTEN  =      -397.69911569 eV

  energy without entropy =     -397.68324663  energy(sigma->0) =     -397.69118116
  exchange ACFDT corr.  =       -66.03221691  see jH, gK, PRB 81, 115126


--------------------------------------------------------------------------------------------------------




--------------------------------------- Iteration      1(   9)  ---------------------------------------


    POTLOK:  cpu time      0.1170: real time      0.1173
    SETDIJ:  cpu time      0.4459: real time      0.4472
    TRIAL :  cpu time     17.5258: real time     17.6936
    CORREC:  cpu time     17.8112: real time     18.1975
    CHARGE:  cpu time      0.1084: real time      0.1087
    --------------------------------------------
      LOOP:  cpu time     36.0111: real time     36.5727

 eigenvalue-minimisations  :     0
 total energy-change (2. order) :-0.3607859E+02  (-0.1579791E+03)
 number of electron     306.0000057 magnetization 
 augmentation part       49.0739945 magnetization 

 Free energy of the ion-electron system (eV)
  ---------------------------------------------------
  alpha Z        PSCENC =       346.31287096
  Ewald energy   TEWEN  =     19232.08394480
  -Hartree energ DENC   =    -46667.60489952
  -exchange      EXHF   =      4194.89100026
  -V(xc)+E(xc)   XCENC  =         0.00000000
  PAW double counting   =     31218.79701883   -31750.60606241
  entropy T*S    EENTRO =        -0.01751543
  eigenvalues    EBANDS =     -7707.78073458
  atomic energy  EATOM  =     30700.14502859
  ---------------------------------------------------
  free energy    TOTEN  =      -433.77770214 eV

  energy without entropy =     -433.76018671  energy(sigma->0) =     -433.76894442
  exchange ACFDT corr.  =        -7.27057151  see jH, gK, PRB 81, 115126


--------------------------------------------------------------------------------------------------------




--------------------------------------- Iteration      1(  10)  ---------------------------------------


    POTLOK:  cpu time      0.1177: real time      0.1180
    SETDIJ:  cpu time      0.4463: real time      0.4474
    TRIAL :  cpu time     17.4734: real time     17.6452
    CORREC:  cpu time     17.5806: real time     17.7584
    CHARGE:  cpu time      0.1058: real time      0.1060
    --------------------------------------------
      LOOP:  cpu time     35.7267: real time     36.0835

 eigenvalue-minimisations  :     0
 total energy-change (2. order) :-0.1197955E+03  (-0.3133737E+02)
 number of electron     306.0000058 magnetization 
 augmentation part       46.5668035 magnetization 

 Free energy of the ion-electron system (eV)
  ---------------------------------------------------
  alpha Z        PSCENC =       346.31287096
  Ewald energy   TEWEN  =     19232.08394480
  -Hartree energ DENC   =    -47438.82469694
  -exchange      EXHF   =      4205.54265124
  -V(xc)+E(xc)   XCENC  =         0.00000000
  PAW double counting   =     31755.56085579   -32089.38478351
  entropy T*S    EENTRO =        -0.00000000
  eigenvalues    EBANDS =     -7264.99154708
  atomic energy  EATOM  =     30700.14502859
  ---------------------------------------------------
  free energy    TOTEN  =      -553.57319158 eV

  energy without entropy =     -553.57319158  energy(sigma->0) =     -553.57319158
  exchange ACFDT corr.  =        -0.34397437  see jH, gK, PRB 81, 115126


--------------------------------------------------------------------------------------------------------




--------------------------------------- Iteration      1(  11)  ---------------------------------------


    POTLOK:  cpu time      0.1168: real time      0.1170
    SETDIJ:  cpu time      0.4459: real time      0.4470
    TRIAL :  cpu time     17.6097: real time     17.9318
    CORREC:  cpu time     17.8710: real time     17.9415
    CHARGE:  cpu time      0.1055: real time      0.1058
    --------------------------------------------
      LOOP:  cpu time     36.1500: real time     36.5511

 eigenvalue-minimisations  :     0
 total energy-change (2. order) :-0.3007290E+02  (-0.3417108E+02)
 number of electron     306.0000060 magnetization 
 augmentation part       44.4576373 magnetization 

 Free energy of the ion-electron system (eV)
  ---------------------------------------------------
  alpha Z        PSCENC =       346.31287096
  Ewald energy   TEWEN  =     19232.08394480
  -Hartree energ DENC   =    -47265.78661446
  -exchange      EXHF   =      4208.05303579
  -V(xc)+E(xc)   XCENC  =         0.00000000
  PAW double counting   =     31568.72503103   -31813.10949329
  entropy T*S    EENTRO =        -0.00000000
  eigenvalues    EBANDS =     -7560.06989564
  atomic energy  EATOM  =     30700.14502859
  ---------------------------------------------------
  free energy    TOTEN  =      -583.64609222 eV

  energy without entropy =     -583.64609222  energy(sigma->0) =     -583.64609222
  exchange ACFDT corr.  =        -6.21034784  see jH, gK, PRB 81, 115126


--------------------------------------------------------------------------------------------------------




--------------------------------------- Iteration      1(  12)  ---------------------------------------


    POTLOK:  cpu time      0.1163: real time      0.1166
    SETDIJ:  cpu time      0.4442: real time      0.4455
    TRIAL :  cpu time     17.6066: real time     17.6904
    CORREC:  cpu time     17.8222: real time     18.0345
    CHARGE:  cpu time      0.1259: real time      0.1262
    --------------------------------------------
      LOOP:  cpu time     36.1187: real time     36.4216

 eigenvalue-minimisations  :     0
 total energy-change (2. order) :-0.3498292E+02  (-0.4364598E+02)
 number of electron     306.0000064 magnetization 
 augmentation part       43.9909759 magnetization 

 Free energy of the ion-electron system (eV)
  ---------------------------------------------------
  alpha Z        PSCENC =       346.31287096
  Ewald energy   TEWEN  =     19232.08394480
  -Hartree energ DENC   =    -46942.80391154
  -exchange      EXHF   =      4215.01986802
  -V(xc)+E(xc)   XCENC  =         0.00000000
  PAW double counting   =     31267.53157590   -31447.87772966
  entropy T*S    EENTRO =        -0.00000000
  eigenvalues    EBANDS =     -7989.04065850
  atomic energy  EATOM  =     30700.14502859
  ---------------------------------------------------
  free energy    TOTEN  =      -618.62901143 eV

  energy without entropy =     -618.62901143  energy(sigma->0) =     -618.62901143
  exchange ACFDT corr.  =         0.00000000  see jH, gK, PRB 81, 115126


--------------------------------------------------------------------------------------------------------




--------------------------------------- Iteration      1(  13)  ---------------------------------------


    POTLOK:  cpu time      0.1397: real time      0.1541
    SETDIJ:  cpu time      0.4222: real time      0.4552
    TRIAL :  cpu time     17.5911: real time     17.9317
    CORREC:  cpu time     17.8045: real time     17.9435
    CHARGE:  cpu time      0.1060: real time      0.1063
    --------------------------------------------
      LOOP:  cpu time     36.0681: real time     36.6072

 eigenvalue-minimisations  :     0
 total energy-change (2. order) :-0.4936317E+02  (-0.5316239E+02)
 number of electron     306.0000069 magnetization 
 augmentation part       46.1673502 magnetization 

 Free energy of the ion-electron system (eV)
  ---------------------------------------------------
  alpha Z        PSCENC =       346.31287096
  Ewald energy   TEWEN  =     19232.08394480
  -Hartree energ DENC   =    -46825.59892291
  -exchange      EXHF   =      4248.90463478
  -V(xc)+E(xc)   XCENC  =         0.00000000
  PAW double counting   =     31268.03057480   -31420.02908190
  entropy T*S    EENTRO =        -0.00000000
  eigenvalues    EBANDS =     -8217.84123094
  atomic energy  EATOM  =     30700.14502859
  ---------------------------------------------------
  free energy    TOTEN  =      -667.99218182 eV

  energy without entropy =     -667.99218182  energy(sigma->0) =     -667.99218182
  exchange ACFDT corr.  =         0.00000000  see jH, gK, PRB 81, 115126


--------------------------------------------------------------------------------------------------------




--------------------------------------- Iteration      1(  14)  ---------------------------------------


    POTLOK:  cpu time      0.1166: real time      0.1169
    SETDIJ:  cpu time      0.4471: real time      0.4484
    TRIAL :  cpu time     17.4842: real time     17.5670
    CORREC:  cpu time     17.9506: real time     18.2381
    CHARGE:  cpu time      0.1093: real time      0.1096
    --------------------------------------------
      LOOP:  cpu time     36.1108: real time     36.4881

 eigenvalue-minimisations  :     0
 total energy-change (2. order) :-0.6114287E+02  (-0.3035163E+02)
 number of electron     306.0000072 magnetization 
 augmentation part       48.3624243 magnetization 

 Free energy of the ion-electron system (eV)
  ---------------------------------------------------
  alpha Z        PSCENC =       346.31287096
  Ewald energy   TEWEN  =     19232.08394480
  -Hartree energ DENC   =    -47048.33541166
  -exchange      EXHF   =      4306.88819017
  -V(xc)+E(xc)   XCENC  =         0.00000000
  PAW double counting   =     31686.93343849   -31863.21854523
  entropy T*S    EENTRO =        -0.00000000
  eigenvalues    EBANDS =     -8089.94456776
  atomic energy  EATOM  =     30700.14502859
  ---------------------------------------------------
  free energy    TOTEN  =      -729.13505165 eV

  energy without entropy =     -729.13505165  energy(sigma->0) =     -729.13505165
  exchange ACFDT corr.  =         0.00000000  see jH, gK, PRB 81, 115126


--------------------------------------------------------------------------------------------------------




--------------------------------------- Iteration      1(  15)  ---------------------------------------


    POTLOK:  cpu time      0.1180: real time      0.1183
    SETDIJ:  cpu time      0.4455: real time      0.4466
    TRIAL :  cpu time     17.6249: real time     17.6774
    CORREC:  cpu time     17.7311: real time     17.8336
    CHARGE:  cpu time      0.1054: real time      0.1056
    --------------------------------------------
      LOOP:  cpu time     36.0281: real time     36.1904

 eigenvalue-minimisations  :     0
 total energy-change (2. order) :-0.3454276E+02  (-0.1690431E+02)
 number of electron     306.0000072 magnetization 
 augmentation part       49.2776407 magnetization 

 Free energy of the ion-electron system (eV)
  ---------------------------------------------------
  alpha Z        PSCENC =       346.31287096
  Ewald energy   TEWEN  =     19232.08394480
  -Hartree energ DENC   =    -47294.15322171
  -exchange      EXHF   =      4346.84676314
  -V(xc)+E(xc)   XCENC  =         0.00000000
  PAW double counting   =     32023.94740092   -32239.23112568
  entropy T*S    EENTRO =        -0.00000000
  eigenvalues    EBANDS =     -7879.62947433
  atomic energy  EATOM  =     30700.14502859
  ---------------------------------------------------
  free energy    TOTEN  =      -763.67781330 eV

  energy without entropy =     -763.67781330  energy(sigma->0) =     -763.67781330
  exchange ACFDT corr.  =         0.00000000  see jH, gK, PRB 81, 115126


--------------------------------------------------------------------------------------------------------




--------------------------------------- Iteration      1(  16)  ---------------------------------------


    POTLOK:  cpu time      0.1154: real time      0.1159
    SETDIJ:  cpu time      0.4436: real time      0.4449
    TRIAL :  cpu time     17.4423: real time     17.7864
    CORREC:  cpu time     17.8393: real time     17.9072
    CHARGE:  cpu time      0.1088: real time      0.1091
    --------------------------------------------
      LOOP:  cpu time     35.9513: real time     36.3718

 eigenvalue-minimisations  :     0
 total energy-change (2. order) :-0.1979237E+02  (-0.1380809E+02)
 number of electron     306.0000071 magnetization 
 augmentation part       48.9111046 magnetization 

 Free energy of the ion-electron system (eV)
  ---------------------------------------------------
  alpha Z        PSCENC =       346.31287096
  Ewald energy   TEWEN  =     19232.08394480
  -Hartree energ DENC   =    -47354.42779544
  -exchange      EXHF   =      4363.16517767
  -V(xc)+E(xc)   XCENC  =         0.00000000
  PAW double counting   =     32079.03502163   -32314.49121553
  entropy T*S    EENTRO =        -0.00000000
  eigenvalues    EBANDS =     -7835.29321544
  atomic energy  EATOM  =     30700.14502859
  ---------------------------------------------------
  free energy    TOTEN  =      -783.47018278 eV

  energy without entropy =     -783.47018278  energy(sigma->0) =     -783.47018278
  exchange ACFDT corr.  =         0.00000000  see jH, gK, PRB 81, 115126


--------------------------------------------------------------------------------------------------------




--------------------------------------- Iteration      1(  17)  ---------------------------------------


    POTLOK:  cpu time      0.1182: real time      0.1188
    SETDIJ:  cpu time      0.4434: real time      0.4445
    TRIAL :  cpu time     17.5727: real time     17.6732
    CORREC:  cpu time     17.8047: real time     18.0243
    CHARGE:  cpu time      0.1068: real time      0.1071
    --------------------------------------------
      LOOP:  cpu time     36.0486: real time     36.3762

 eigenvalue-minimisations  :     0
 total energy-change (2. order) :-0.1625596E+02  (-0.1012657E+02)
 number of electron     306.0000068 magnetization 
 augmentation part       47.9469637 magnetization 

 Free energy of the ion-electron system (eV)
  ---------------------------------------------------
  alpha Z        PSCENC =       346.31287096
  Ewald energy   TEWEN  =     19232.08394480
  -Hartree energ DENC   =    -47177.81005743
  -exchange      EXHF   =      4358.52311894
  -V(xc)+E(xc)   XCENC  =         0.00000000
  PAW double counting   =     31826.78692878   -32056.81654562
  entropy T*S    EENTRO =        -0.00000000
  eigenvalues    EBANDS =     -8028.95143120
  atomic energy  EATOM  =     30700.14502859
  ---------------------------------------------------
  free energy    TOTEN  =      -799.72614219 eV

  energy without entropy =     -799.72614219  energy(sigma->0) =     -799.72614219
  exchange ACFDT corr.  =         0.00000000  see jH, gK, PRB 81, 115126


--------------------------------------------------------------------------------------------------------




--------------------------------------- Iteration      1(  18)  ---------------------------------------


    POTLOK:  cpu time      0.1200: real time      0.1202
    SETDIJ:  cpu time      0.3979: real time      0.4495
    TRIAL :  cpu time     17.7492: real time     17.8410
    CORREC:  cpu time     17.8671: real time     17.9798
    CHARGE:  cpu time      0.1100: real time      0.1103
    --------------------------------------------
      LOOP:  cpu time     36.2465: real time     36.5093

 eigenvalue-minimisations  :     0
 total energy-change (2. order) :-0.1147037E+02  (-0.7787348E+01)
 number of electron     306.0000065 magnetization 
 augmentation part       47.4689592 magnetization 

 Free energy of the ion-electron system (eV)
  ---------------------------------------------------
  alpha Z        PSCENC =       346.31287096
  Ewald energy   TEWEN  =     19232.08394480
  -Hartree energ DENC   =    -46905.18556758
  -exchange      EXHF   =      4343.23760033
  -V(xc)+E(xc)   XCENC  =         0.00000000
  PAW double counting   =     31449.88189730   -31662.29295950
  entropy T*S    EENTRO =        -0.00000000
  eigenvalues    EBANDS =     -8315.37932479
  atomic energy  EATOM  =     30700.14502859
  ---------------------------------------------------
  free energy    TOTEN  =      -811.19650989 eV

  energy without entropy =     -811.19650989  energy(sigma->0) =     -811.19650989
  exchange ACFDT corr.  =         0.00000000  see jH, gK, PRB 81, 115126


--------------------------------------------------------------------------------------------------------




--------------------------------------- Iteration      1(  19)  ---------------------------------------


    POTLOK:  cpu time      0.1170: real time      0.1173
    SETDIJ:  cpu time      0.4464: real time      0.4477
    TRIAL :  cpu time     17.3378: real time     17.4703
    CORREC:  cpu time     17.8544: real time     18.2750
    CHARGE:  cpu time      0.1085: real time      0.1087
    --------------------------------------------
      LOOP:  cpu time     35.8676: real time     36.4277

 eigenvalue-minimisations  :     0
 total energy-change (2. order) :-0.8612884E+01  (-0.5764443E+01)
 number of electron     306.0000063 magnetization 
 augmentation part       47.7282819 magnetization 

 Free energy of the ion-electron system (eV)
  ---------------------------------------------------
  alpha Z        PSCENC =       346.31287096
  Ewald energy   TEWEN  =     19232.08394480
  -Hartree energ DENC   =    -46738.82719766
  -exchange      EXHF   =      4332.00995437
  -V(xc)+E(xc)   XCENC  =         0.00000000
  PAW double counting   =     31190.54891193   -31398.80616716
  entropy T*S    EENTRO =        -0.00000000
  eigenvalues    EBANDS =     -8483.27673924
  atomic energy  EATOM  =     30700.14502859
  ---------------------------------------------------
  free energy    TOTEN  =      -819.80939342 eV

  energy without entropy =     -819.80939342  energy(sigma->0) =     -819.80939342
  exchange ACFDT corr.  =        -0.00000000  see jH, gK, PRB 81, 115126


--------------------------------------------------------------------------------------------------------




--------------------------------------- Iteration      1(  20)  ---------------------------------------


    POTLOK:  cpu time      0.1161: real time      0.1164
    SETDIJ:  cpu time      0.4506: real time      0.4518
    TRIAL :  cpu time     17.5706: real time     17.6835
    CORREC:  cpu time     17.9286: real time     18.0180
    CHARGE:  cpu time      0.1059: real time      0.1064
    --------------------------------------------
      LOOP:  cpu time     36.1762: real time     36.3852

 eigenvalue-minimisations  :     0
 total energy-change (2. order) :-0.6058938E+01  (-0.3867880E+01)
 number of electron     306.0000063 magnetization 
 augmentation part       48.0886635 magnetization 

 Free energy of the ion-electron system (eV)
  ---------------------------------------------------
  alpha Z        PSCENC =       346.31287096
  Ewald energy   TEWEN  =     19232.08394480
  -Hartree energ DENC   =    -46739.88896308
  -exchange      EXHF   =      4331.14691561
  -V(xc)+E(xc)   XCENC  =         0.00000000
  PAW double counting   =     31142.06840376   -31364.19756256
  entropy T*S    EENTRO =        -0.00000000
  eigenvalues    EBANDS =     -8473.53896940
  atomic energy  EATOM  =     30700.14502859
  ---------------------------------------------------
  free energy    TOTEN  =      -825.86833132 eV

  energy without entropy =     -825.86833132  energy(sigma->0) =     -825.86833132
  exchange ACFDT corr.  =        -0.00000000  see jH, gK, PRB 81, 115126


--------------------------------------------------------------------------------------------------------




--------------------------------------- Iteration      1(  21)  ---------------------------------------


    POTLOK:  cpu time      0.1164: real time      0.1166
    SETDIJ:  cpu time      0.4476: real time      0.4490
    TRIAL :  cpu time     17.5656: real time     17.9296
    CORREC:  cpu time     18.2012: real time     18.3164
    CHARGE:  cpu time      0.1100: real time      0.1103
    --------------------------------------------
      LOOP:  cpu time     36.4441: real time     36.9304

 eigenvalue-minimisations  :     0
 total energy-change (2. order) :-0.4021213E+01  (-0.3071363E+01)
 number of electron     306.0000064 magnetization 
 augmentation part       48.1176221 magnetization 

 Free energy of the ion-electron system (eV)
  ---------------------------------------------------
  alpha Z        PSCENC =       346.31287096
  Ewald energy   TEWEN  =     19232.08394480
  -Hartree energ DENC   =    -46805.81046975
  -exchange      EXHF   =      4337.53414870
  -V(xc)+E(xc)   XCENC  =         0.00000000
  PAW double counting   =     31193.95272961   -31431.39586802
  entropy T*S    EENTRO =        -0.00000000
  eigenvalues    EBANDS =     -8402.71192902
  atomic energy  EATOM  =     30700.14502859
  ---------------------------------------------------
  free energy    TOTEN  =      -829.88954413 eV

  energy without entropy =     -829.88954413  energy(sigma->0) =     -829.88954413
  exchange ACFDT corr.  =        -0.00000000  see jH, gK, PRB 81, 115126


--------------------------------------------------------------------------------------------------------




--------------------------------------- Iteration      1(  22)  ---------------------------------------


    POTLOK:  cpu time      0.1173: real time      0.1175
    SETDIJ:  cpu time      0.4438: real time      0.4452
    TRIAL :  cpu time     17.7614: real time     17.8543
    CORREC:  cpu time     18.1245: real time     18.3147
    CHARGE:  cpu time      0.1060: real time      0.1065
    --------------------------------------------
      LOOP:  cpu time     36.5560: real time     36.8472

 eigenvalue-minimisations  :     0
 total energy-change (2. order) :-0.3185802E+01  (-0.2322364E+01)
 number of electron     306.0000065 magnetization 
 augmentation part       47.8234984 magnetization 

 Free energy of the ion-electron system (eV)
  ---------------------------------------------------
  alpha Z        PSCENC =       346.31287096
  Ewald energy   TEWEN  =     19232.08394480
  -Hartree energ DENC   =    -46846.83529604
  -exchange      EXHF   =      4344.67544329
  -V(xc)+E(xc)   XCENC  =         0.00000000
  PAW double counting   =     31238.49773739   -31481.10674601
  entropy T*S    EENTRO =        -0.00000000
  eigenvalues    EBANDS =     -8366.84832955
  atomic energy  EATOM  =     30700.14502859
  ---------------------------------------------------
  free energy    TOTEN  =      -833.07534657 eV

  energy without entropy =     -833.07534657  energy(sigma->0) =     -833.07534657
  exchange ACFDT corr.  =         0.00000000  see jH, gK, PRB 81, 115126


--------------------------------------------------------------------------------------------------------




--------------------------------------- Iteration      1(  23)  ---------------------------------------


    POTLOK:  cpu time      0.1157: real time      0.1161
    SETDIJ:  cpu time      0.4460: real time      0.4471
    TRIAL :  cpu time     17.5496: real time     17.6314
    CORREC:  cpu time     17.7967: real time     17.9328
    CHARGE:  cpu time      0.1085: real time      0.1087
    --------------------------------------------
      LOOP:  cpu time     36.0199: real time     36.2450

 eigenvalue-minimisations  :     0
 total energy-change (2. order) :-0.2398009E+01  (-0.1666717E+01)
 number of electron     306.0000064 magnetization 
 augmentation part       47.5474575 magnetization 

 Free energy of the ion-electron system (eV)
  ---------------------------------------------------
  alpha Z        PSCENC =       346.31287096
  Ewald energy   TEWEN  =     19232.08394480
  -Hartree energ DENC   =    -46846.71146685
  -exchange      EXHF   =      4348.98063152
  -V(xc)+E(xc)   XCENC  =         0.00000000
  PAW double counting   =     31254.60912400   -31490.65897185
  entropy T*S    EENTRO =        -0.00000000
  eigenvalues    EBANDS =     -8380.23451683
  atomic energy  EATOM  =     30700.14502859
  ---------------------------------------------------
  free energy    TOTEN  =      -835.47335567 eV

  energy without entropy =     -835.47335567  energy(sigma->0) =     -835.47335567
  exchange ACFDT corr.  =         0.00000000  see jH, gK, PRB 81, 115126


--------------------------------------------------------------------------------------------------------




--------------------------------------- Iteration      1(  24)  ---------------------------------------


    POTLOK:  cpu time      0.1158: real time      0.1161
    SETDIJ:  cpu time      0.4461: real time      0.4474
    TRIAL :  cpu time     17.8932: real time     18.0953
    CORREC:  cpu time     18.0034: real time     18.2161
    CHARGE:  cpu time      0.1067: real time      0.1070
    --------------------------------------------
      LOOP:  cpu time     36.5680: real time     36.9896

 eigenvalue-minimisations  :     0
 total energy-change (2. order) :-0.1727549E+01  (-0.1215848E+01)
 number of electron     306.0000064 magnetization 
 augmentation part       47.5471865 magnetization 

 Free energy of the ion-electron system (eV)
  ---------------------------------------------------
  alpha Z        PSCENC =       346.31287096
  Ewald energy   TEWEN  =     19232.08394480
  -Hartree energ DENC   =    -46847.15975426
  -exchange      EXHF   =      4352.14587009
  -V(xc)+E(xc)   XCENC  =         0.00000000
  PAW double counting   =     31282.28129658   -31508.91432088
  entropy T*S    EENTRO =        -0.00000000
  eigenvalues    EBANDS =     -8394.09584050
  atomic energy  EATOM  =     30700.14502859
  ---------------------------------------------------
  free energy    TOTEN  =      -837.20090462 eV

  energy without entropy =     -837.20090462  energy(sigma->0) =     -837.20090462
  exchange ACFDT corr.  =         0.00000000  see jH, gK, PRB 81, 115126


--------------------------------------------------------------------------------------------------------




--------------------------------------- Iteration      1(  25)  ---------------------------------------


    POTLOK:  cpu time      0.1173: real time      0.1175
    SETDIJ:  cpu time      0.4478: real time      0.4492
    TRIAL :  cpu time     17.5846: real time     17.7026
    CORREC:  cpu time     17.7925: real time     17.9356
    CHARGE:  cpu time      0.1061: real time      0.1069
    --------------------------------------------
      LOOP:  cpu time     36.0511: real time     36.3203

 eigenvalue-minimisations  :     0
 total energy-change (2. order) :-0.1273401E+01  (-0.8303823E+00)
 number of electron     306.0000065 magnetization 
 augmentation part       47.7578502 magnetization 

 Free energy of the ion-electron system (eV)
  ---------------------------------------------------
  alpha Z        PSCENC =       346.31287096
  Ewald energy   TEWEN  =     19232.08394480
  -Hartree energ DENC   =    -46880.86681348
  -exchange      EXHF   =      4356.27764698
  -V(xc)+E(xc)   XCENC  =         0.00000000
  PAW double counting   =     31349.15961934   -31571.66340455
  entropy T*S    EENTRO =        -0.00000000
  eigenvalues    EBANDS =     -8369.92319870
  atomic energy  EATOM  =     30700.14502859
  ---------------------------------------------------
  free energy    TOTEN  =      -838.47430607 eV

  energy without entropy =     -838.47430607  energy(sigma->0) =     -838.47430607
  exchange ACFDT corr.  =         0.00000000  see jH, gK, PRB 81, 115126


--------------------------------------------------------------------------------------------------------




--------------------------------------- Iteration      1(  26)  ---------------------------------------


    POTLOK:  cpu time      0.1146: real time      0.1156
    SETDIJ:  cpu time      0.4439: real time      0.4453
    TRIAL :  cpu time     17.0530: real time     17.8765
    CORREC:  cpu time     17.8605: real time     17.9447
    CHARGE:  cpu time      0.1082: real time      0.1085
    --------------------------------------------
      LOOP:  cpu time     35.5828: real time     36.4984

 eigenvalue-minimisations  :     0
 total energy-change (2. order) :-0.8702267E+00  (-0.6345732E+00)
 number of electron     306.0000065 magnetization 
 augmentation part       47.9780381 magnetization 

 Free energy of the ion-electron system (eV)
  ---------------------------------------------------
  alpha Z        PSCENC =       346.31287096
  Ewald energy   TEWEN  =     19232.08394480
  -Hartree energ DENC   =    -46933.62836607
  -exchange      EXHF   =      4360.79128301
  -V(xc)+E(xc)   XCENC  =         0.00000000
  PAW double counting   =     31430.17128559   -31653.96102768
  entropy T*S    EENTRO =        -0.00000000
  eigenvalues    EBANDS =     -8321.25955194
  atomic energy  EATOM  =     30700.14502859
  ---------------------------------------------------
  free energy    TOTEN  =      -839.34453274 eV

  energy without entropy =     -839.34453274  energy(sigma->0) =     -839.34453274
  exchange ACFDT corr.  =         0.00000000  see jH, gK, PRB 81, 115126


--------------------------------------------------------------------------------------------------------




--------------------------------------- Iteration      1(  27)  ---------------------------------------


    POTLOK:  cpu time      0.1176: real time      0.1181
    SETDIJ:  cpu time      0.4459: real time      0.4471
    TRIAL :  cpu time     17.6505: real time     17.7715
    CORREC:  cpu time     17.6147: real time     18.1061
    CHARGE:  cpu time      0.1044: real time      0.1046
    --------------------------------------------
      LOOP:  cpu time     35.9361: real time     36.5560

 eigenvalue-minimisations  :     0
 total energy-change (2. order) :-0.6713346E+00  (-0.5578380E+00)
 number of electron     306.0000066 magnetization 
 augmentation part       48.0701041 magnetization 

 Free energy of the ion-electron system (eV)
  ---------------------------------------------------
  alpha Z        PSCENC =       346.31287096
  Ewald energy   TEWEN  =     19232.08394480
  -Hartree energ DENC   =    -46978.56508382
  -exchange      EXHF   =      4364.86551127
  -V(xc)+E(xc)   XCENC  =         0.00000000
  PAW double counting   =     31494.81729976   -31720.66748580
  entropy T*S    EENTRO =        -0.00000000
  eigenvalues    EBANDS =     -8279.00795308
  atomic energy  EATOM  =     30700.14502859
  ---------------------------------------------------
  free energy    TOTEN  =      -840.01586732 eV

  energy without entropy =     -840.01586732  energy(sigma->0) =     -840.01586732
  exchange ACFDT corr.  =        -0.00000000  see jH, gK, PRB 81, 115126


--------------------------------------------------------------------------------------------------------




--------------------------------------- Iteration      1(  28)  ---------------------------------------


    POTLOK:  cpu time      0.1163: real time      0.1169
    SETDIJ:  cpu time      0.4442: real time      0.4453
    TRIAL :  cpu time     17.5547: real time     17.6221
    CORREC:  cpu time     17.8029: real time     17.8948
    CHARGE:  cpu time      0.1076: real time      0.1078
    --------------------------------------------
      LOOP:  cpu time     36.0290: real time     36.1953

 eigenvalue-minimisations  :     0
 total energy-change (2. order) :-0.5860418E+00  (-0.4088441E+00)
 number of electron     306.0000067 magnetization 
 augmentation part       48.0154714 magnetization 

 Free energy of the ion-electron system (eV)
  ---------------------------------------------------
  alpha Z        PSCENC =       346.31287096
  Ewald energy   TEWEN  =     19232.08394480
  -Hartree energ DENC   =    -46997.59302977
  -exchange      EXHF   =      4367.72595412
  -V(xc)+E(xc)   XCENC  =         0.00000000
  PAW double counting   =     31525.26560297   -31750.59364306
  entropy T*S    EENTRO =        -0.00000000
  eigenvalues    EBANDS =     -8263.94863775
  atomic energy  EATOM  =     30700.14502859
  ---------------------------------------------------
  free energy    TOTEN  =      -840.60190915 eV

  energy without entropy =     -840.60190915  energy(sigma->0) =     -840.60190915
  exchange ACFDT corr.  =         0.00000000  see jH, gK, PRB 81, 115126


--------------------------------------------------------------------------------------------------------




--------------------------------------- Iteration      1(  29)  ---------------------------------------


    POTLOK:  cpu time      0.1182: real time      0.1184
    SETDIJ:  cpu time      0.4468: real time      0.4479
    TRIAL :  cpu time     17.8304: real time     18.0581
    CORREC:  cpu time     17.8500: real time     17.9424
    CHARGE:  cpu time      0.1047: real time      0.1049
    --------------------------------------------
      LOOP:  cpu time     36.3528: real time     36.6804

 eigenvalue-minimisations  :     0
 total energy-change (2. order) :-0.4208081E+00  (-0.3241607E+00)
 number of electron     306.0000067 magnetization 
 augmentation part       47.9378411 magnetization 

 Free energy of the ion-electron system (eV)
  ---------------------------------------------------
  alpha Z        PSCENC =       346.31287096
  Ewald energy   TEWEN  =     19232.08394480
  -Hartree energ DENC   =    -46989.56945778
  -exchange      EXHF   =      4368.48338214
  -V(xc)+E(xc)   XCENC  =         0.00000000
  PAW double counting   =     31520.32129830   -31742.63818733
  entropy T*S    EENTRO =        -0.00000000
  eigenvalues    EBANDS =     -8276.16159690
  atomic energy  EATOM  =     30700.14502859
  ---------------------------------------------------
  free energy    TOTEN  =      -841.02271723 eV

  energy without entropy =     -841.02271723  energy(sigma->0) =     -841.02271723
  exchange ACFDT corr.  =         0.00000000  see jH, gK, PRB 81, 115126


--------------------------------------------------------------------------------------------------------




--------------------------------------- Iteration      1(  30)  ---------------------------------------


    POTLOK:  cpu time      0.1174: real time      0.1178
    SETDIJ:  cpu time      0.4454: real time      0.4469
    TRIAL :  cpu time     17.6185: real time     17.7085
    CORREC:  cpu time     18.1477: real time     18.2482
    CHARGE:  cpu time      0.1075: real time      0.1077
    --------------------------------------------
      LOOP:  cpu time     36.4387: real time     36.6372

 eigenvalue-minimisations  :     0
 total energy-change (2. order) :-0.3308625E+00  (-0.2718711E+00)
 number of electron     306.0000066 magnetization 
 augmentation part       47.9399089 magnetization 

 Free energy of the ion-electron system (eV)
  ---------------------------------------------------
  alpha Z        PSCENC =       346.31287096
  Ewald energy   TEWEN  =     19232.08394480
  -Hartree energ DENC   =    -46975.46647093
  -exchange      EXHF   =      4367.96304725
  -V(xc)+E(xc)   XCENC  =         0.00000000
  PAW double counting   =     31504.47205054   -31724.10703022
  entropy T*S    EENTRO =        -0.00000000
  eigenvalues    EBANDS =     -8292.75702074
  atomic energy  EATOM  =     30700.14502859
  ---------------------------------------------------
  free energy    TOTEN  =      -841.35357976 eV

  energy without entropy =     -841.35357976  energy(sigma->0) =     -841.35357976
  exchange ACFDT corr.  =         0.00000000  see jH, gK, PRB 81, 115126


--------------------------------------------------------------------------------------------------------




--------------------------------------- Iteration      1(  31)  ---------------------------------------


    POTLOK:  cpu time      0.1239: real time      0.1242
    SETDIJ:  cpu time      0.4470: real time      0.4484
    TRIAL :  cpu time     17.6975: real time     18.2056
    CORREC:  cpu time     17.8643: real time     17.9560
    CHARGE:  cpu time      0.1068: real time      0.1073
    --------------------------------------------
      LOOP:  cpu time     36.2424: real time     36.8502

 eigenvalue-minimisations  :     0
 total energy-change (2. order) :-0.2747344E+00  (-0.1840974E+00)
 number of electron     306.0000066 magnetization 
 augmentation part       47.9976981 magnetization 

 Free energy of the ion-electron system (eV)
  ---------------------------------------------------
  alpha Z        PSCENC =       346.31287096
  Ewald energy   TEWEN  =     19232.08394480
  -Hartree energ DENC   =    -46971.83509014
  -exchange      EXHF   =      4367.16952128
  -V(xc)+E(xc)   XCENC  =         0.00000000
  PAW double counting   =     31496.96082972   -31716.58239579
  entropy T*S    EENTRO =        -0.00000000
  eigenvalues    EBANDS =     -8295.88302357
  atomic energy  EATOM  =     30700.14502859
  ---------------------------------------------------
  free energy    TOTEN  =      -841.62831415 eV

  energy without entropy =     -841.62831415  energy(sigma->0) =     -841.62831415
  exchange ACFDT corr.  =         0.00000000  see jH, gK, PRB 81, 115126


--------------------------------------------------------------------------------------------------------




--------------------------------------- Iteration      1(  32)  ---------------------------------------


    POTLOK:  cpu time      0.1150: real time      0.1153
    SETDIJ:  cpu time      0.4443: real time      0.4454
    TRIAL :  cpu time     17.6435: real time     17.7611
    CORREC:  cpu time     17.7720: real time     18.1415
    CHARGE:  cpu time      0.1105: real time      0.1107
    --------------------------------------------
      LOOP:  cpu time     36.0877: real time     36.5825

 eigenvalue-minimisations  :     0
 total energy-change (2. order) :-0.1849446E+00  (-0.1367837E+00)
 number of electron     306.0000066 magnetization 
 augmentation part       48.0323466 magnetization 

 Free energy of the ion-electron system (eV)
  ---------------------------------------------------
  alpha Z        PSCENC =       346.31287096
  Ewald energy   TEWEN  =     19232.08394480
  -Hartree energ DENC   =    -46976.78006516
  -exchange      EXHF   =      4366.55874071
  -V(xc)+E(xc)   XCENC  =         0.00000000
  PAW double counting   =     31497.15267366   -31718.62682049
  entropy T*S    EENTRO =        -0.00000000
  eigenvalues    EBANDS =     -8288.65963182
  atomic energy  EATOM  =     30700.14502859
  ---------------------------------------------------
  free energy    TOTEN  =      -841.81325876 eV

  energy without entropy =     -841.81325876  energy(sigma->0) =     -841.81325876
  exchange ACFDT corr.  =         0.00000000  see jH, gK, PRB 81, 115126


--------------------------------------------------------------------------------------------------------




--------------------------------------- Iteration      1(  33)  ---------------------------------------


    POTLOK:  cpu time      0.1159: real time      0.1166
    SETDIJ:  cpu time      0.4482: real time      0.4492
    TRIAL :  cpu time     17.6152: real time     17.7267
    CORREC:  cpu time     17.8978: real time     17.9873
    CHARGE:  cpu time      0.1055: real time      0.1057
    --------------------------------------------
      LOOP:  cpu time     36.1857: real time     36.3939

 eigenvalue-minimisations  :     0
 total energy-change (2. order) :-0.1374069E+00  (-0.1135474E+00)
 number of electron     306.0000066 magnetization 
 augmentation part       48.0067002 magnetization 

 Free energy of the ion-electron system (eV)
  ---------------------------------------------------
  alpha Z        PSCENC =       346.31287096
  Ewald energy   TEWEN  =     19232.08394480
  -Hartree energ DENC   =    -46978.42276729
  -exchange      EXHF   =      4365.87319604
  -V(xc)+E(xc)   XCENC  =         0.00000000
  PAW double counting   =     31492.30155753   -31715.33328039
  entropy T*S    EENTRO =        -0.00000000
  eigenvalues    EBANDS =     -8284.91121585
  atomic energy  EATOM  =     30700.14502859
  ---------------------------------------------------
  free energy    TOTEN  =      -841.95066563 eV

  energy without entropy =     -841.95066563  energy(sigma->0) =     -841.95066563
  exchange ACFDT corr.  =         0.00000000  see jH, gK, PRB 81, 115126


--------------------------------------------------------------------------------------------------------




--------------------------------------- Iteration      1(  34)  ---------------------------------------


    POTLOK:  cpu time      0.1144: real time      0.1147
    SETDIJ:  cpu time      0.4485: real time      0.4495
    TRIAL :  cpu time     17.4111: real time     17.8486
    CORREC:  cpu time     17.8955: real time     17.9507
    CHARGE:  cpu time      0.1081: real time      0.1083
    --------------------------------------------
      LOOP:  cpu time     35.9805: real time     36.4802

 eigenvalue-minimisations  :     0
 total energy-change (2. order) :-0.1138838E+00  (-0.8326870E-01)
 number of electron     306.0000066 magnetization 
 augmentation part       47.9542595 magnetization 

 Free energy of the ion-electron system (eV)
  ---------------------------------------------------
  alpha Z        PSCENC =       346.31287096
  Ewald energy   TEWEN  =     19232.08394480
  -Hartree energ DENC   =    -46970.84584872
  -exchange      EXHF   =      4364.96656474
  -V(xc)+E(xc)   XCENC  =         0.00000000
  PAW double counting   =     31476.56304274   -31699.76043652
  entropy T*S    EENTRO =        -0.00000000
  eigenvalues    EBANDS =     -8291.52971601
  atomic energy  EATOM  =     30700.14502859
  ---------------------------------------------------
  free energy    TOTEN  =      -842.06454943 eV

  energy without entropy =     -842.06454943  energy(sigma->0) =     -842.06454943
  exchange ACFDT corr.  =         0.00000000  see jH, gK, PRB 81, 115126


--------------------------------------------------------------------------------------------------------




--------------------------------------- Iteration      1(  35)  ---------------------------------------


    POTLOK:  cpu time      0.1160: real time      0.1163
    SETDIJ:  cpu time      0.4469: real time      0.4482
    TRIAL :  cpu time     17.6554: real time     17.7576
    CORREC:  cpu time     17.8489: real time     17.9916
    CHARGE:  cpu time      0.1306: real time      0.1520
    --------------------------------------------
      LOOP:  cpu time     36.2008: real time     36.4741

 eigenvalue-minimisations  :     0
 total energy-change (2. order) :-0.8356723E-01  (-0.6546589E-01)
 number of electron     306.0000066 magnetization 
 augmentation part       47.9308754 magnetization 

 Free energy of the ion-electron system (eV)
  ---------------------------------------------------
  alpha Z        PSCENC =       346.31287096
  Ewald energy   TEWEN  =     19232.08394480
  -Hartree energ DENC   =    -46960.46441660
  -exchange      EXHF   =      4364.21281714
  -V(xc)+E(xc)   XCENC  =         0.00000000
  PAW double counting   =     31458.80378140   -31681.37188229
  entropy T*S    EENTRO =        -0.00000000
  eigenvalues    EBANDS =     -8301.87026066
  atomic energy  EATOM  =     30700.14502859
  ---------------------------------------------------
  free energy    TOTEN  =      -842.14811666 eV

  energy without entropy =     -842.14811666  energy(sigma->0) =     -842.14811666
  exchange ACFDT corr.  =         0.00000000  see jH, gK, PRB 81, 115126


--------------------------------------------------------------------------------------------------------




--------------------------------------- Iteration      1(  36)  ---------------------------------------


    POTLOK:  cpu time      0.1233: real time      0.1242
    SETDIJ:  cpu time      0.4483: real time      0.4533
    TRIAL :  cpu time     17.8329: real time     18.1356
    CORREC:  cpu time     17.7342: real time     17.8168
    CHARGE:  cpu time      0.1042: real time      0.1045
    --------------------------------------------
      LOOP:  cpu time     36.2531: real time     36.6511

 eigenvalue-minimisations  :     0
 total energy-change (2. order) :-0.6591422E-01  (-0.5392361E-01)
 number of electron     306.0000066 magnetization 
 augmentation part       47.9521588 magnetization 

 Free energy of the ion-electron system (eV)
  ---------------------------------------------------
  alpha Z        PSCENC =       346.31287096
  Ewald energy   TEWEN  =     19232.08394480
  -Hartree energ DENC   =    -46956.58633554
  -exchange      EXHF   =      4363.91955116
  -V(xc)+E(xc)   XCENC  =         0.00000000
  PAW double counting   =     31449.39327557   -31671.90315202
  entropy T*S    EENTRO =        -0.00000000
  eigenvalues    EBANDS =     -8305.57921439
  atomic energy  EATOM  =     30700.14502859
  ---------------------------------------------------
  free energy    TOTEN  =      -842.21403088 eV

  energy without entropy =     -842.21403088  energy(sigma->0) =     -842.21403088
  exchange ACFDT corr.  =        -0.00000000  see jH, gK, PRB 81, 115126


--------------------------------------------------------------------------------------------------------




--------------------------------------- Iteration      1(  37)  ---------------------------------------


    POTLOK:  cpu time      0.1145: real time      0.1150
    SETDIJ:  cpu time      0.4473: real time      0.4485
    TRIAL :  cpu time     17.6285: real time     17.6977
    CORREC:  cpu time     17.7423: real time     18.0790
    CHARGE:  cpu time      0.1044: real time      0.1047
    --------------------------------------------
      LOOP:  cpu time     36.0403: real time     36.4537

 eigenvalue-minimisations  :     0
 total energy-change (2. order) :-0.5433477E-01  (-0.9354948E-01)
 number of electron     306.0000066 magnetization 
 augmentation part       47.9951452 magnetization 

 Free energy of the ion-electron system (eV)
  ---------------------------------------------------
  alpha Z        PSCENC =       346.31287096
  Ewald energy   TEWEN  =     19232.08394480
  -Hartree energ DENC   =    -46961.43134019
  -exchange      EXHF   =      4364.10760457
  -V(xc)+E(xc)   XCENC  =         0.00000000
  PAW double counting   =     31451.12470150   -31674.52290491
  entropy T*S    EENTRO =        -0.00000000
  eigenvalues    EBANDS =     -8300.08827095
  atomic energy  EATOM  =     30700.14502859
  ---------------------------------------------------
  free energy    TOTEN  =      -842.26836565 eV

  energy without entropy =     -842.26836565  energy(sigma->0) =     -842.26836565
  exchange ACFDT corr.  =        -0.00000000  see jH, gK, PRB 81, 115126


--------------------------------------------------------------------------------------------------------




--------------------------------------- Iteration      1(  38)  ---------------------------------------


    POTLOK:  cpu time      0.1144: real time      0.1149
    SETDIJ:  cpu time      0.4441: real time      0.4454
    TRIAL :  cpu time     17.4952: real time     17.6403
    CORREC:  cpu time     17.7126: real time     17.8527
    CHARGE:  cpu time      0.1055: real time      0.1061
    --------------------------------------------
      LOOP:  cpu time     35.8756: real time     36.1682

 eigenvalue-minimisations  :     0
 total energy-change (2. order) :-0.9334027E-01  (-0.5013637E-01)
 number of electron     306.0000066 magnetization 
 augmentation part       47.9771433 magnetization 

 Free energy of the ion-electron system (eV)
  ---------------------------------------------------
  alpha Z        PSCENC =       346.31287096
  Ewald energy   TEWEN  =     19232.08394480
  -Hartree energ DENC   =    -46971.36921209
  -exchange      EXHF   =      4364.73423624
  -V(xc)+E(xc)   XCENC  =         0.00000000
  PAW double counting   =     31464.52508247   -31688.77458634
  entropy T*S    EENTRO =        -0.00000000
  eigenvalues    EBANDS =     -8290.01907054
  atomic energy  EATOM  =     30700.14502859
  ---------------------------------------------------
  free energy    TOTEN  =      -842.36170592 eV

  energy without entropy =     -842.36170592  energy(sigma->0) =     -842.36170592
  exchange ACFDT corr.  =        -0.00000000  see jH, gK, PRB 81, 115126


--------------------------------------------------------------------------------------------------------




--------------------------------------- Iteration      1(  39)  ---------------------------------------


    POTLOK:  cpu time      0.1143: real time      0.1151
    SETDIJ:  cpu time      0.4453: real time      0.4475
    TRIAL :  cpu time     17.5871: real time     17.9342
    CORREC:  cpu time     17.7652: real time     17.8205
    CHARGE:  cpu time      0.1081: real time      0.1083
    --------------------------------------------
      LOOP:  cpu time     36.0226: real time     36.4341

 eigenvalue-minimisations  :     0
 total energy-change (2. order) :-0.4996923E-01  (-0.3456199E-01)
 number of electron     306.0000066 magnetization 
 augmentation part       47.9617014 magnetization 

 Free energy of the ion-electron system (eV)
  ---------------------------------------------------
  alpha Z        PSCENC =       346.31287096
  Ewald energy   TEWEN  =     19232.08394480
  -Hartree energ DENC   =    -46970.63330163
  -exchange      EXHF   =      4364.97179947
  -V(xc)+E(xc)   XCENC  =         0.00000000
  PAW double counting   =     31466.04350891   -31689.65994963
  entropy T*S    EENTRO =        -0.00000000
  eigenvalues    EBANDS =     -8291.67557661
  atomic energy  EATOM  =     30700.14502859
  ---------------------------------------------------
  free energy    TOTEN  =      -842.41167515 eV

  energy without entropy =     -842.41167515  energy(sigma->0) =     -842.41167515
  exchange ACFDT corr.  =        -0.00000000  see jH, gK, PRB 81, 115126


--------------------------------------------------------------------------------------------------------




--------------------------------------- Iteration      1(  40)  ---------------------------------------


    POTLOK:  cpu time      0.1156: real time      0.1163
    SETDIJ:  cpu time      0.4511: real time      0.4523
    TRIAL :  cpu time     17.5653: real time     17.7257
    CORREC:  cpu time     17.8584: real time     18.1523
    CHARGE:  cpu time      0.1067: real time      0.1070
    --------------------------------------------
      LOOP:  cpu time     36.1002: real time     36.5619

 eigenvalue-minimisations  :     0
 total energy-change (2. order) :-0.3456129E-01  (-0.1744813E-01)
 number of electron     306.0000066 magnetization 
 augmentation part       47.9755915 magnetization 

 Free energy of the ion-electron system (eV)
  ---------------------------------------------------
  alpha Z        PSCENC =       346.31287096
  Ewald energy   TEWEN  =     19232.08394480
  -Hartree energ DENC   =    -46969.23279423
  -exchange      EXHF   =      4365.17092893
  -V(xc)+E(xc)   XCENC  =         0.00000000
  PAW double counting   =     31466.34698992   -31689.45971955
  entropy T*S    EENTRO =        -0.00000000
  eigenvalues    EBANDS =     -8293.81348585
  atomic energy  EATOM  =     30700.14502859
  ---------------------------------------------------
  free energy    TOTEN  =      -842.44623644 eV

  energy without entropy =     -842.44623644  energy(sigma->0) =     -842.44623644
  exchange ACFDT corr.  =         0.00000000  see jH, gK, PRB 81, 115126


--------------------------------------------------------------------------------------------------------




--------------------------------------- Iteration      1(  41)  ---------------------------------------


    POTLOK:  cpu time      0.1152: real time      0.1157
    SETDIJ:  cpu time      0.4429: real time      0.4444
    TRIAL :  cpu time     17.5784: real time     17.6368
    CORREC:  cpu time     17.9377: real time     18.0128
    CHARGE:  cpu time      0.1071: real time      0.1073
    --------------------------------------------
      LOOP:  cpu time     36.1846: real time     36.3253

 eigenvalue-minimisations  :     0
 total energy-change (2. order) :-0.1745873E-01  (-0.7027584E-02)
 number of electron     306.0000066 magnetization 
 augmentation part       47.9814075 magnetization 

 Free energy of the ion-electron system (eV)
  ---------------------------------------------------
  alpha Z        PSCENC =       346.31287096
  Ewald energy   TEWEN  =     19232.08394480
  -Hartree energ DENC   =    -46971.42609053
  -exchange      EXHF   =      4365.41870063
  -V(xc)+E(xc)   XCENC  =         0.00000000
  PAW double counting   =     31469.43842592   -31692.89200532
  entropy T*S    EENTRO =        -0.00000000
  eigenvalues    EBANDS =     -8291.54457021
  atomic energy  EATOM  =     30700.14502859
  ---------------------------------------------------
  free energy    TOTEN  =      -842.46369517 eV

  energy without entropy =     -842.46369517  energy(sigma->0) =     -842.46369517
  exchange ACFDT corr.  =         0.00000000  see jH, gK, PRB 81, 115126


--------------------------------------------------------------------------------------------------------




--------------------------------------- Iteration      1(  42)  ---------------------------------------


    POTLOK:  cpu time      0.1180: real time      0.1183
    SETDIJ:  cpu time      0.4477: real time      0.4491
    TRIAL :  cpu time     17.5836: real time     17.6549
    CORREC:  cpu time     17.9411: real time     18.2729
    CHARGE:  cpu time      0.1069: real time      0.1071
    --------------------------------------------
      LOOP:  cpu time     36.2005: real time     36.6109

 eigenvalue-minimisations  :     0
 total energy-change (2. order) :-0.7034396E-02  (-0.5719820E-02)
 number of electron     306.0000066 magnetization 
 augmentation part       47.9743680 magnetization 

 Free energy of the ion-electron system (eV)
  ---------------------------------------------------
  alpha Z        PSCENC =       346.31287096
  Ewald energy   TEWEN  =     19232.08394480
  -Hartree energ DENC   =    -46972.22398850
  -exchange      EXHF   =      4365.47959662
  -V(xc)+E(xc)   XCENC  =         0.00000000
  PAW double counting   =     31470.32698765   -31693.96657969
  entropy T*S    EENTRO =        -0.00000000
  eigenvalues    EBANDS =     -8290.62858998
  atomic energy  EATOM  =     30700.14502859
  ---------------------------------------------------
  free energy    TOTEN  =      -842.47072956 eV

  energy without entropy =     -842.47072956  energy(sigma->0) =     -842.47072956
  exchange ACFDT corr.  =         0.00000000  see jH, gK, PRB 81, 115126


--------------------------------------------------------------------------------------------------------




--------------------------------------- Iteration      1(  43)  ---------------------------------------


    POTLOK:  cpu time      0.1158: real time      0.1161
    SETDIJ:  cpu time      0.4467: real time      0.4480
    TRIAL :  cpu time     17.6553: real time     17.7713
    CORREC:  cpu time     17.8541: real time     17.9252
    CHARGE:  cpu time      0.1081: real time      0.1083
    --------------------------------------------
      LOOP:  cpu time     36.1831: real time     36.3771

 eigenvalue-minimisations  :     0
 total energy-change (2. order) :-0.5735670E-02  (-0.3960054E-02)
 number of electron     306.0000066 magnetization 
 augmentation part       47.9660635 magnetization 

 Free energy of the ion-electron system (eV)
  ---------------------------------------------------
  alpha Z        PSCENC =       346.31287096
  Ewald energy   TEWEN  =     19232.08394480
  -Hartree energ DENC   =    -46970.93052743
  -exchange      EXHF   =      4365.35405839
  -V(xc)+E(xc)   XCENC  =         0.00000000
  PAW double counting   =     31468.62232038   -31692.15758168
  entropy T*S    EENTRO =        -0.00000000
  eigenvalues    EBANDS =     -8291.90657924
  atomic energy  EATOM  =     30700.14502859
  ---------------------------------------------------
  free energy    TOTEN  =      -842.47646523 eV

  energy without entropy =     -842.47646523  energy(sigma->0) =     -842.47646523
  exchange ACFDT corr.  =         0.00000000  see jH, gK, PRB 81, 115126


--------------------------------------------------------------------------------------------------------




--------------------------------------- Iteration      1(  44)  ---------------------------------------


    POTLOK:  cpu time      0.1178: real time      0.1180
    SETDIJ:  cpu time      0.4442: real time      0.4455
    TRIAL :  cpu time     17.4757: real time     17.8114
    CORREC:  cpu time     17.9150: real time     17.9734
    CHARGE:  cpu time      0.1072: real time      0.1075
    --------------------------------------------
      LOOP:  cpu time     36.0623: real time     36.4640

 eigenvalue-minimisations  :     0
 total energy-change (2. order) :-0.3970595E-02  (-0.3165845E-02)
 number of electron     306.0000066 magnetization 
 augmentation part       47.9660707 magnetization 

 Free energy of the ion-electron system (eV)
  ---------------------------------------------------
  alpha Z        PSCENC =       346.31287096
  Ewald energy   TEWEN  =     19232.08394480
  -Hartree energ DENC   =    -46969.43790456
  -exchange      EXHF   =      4365.18448794
  -V(xc)+E(xc)   XCENC  =         0.00000000
  PAW double counting   =     31466.50392167   -31689.92038696
  entropy T*S    EENTRO =        -0.00000000
  eigenvalues    EBANDS =     -8293.35239827
  atomic energy  EATOM  =     30700.14502859
  ---------------------------------------------------
  free energy    TOTEN  =      -842.48043583 eV

  energy without entropy =     -842.48043583  energy(sigma->0) =     -842.48043583
  exchange ACFDT corr.  =         0.00000000  see jH, gK, PRB 81, 115126


--------------------------------------------------------------------------------------------------------




--------------------------------------- Iteration      1(  45)  ---------------------------------------


    POTLOK:  cpu time      0.1160: real time      0.1162
    SETDIJ:  cpu time      0.4463: real time      0.4473
    TRIAL :  cpu time     17.6857: real time     17.7511
    CORREC:  cpu time     17.8636: real time     18.1526
    CHARGE:  cpu time      0.1044: real time      0.1046
    --------------------------------------------
      LOOP:  cpu time     36.2188: real time     36.5799

 eigenvalue-minimisations  :     0
 total energy-change (2. order) :-0.3180335E-02  (-0.3497387E-02)
 number of electron     306.0000066 magnetization 
 augmentation part       47.9681074 magnetization 

 Free energy of the ion-electron system (eV)
  ---------------------------------------------------
  alpha Z        PSCENC =       346.31287096
  Ewald energy   TEWEN  =     19232.08394480
  -Hartree energ DENC   =    -46969.29342439
  -exchange      EXHF   =      4365.09586731
  -V(xc)+E(xc)   XCENC  =         0.00000000
  PAW double counting   =     31465.74542398   -31689.25795229
  entropy T*S    EENTRO =        -0.00000000
  eigenvalues    EBANDS =     -8293.31537512
  atomic energy  EATOM  =     30700.14502859
  ---------------------------------------------------
  free energy    TOTEN  =      -842.48361616 eV

  energy without entropy =     -842.48361616  energy(sigma->0) =     -842.48361616
  exchange ACFDT corr.  =         0.00000000  see jH, gK, PRB 81, 115126


--------------------------------------------------------------------------------------------------------




--------------------------------------- Iteration      1(  46)  ---------------------------------------


    POTLOK:  cpu time      0.1144: real time      0.1151
    SETDIJ:  cpu time      0.4448: real time      0.4459
    TRIAL :  cpu time     17.6439: real time     17.7097
    CORREC:  cpu time     17.8754: real time     17.9417
    CHARGE:  cpu time      0.1058: real time      0.1061
    --------------------------------------------
      LOOP:  cpu time     36.1867: real time     36.3263

 eigenvalue-minimisations  :     0
 total energy-change (2. order) :-0.3516536E-02  (-0.3312176E-02)
 number of electron     306.0000067 magnetization 
 augmentation part       47.9653374 magnetization 

 Free energy of the ion-electron system (eV)
  ---------------------------------------------------
  alpha Z        PSCENC =       346.31287096
  Ewald energy   TEWEN  =     19232.08394480
  -Hartree energ DENC   =    -46969.43300983
  -exchange      EXHF   =      4365.03202195
  -V(xc)+E(xc)   XCENC  =         0.00000000
  PAW double counting   =     31465.21430021   -31688.85631559
  entropy T*S    EENTRO =        -0.00000000
  eigenvalues    EBANDS =     -8292.98597379
  atomic energy  EATOM  =     30700.14502859
  ---------------------------------------------------
  free energy    TOTEN  =      -842.48713270 eV

  energy without entropy =     -842.48713270  energy(sigma->0) =     -842.48713270
  exchange ACFDT corr.  =         0.00000000  see jH, gK, PRB 81, 115126


--------------------------------------------------------------------------------------------------------




--------------------------------------- Iteration      1(  47)  ---------------------------------------


    POTLOK:  cpu time      0.1146: real time      0.1149
    SETDIJ:  cpu time      0.4471: real time      0.4482
    TRIAL :  cpu time     17.8720: real time     18.0341
    CORREC:  cpu time     17.8289: real time     18.0087
    CHARGE:  cpu time      0.1094: real time      0.1097
    --------------------------------------------
      LOOP:  cpu time     36.3753: real time     36.7238

 eigenvalue-minimisations  :     0
 total energy-change (2. order) :-0.3319081E-02  (-0.3461275E-02)
 number of electron     306.0000067 magnetization 
 augmentation part       47.9633884 magnetization 

 Free energy of the ion-electron system (eV)
  ---------------------------------------------------
  alpha Z        PSCENC =       346.31287096
  Ewald energy   TEWEN  =     19232.08394480
  -Hartree energ DENC   =    -46968.90602686
  -exchange      EXHF   =      4364.94765521
  -V(xc)+E(xc)   XCENC  =         0.00000000
  PAW double counting   =     31464.18475560   -31687.76109532
  entropy T*S    EENTRO =        -0.00000000
  eigenvalues    EBANDS =     -8293.49758476
  atomic energy  EATOM  =     30700.14502859
  ---------------------------------------------------
  free energy    TOTEN  =      -842.49045178 eV

  energy without entropy =     -842.49045178  energy(sigma->0) =     -842.49045178
  exchange ACFDT corr.  =         0.00000000  see jH, gK, PRB 81, 115126


--------------------------------------------------------------------------------------------------------




--------------------------------------- Iteration      1(  48)  ---------------------------------------


    POTLOK:  cpu time      0.1152: real time      0.1159
    SETDIJ:  cpu time      0.4475: real time      0.4485
    TRIAL :  cpu time     17.6001: real time     17.7650
    CORREC:  cpu time     17.7633: real time     17.8885
    CHARGE:  cpu time      0.1099: real time      0.1102
    --------------------------------------------
      LOOP:  cpu time     36.0389: real time     36.3369

 eigenvalue-minimisations  :     0
 total energy-change (2. order) :-0.3467145E-02  (-0.3220940E-02)
 number of electron     306.0000067 magnetization 
 augmentation part       47.9702154 magnetization 

 Free energy of the ion-electron system (eV)
  ---------------------------------------------------
  alpha Z        PSCENC =       346.31287096
  Ewald energy   TEWEN  =     19232.08394480
  -Hartree energ DENC   =    -46968.76349717
  -exchange      EXHF   =      4364.89723418
  -V(xc)+E(xc)   XCENC  =         0.00000000
  PAW double counting   =     31463.82220964   -31687.28814900
  entropy T*S    EENTRO =        -0.00000000
  eigenvalues    EBANDS =     -8293.70356093
  atomic energy  EATOM  =     30700.14502859
  ---------------------------------------------------
  free energy    TOTEN  =      -842.49391893 eV

  energy without entropy =     -842.49391893  energy(sigma->0) =     -842.49391893
  exchange ACFDT corr.  =         0.00000000  see jH, gK, PRB 81, 115126


--------------------------------------------------------------------------------------------------------




--------------------------------------- Iteration      1(  49)  ---------------------------------------


    POTLOK:  cpu time      0.1152: real time      0.1154
    SETDIJ:  cpu time      0.4455: real time      0.4467
    TRIAL :  cpu time     17.6381: real time     18.0389
    CORREC:  cpu time     17.9278: real time     18.0093
    CHARGE:  cpu time      0.1065: real time      0.1068
    --------------------------------------------
      LOOP:  cpu time     36.2358: real time     36.7253

 eigenvalue-minimisations  :     0
 total energy-change (2. order) :-0.3221163E-02  (-0.2923812E-02)
 number of electron     306.0000067 magnetization 
 augmentation part       47.9769753 magnetization 

 Free energy of the ion-electron system (eV)
  ---------------------------------------------------
  alpha Z        PSCENC =       346.31287096
  Ewald energy   TEWEN  =     19232.08394480
  -Hartree energ DENC   =    -46970.37691957
  -exchange      EXHF   =      4364.98267939
  -V(xc)+E(xc)   XCENC  =         0.00000000
  PAW double counting   =     31465.69582500   -31689.24761149
  entropy T*S    EENTRO =        -0.00000000
  eigenvalues    EBANDS =     -8292.09295777
  atomic energy  EATOM  =     30700.14502859
  ---------------------------------------------------
  free energy    TOTEN  =      -842.49714009 eV

  energy without entropy =     -842.49714009  energy(sigma->0) =     -842.49714009
  exchange ACFDT corr.  =        -0.00000000  see jH, gK, PRB 81, 115126


--------------------------------------------------------------------------------------------------------




--------------------------------------- Iteration      1(  50)  ---------------------------------------


    POTLOK:  cpu time      0.1166: real time      0.1174
    SETDIJ:  cpu time      0.4462: real time      0.4473
    TRIAL :  cpu time     17.6471: real time     17.7243
    CORREC:  cpu time     17.5897: real time     18.0142
    CHARGE:  cpu time      0.1086: real time      0.1089
    --------------------------------------------
      LOOP:  cpu time     35.9111: real time     36.4208

 eigenvalue-minimisations  :     0
 total energy-change (2. order) :-0.2917350E-02  (-0.3179650E-02)
 number of electron     306.0000067 magnetization 
 augmentation part       47.9753229 magnetization 

 Free energy of the ion-electron system (eV)
  ---------------------------------------------------
  alpha Z        PSCENC =       346.31287096
  Ewald energy   TEWEN  =     19232.08394480
  -Hartree energ DENC   =    -46972.29359168
  -exchange      EXHF   =      4365.12144940
  -V(xc)+E(xc)   XCENC  =         0.00000000
  PAW double counting   =     31468.11427569   -31691.76153404
  entropy T*S    EENTRO =        -0.00000000
  eigenvalues    EBANDS =     -8290.22250116
  atomic energy  EATOM  =     30700.14502859
  ---------------------------------------------------
  free energy    TOTEN  =      -842.50005744 eV

  energy without entropy =     -842.50005744  energy(sigma->0) =     -842.50005744
  exchange ACFDT corr.  =        -0.00000000  see jH, gK, PRB 81, 115126


--------------------------------------------------------------------------------------------------------




--------------------------------------- Iteration      1(  51)  ---------------------------------------


    POTLOK:  cpu time      0.1178: real time      0.1181
    SETDIJ:  cpu time      0.4497: real time      0.4508
    TRIAL :  cpu time     17.6654: real time     17.7323
    CORREC:  cpu time     17.8949: real time     18.0073
    CHARGE:  cpu time      0.1061: real time      0.1070
    --------------------------------------------
      LOOP:  cpu time     36.2366: real time     36.4238

 eigenvalue-minimisations  :     0
 total energy-change (2. order) :-0.3158311E-02  (-0.3269544E-02)
 number of electron     306.0000068 magnetization 
 augmentation part       47.9697346 magnetization 

 Free energy of the ion-electron system (eV)
  ---------------------------------------------------
  alpha Z        PSCENC =       346.31287096
  Ewald energy   TEWEN  =     19232.08394480
  -Hartree energ DENC   =    -46973.14438196
  -exchange      EXHF   =      4365.20240786
  -V(xc)+E(xc)   XCENC  =         0.00000000
  PAW double counting   =     31469.48898043   -31693.03202831
  entropy T*S    EENTRO =        -0.00000000
  eigenvalues    EBANDS =     -8289.56003811
  atomic energy  EATOM  =     30700.14502859
  ---------------------------------------------------
  free energy    TOTEN  =      -842.50321575 eV

  energy without entropy =     -842.50321575  energy(sigma->0) =     -842.50321575
  exchange ACFDT corr.  =         0.00000000  see jH, gK, PRB 81, 115126


--------------------------------------------------------------------------------------------------------




--------------------------------------- Iteration      1(  52)  ---------------------------------------


    POTLOK:  cpu time      0.1158: real time      0.1168
    SETDIJ:  cpu time      0.4452: real time      0.4472
    TRIAL :  cpu time     17.4443: real time     17.8592
    CORREC:  cpu time     17.9229: real time     18.0056
    CHARGE:  cpu time      0.1062: real time      0.1066
    --------------------------------------------
      LOOP:  cpu time     36.0379: real time     36.5440

 eigenvalue-minimisations  :     0
 total energy-change (2. order) :-0.3244832E-02  (-0.3050022E-02)
 number of electron     306.0000068 magnetization 
 augmentation part       47.9692132 magnetization 

 Free energy of the ion-electron system (eV)
  ---------------------------------------------------
  alpha Z        PSCENC =       346.31287096
  Ewald energy   TEWEN  =     19232.08394480
  -Hartree energ DENC   =    -46973.21333865
  -exchange      EXHF   =      4365.20410613
  -V(xc)+E(xc)   XCENC  =         0.00000000
  PAW double counting   =     31469.86968641   -31693.25913112
  entropy T*S    EENTRO =        -0.00000000
  eigenvalues    EBANDS =     -8289.64962769
  atomic energy  EATOM  =     30700.14502859
  ---------------------------------------------------
  free energy    TOTEN  =      -842.50646058 eV

  energy without entropy =     -842.50646058  energy(sigma->0) =     -842.50646058
  exchange ACFDT corr.  =         0.00000000  see jH, gK, PRB 81, 115126


--------------------------------------------------------------------------------------------------------




--------------------------------------- Iteration      1(  53)  ---------------------------------------


    POTLOK:  cpu time      0.1150: real time      0.1154
    SETDIJ:  cpu time      0.4477: real time      0.4488
    TRIAL :  cpu time     17.6809: real time     17.7745
    CORREC:  cpu time     17.8899: real time     17.9804
    CHARGE:  cpu time      0.1091: real time      0.1094
    --------------------------------------------
      LOOP:  cpu time     36.2447: real time     36.4373

 eigenvalue-minimisations  :     0
 total energy-change (2. order) :-0.3030618E-02  (-0.2983604E-02)
 number of electron     306.0000068 magnetization 
 augmentation part       47.9702760 magnetization 

 Free energy of the ion-electron system (eV)
  ---------------------------------------------------
  alpha Z        PSCENC =       346.31287096
  Ewald energy   TEWEN  =     19232.08394480
  -Hartree energ DENC   =    -46973.49682670
  -exchange      EXHF   =      4365.18623802
  -V(xc)+E(xc)   XCENC  =         0.00000000
  PAW double counting   =     31470.12313587   -31693.54654297
  entropy T*S    EENTRO =        -0.00000000
  eigenvalues    EBANDS =     -8289.31733976
  atomic energy  EATOM  =     30700.14502859
  ---------------------------------------------------
  free energy    TOTEN  =      -842.50949120 eV

  energy without entropy =     -842.50949120  energy(sigma->0) =     -842.50949120
  exchange ACFDT corr.  =         0.00000000  see jH, gK, PRB 81, 115126


--------------------------------------------------------------------------------------------------------




--------------------------------------- Iteration      1(  54)  ---------------------------------------


    POTLOK:  cpu time      0.1158: real time      0.1162
    SETDIJ:  cpu time      0.4440: real time      0.4455
    TRIAL :  cpu time     17.1443: real time     17.8285
    CORREC:  cpu time     17.9062: real time     17.9970
    CHARGE:  cpu time      0.1060: real time      0.1063
    --------------------------------------------
      LOOP:  cpu time     35.7185: real time     36.5009

 eigenvalue-minimisations  :     0
 total energy-change (2. order) :-0.2973440E-02  (-0.2620848E-02)
 number of electron     306.0000068 magnetization 
 augmentation part       47.9675713 magnetization 

 Free energy of the ion-electron system (eV)
  ---------------------------------------------------
  alpha Z        PSCENC =       346.31287096
  Ewald energy   TEWEN  =     19232.08394480
  -Hartree energ DENC   =    -46973.36548716
  -exchange      EXHF   =      4365.12154394
  -V(xc)+E(xc)   XCENC  =         0.00000000
  PAW double counting   =     31469.63702400   -31693.15125829
  entropy T*S    EENTRO =        -0.00000000
  eigenvalues    EBANDS =     -8289.29613148
  atomic energy  EATOM  =     30700.14502859
  ---------------------------------------------------
  free energy    TOTEN  =      -842.51246464 eV

  energy without entropy =     -842.51246464  energy(sigma->0) =     -842.51246464
  exchange ACFDT corr.  =         0.00000000  see jH, gK, PRB 81, 115126


--------------------------------------------------------------------------------------------------------




--------------------------------------- Iteration      1(  55)  ---------------------------------------


    POTLOK:  cpu time      0.1176: real time      0.1179
    SETDIJ:  cpu time      0.4463: real time      0.4475
    TRIAL :  cpu time     17.5679: real time     17.6886
    CORREC:  cpu time     17.3287: real time     18.5015
    CHARGE:  cpu time      0.1102: real time      0.1104
    --------------------------------------------
      LOOP:  cpu time     35.5734: real time     36.8744

 eigenvalue-minimisations  :     0
 total energy-change (2. order) :-0.2617129E-02  (-0.2184954E-02)
 number of electron     306.0000068 magnetization 
 augmentation part       47.9652426 magnetization 

 Free energy of the ion-electron system (eV)
  ---------------------------------------------------
  alpha Z        PSCENC =       346.31287096
  Ewald energy   TEWEN  =     19232.08394480
  -Hartree energ DENC   =    -46972.26011825
  -exchange      EXHF   =      4365.01042501
  -V(xc)+E(xc)   XCENC  =         0.00000000
  PAW double counting   =     31468.06310354   -31691.54104110
  entropy T*S    EENTRO =        -0.00000000
  eigenvalues    EBANDS =     -8290.32929532
  atomic energy  EATOM  =     30700.14502859
  ---------------------------------------------------
  free energy    TOTEN  =      -842.51508177 eV

  energy without entropy =     -842.51508177  energy(sigma->0) =     -842.51508177
  exchange ACFDT corr.  =         0.00000000  see jH, gK, PRB 81, 115126


--------------------------------------------------------------------------------------------------------




--------------------------------------- Iteration      1(  56)  ---------------------------------------


    POTLOK:  cpu time      0.1174: real time      0.1177
    SETDIJ:  cpu time      0.4467: real time      0.4480
    TRIAL :  cpu time     17.7528: real time     17.8081
    CORREC:  cpu time     17.8228: real time     17.9099
    CHARGE:  cpu time      0.1074: real time      0.1078
    --------------------------------------------
      LOOP:  cpu time     36.2500: real time     36.3997

 eigenvalue-minimisations  :     0
 total energy-change (2. order) :-0.2186587E-02  (-0.2007667E-02)
 number of electron     306.0000069 magnetization 
 augmentation part       47.9671962 magnetization 

 Free energy of the ion-electron system (eV)
  ---------------------------------------------------
  alpha Z        PSCENC =       346.31287096
  Ewald energy   TEWEN  =     19232.08394480
  -Hartree energ DENC   =    -46971.27605819
  -exchange      EXHF   =      4364.94048242
  -V(xc)+E(xc)   XCENC  =         0.00000000
  PAW double counting   =     31466.78568354   -31690.20488633
  entropy T*S    EENTRO =        -0.00000000
  eigenvalues    EBANDS =     -8291.30433415
  atomic energy  EATOM  =     30700.14502859
  ---------------------------------------------------
  free energy    TOTEN  =      -842.51726835 eV

  energy without entropy =     -842.51726835  energy(sigma->0) =     -842.51726835
  exchange ACFDT corr.  =         0.00000000  see jH, gK, PRB 81, 115126


--------------------------------------------------------------------------------------------------------




--------------------------------------- Iteration      1(  57)  ---------------------------------------


    POTLOK:  cpu time      0.1201: real time      0.1207
    SETDIJ:  cpu time      0.4441: real time      0.4455
    TRIAL :  cpu time     17.0997: real time     18.1447
    CORREC:  cpu time     17.8713: real time     17.9476
    CHARGE:  cpu time      0.1093: real time      0.1098
    --------------------------------------------
      LOOP:  cpu time     35.6475: real time     36.7764

 eigenvalue-minimisations  :     0
 total energy-change (2. order) :-0.2015921E-02  (-0.1750540E-02)
 number of electron     306.0000069 magnetization 
 augmentation part       47.9702345 magnetization 

 Free energy of the ion-electron system (eV)
  ---------------------------------------------------
  alpha Z        PSCENC =       346.31287096
  Ewald energy   TEWEN  =     19232.08394480
  -Hartree energ DENC   =    -46971.20620568
  -exchange      EXHF   =      4364.96579396
  -V(xc)+E(xc)   XCENC  =         0.00000000
  PAW double counting   =     31466.68941284   -31690.13842886
  entropy T*S    EENTRO =        -0.00000000
  eigenvalues    EBANDS =     -8291.37170089
  atomic energy  EATOM  =     30700.14502859
  ---------------------------------------------------
  free energy    TOTEN  =      -842.51928428 eV

  energy without entropy =     -842.51928428  energy(sigma->0) =     -842.51928428
  exchange ACFDT corr.  =         0.00000000  see jH, gK, PRB 81, 115126


--------------------------------------------------------------------------------------------------------




--------------------------------------- Iteration      1(  58)  ---------------------------------------


    POTLOK:  cpu time      0.1168: real time      0.1171
    SETDIJ:  cpu time      0.4435: real time      0.4446
    TRIAL :  cpu time     17.4943: real time     17.6942
    CORREC:  cpu time     17.7452: real time     18.0047
    CHARGE:  cpu time      0.1072: real time      0.1075
    --------------------------------------------
      LOOP:  cpu time     35.9098: real time     36.3768

 eigenvalue-minimisations  :     0
 total energy-change (2. order) :-0.1761795E-02  (-0.1625748E-02)
 number of electron     306.0000069 magnetization 
 augmentation part       47.9704549 magnetization 

 Free energy of the ion-electron system (eV)
  ---------------------------------------------------
  alpha Z        PSCENC =       346.31287096
  Ewald energy   TEWEN  =     19232.08394480
  -Hartree energ DENC   =    -46971.64411979
  -exchange      EXHF   =      4365.05163177
  -V(xc)+E(xc)   XCENC  =         0.00000000
  PAW double counting   =     31467.29095044   -31690.79434060
  entropy T*S    EENTRO =        -0.00000000
  eigenvalues    EBANDS =     -8290.96701225
  atomic energy  EATOM  =     30700.14502859
  ---------------------------------------------------
  free energy    TOTEN  =      -842.52104607 eV

  energy without entropy =     -842.52104607  energy(sigma->0) =     -842.52104607
  exchange ACFDT corr.  =         0.00000000  see jH, gK, PRB 81, 115126


--------------------------------------------------------------------------------------------------------




--------------------------------------- Iteration      1(  59)  ---------------------------------------


    POTLOK:  cpu time      0.1153: real time      0.1159
    SETDIJ:  cpu time      0.4287: real time      0.4465
    TRIAL :  cpu time     17.8742: real time     18.1488
    CORREC:  cpu time     17.8390: real time     17.9471
    CHARGE:  cpu time      0.1106: real time      0.1109
    --------------------------------------------
      LOOP:  cpu time     36.3705: real time     36.7773

 eigenvalue-minimisations  :     0
 total energy-change (2. order) :-0.1642168E-02  (-0.1413571E-02)
 number of electron     306.0000069 magnetization 
 augmentation part       47.9702012 magnetization 

 Free energy of the ion-electron system (eV)
  ---------------------------------------------------
  alpha Z        PSCENC =       346.31287096
  Ewald energy   TEWEN  =     19232.08394480
  -Hartree energ DENC   =    -46971.87805063
  -exchange      EXHF   =      4365.13357707
  -V(xc)+E(xc)   XCENC  =         0.00000000
  PAW double counting   =     31467.77428833   -31691.26459307
  entropy T*S    EENTRO =        -0.00000000
  eigenvalues    EBANDS =     -8290.82975429
  atomic energy  EATOM  =     30700.14502859
  ---------------------------------------------------
  free energy    TOTEN  =      -842.52268824 eV

  energy without entropy =     -842.52268824  energy(sigma->0) =     -842.52268824
  exchange ACFDT corr.  =         0.00000000  see jH, gK, PRB 81, 115126


--------------------------------------------------------------------------------------------------------




--------------------------------------- Iteration      1(  60)  ---------------------------------------


    POTLOK:  cpu time      0.1177: real time      0.1181
    SETDIJ:  cpu time      0.4464: real time      0.4478
    TRIAL :  cpu time     17.5139: real time     17.6104
    CORREC:  cpu time     17.5455: real time     18.2441
    CHARGE:  cpu time      0.1091: real time      0.1097
    --------------------------------------------
      LOOP:  cpu time     35.7348: real time     36.5375

 eigenvalue-minimisations  :     0
 total energy-change (2. order) :-0.1425000E-02  (-0.1305537E-02)
 number of electron     306.0000069 magnetization 
 augmentation part       47.9710060 magnetization 

 Free energy of the ion-electron system (eV)
  ---------------------------------------------------
  alpha Z        PSCENC =       346.31287096
  Ewald energy   TEWEN  =     19232.08394480
  -Hartree energ DENC   =    -46971.99523078
  -exchange      EXHF   =      4365.17818562
  -V(xc)+E(xc)   XCENC  =         0.00000000
  PAW double counting   =     31468.09215373   -31691.57020172
  entropy T*S    EENTRO =        -0.00000000
  eigenvalues    EBANDS =     -8290.77086443
  atomic energy  EATOM  =     30700.14502859
  ---------------------------------------------------
  free energy    TOTEN  =      -842.52411324 eV

  energy without entropy =     -842.52411324  energy(sigma->0) =     -842.52411324
  exchange ACFDT corr.  =         0.00000000  see jH, gK, PRB 81, 115126


--------------------------------------------------------------------------------------------------------




--------------------------------------- Iteration      1(  61)  ---------------------------------------


    POTLOK:  cpu time      0.1154: real time      0.1156
    SETDIJ:  cpu time      0.4461: real time      0.4472
    TRIAL :  cpu time     17.6006: real time     17.6705
    CORREC:  cpu time     17.8299: real time     17.8962
    CHARGE:  cpu time      0.1045: real time      0.1048
    --------------------------------------------
      LOOP:  cpu time     36.0996: real time     36.2425

 eigenvalue-minimisations  :     0
 total energy-change (2. order) :-0.1312358E-02  (-0.1210836E-02)
 number of electron     306.0000069 magnetization 
 augmentation part       47.9709697 magnetization 

 Free energy of the ion-electron system (eV)
  ---------------------------------------------------
  alpha Z        PSCENC =       346.31287096
  Ewald energy   TEWEN  =     19232.08394480
  -Hartree energ DENC   =    -46972.09077902
  -exchange      EXHF   =      4365.18920252
  -V(xc)+E(xc)   XCENC  =         0.00000000
  PAW double counting   =     31468.22771731   -31691.74148572
  entropy T*S    EENTRO =        -0.00000000
  eigenvalues    EBANDS =     -8290.65192504
  atomic energy  EATOM  =     30700.14502859
  ---------------------------------------------------
  free energy    TOTEN  =      -842.52542560 eV

  energy without entropy =     -842.52542560  energy(sigma->0) =     -842.52542560
  exchange ACFDT corr.  =         0.00000000  see jH, gK, PRB 81, 115126


--------------------------------------------------------------------------------------------------------




--------------------------------------- Iteration      1(  62)  ---------------------------------------


    POTLOK:  cpu time      0.1152: real time      0.1157
    SETDIJ:  cpu time      0.4452: real time      0.4463
    TRIAL :  cpu time     17.1492: real time     18.2664
    CORREC:  cpu time     17.8946: real time     17.9864
    CHARGE:  cpu time      0.1046: real time      0.1049
    --------------------------------------------
      LOOP:  cpu time     35.7114: real time     36.9281

 eigenvalue-minimisations  :     0
 total energy-change (2. order) :-0.1212536E-02  (-0.1071713E-02)
 number of electron     306.0000070 magnetization 
 augmentation part       47.9693239 magnetization 

 Free energy of the ion-electron system (eV)
  ---------------------------------------------------
  alpha Z        PSCENC =       346.31287096
  Ewald energy   TEWEN  =     19232.08394480
  -Hartree energ DENC   =    -46971.88839013
  -exchange      EXHF   =      4365.16678687
  -V(xc)+E(xc)   XCENC  =         0.00000000
  PAW double counting   =     31467.89389779   -31691.43594026
  entropy T*S    EENTRO =        -0.00000000
  eigenvalues    EBANDS =     -8290.80483675
  atomic energy  EATOM  =     30700.14502859
  ---------------------------------------------------
  free energy    TOTEN  =      -842.52663813 eV

  energy without entropy =     -842.52663813  energy(sigma->0) =     -842.52663813
  exchange ACFDT corr.  =         0.00000000  see jH, gK, PRB 81, 115126


--------------------------------------------------------------------------------------------------------




--------------------------------------- Iteration      1(  63)  ---------------------------------------


    POTLOK:  cpu time      0.1137: real time      0.1141
    SETDIJ:  cpu time      0.4469: real time      0.4480
    TRIAL :  cpu time     17.4362: real time     17.6461
    CORREC:  cpu time     17.6631: real time     18.6572
    CHARGE:  cpu time      0.1044: real time      0.1047
    --------------------------------------------
      LOOP:  cpu time     35.7675: real time     36.9787

 eigenvalue-minimisations  :     0
 total energy-change (2. order) :-0.1071021E-02  (-0.1063976E-02)
 number of electron     306.0000070 magnetization 
 augmentation part       47.9682275 magnetization 

 Free energy of the ion-electron system (eV)
  ---------------------------------------------------
  alpha Z        PSCENC =       346.31287096
  Ewald energy   TEWEN  =     19232.08394480
  -Hartree energ DENC   =    -46971.37012118
  -exchange      EXHF   =      4365.12684234
  -V(xc)+E(xc)   XCENC  =         0.00000000
  PAW double counting   =     31467.14790123   -31690.67544824
  entropy T*S    EENTRO =        -0.00000000
  eigenvalues    EBANDS =     -8291.29872764
  atomic energy  EATOM  =     30700.14502859
  ---------------------------------------------------
  free energy    TOTEN  =      -842.52770915 eV

  energy without entropy =     -842.52770915  energy(sigma->0) =     -842.52770915
  exchange ACFDT corr.  =         0.00000000  see jH, gK, PRB 81, 115126


--------------------------------------------------------------------------------------------------------




--------------------------------------- Iteration      1(  64)  ---------------------------------------


    POTLOK:  cpu time      0.1146: real time      0.1151
    SETDIJ:  cpu time      0.4460: real time      0.4471
    TRIAL :  cpu time     17.5753: real time     17.6632
    CORREC:  cpu time     17.8640: real time     17.9157
    CHARGE:  cpu time      0.1055: real time      0.1057
    --------------------------------------------
      LOOP:  cpu time     36.1093: real time     36.2556

 eigenvalue-minimisations  :     0
 total energy-change (2. order) :-0.1061185E-02  (-0.1147673E-02)
 number of electron     306.0000070 magnetization 
 augmentation part       47.9692115 magnetization 

 Free energy of the ion-electron system (eV)
  ---------------------------------------------------
  alpha Z        PSCENC =       346.31287096
  Ewald energy   TEWEN  =     19232.08394480
  -Hartree energ DENC   =    -46970.97153907
  -exchange      EXHF   =      4365.09986760
  -V(xc)+E(xc)   XCENC  =         0.00000000
  PAW double counting   =     31466.52804955   -31690.04334012
  entropy T*S    EENTRO =        -0.00000000
  eigenvalues    EBANDS =     -8291.68365265
  atomic energy  EATOM  =     30700.14502859
  ---------------------------------------------------
  free energy    TOTEN  =      -842.52877034 eV

  energy without entropy =     -842.52877034  energy(sigma->0) =     -842.52877034
  exchange ACFDT corr.  =         0.00000000  see jH, gK, PRB 81, 115126


--------------------------------------------------------------------------------------------------------




--------------------------------------- Iteration      1(  65)  ---------------------------------------


    POTLOK:  cpu time      0.1144: real time      0.1147
    SETDIJ:  cpu time      0.4479: real time      0.4493
    TRIAL :  cpu time     17.6498: real time     17.7834
    CORREC:  cpu time     17.7093: real time     18.5909
    CHARGE:  cpu time      0.1037: real time      0.1039
    --------------------------------------------
      LOOP:  cpu time     36.0278: real time     37.0508

 eigenvalue-minimisations  :     0
 total energy-change (2. order) :-0.1140417E-02  (-0.1107420E-02)
 number of electron     306.0000070 magnetization 
 augmentation part       47.9700919 magnetization 

 Free energy of the ion-electron system (eV)
  ---------------------------------------------------
  alpha Z        PSCENC =       346.31287096
  Ewald energy   TEWEN  =     19232.08394480
  -Hartree energ DENC   =    -46971.00827990
  -exchange      EXHF   =      4365.11111751
  -V(xc)+E(xc)   XCENC  =         0.00000000
  PAW double counting   =     31466.45029139   -31689.98784093
  entropy T*S    EENTRO =        -0.00000000
  eigenvalues    EBANDS =     -8291.63704317
  atomic energy  EATOM  =     30700.14502859
  ---------------------------------------------------
  free energy    TOTEN  =      -842.52991076 eV

  energy without entropy =     -842.52991076  energy(sigma->0) =     -842.52991076
  exchange ACFDT corr.  =         0.00000000  see jH, gK, PRB 81, 115126


--------------------------------------------------------------------------------------------------------




--------------------------------------- Iteration      1(  66)  ---------------------------------------


    POTLOK:  cpu time      0.1146: real time      0.1149
    SETDIJ:  cpu time      0.4467: real time      0.4480
    TRIAL :  cpu time     17.6096: real time     17.7067
    CORREC:  cpu time     17.9019: real time     17.9939
    CHARGE:  cpu time      0.1077: real time      0.1080
    --------------------------------------------
      LOOP:  cpu time     36.1840: real time     36.3804

 eigenvalue-minimisations  :     0
 total energy-change (2. order) :-0.1101340E-02  (-0.1168464E-02)
 number of electron     306.0000070 magnetization 
 augmentation part       47.9696688 magnetization 

 Free energy of the ion-electron system (eV)
  ---------------------------------------------------
  alpha Z        PSCENC =       346.31287096
  Ewald energy   TEWEN  =     19232.08394480
  -Hartree energ DENC   =    -46971.16198400
  -exchange      EXHF   =      4365.14769421
  -V(xc)+E(xc)   XCENC  =         0.00000000
  PAW double counting   =     31466.65048657   -31690.19085770
  entropy T*S    EENTRO =        -0.00000000
  eigenvalues    EBANDS =     -8291.51819553
  atomic energy  EATOM  =     30700.14502859
  ---------------------------------------------------
  free energy    TOTEN  =      -842.53101210 eV

  energy without entropy =     -842.53101210  energy(sigma->0) =     -842.53101210
  exchange ACFDT corr.  =         0.00000000  see jH, gK, PRB 81, 115126


--------------------------------------------------------------------------------------------------------




--------------------------------------- Iteration      1(  67)  ---------------------------------------


    POTLOK:  cpu time      0.1149: real time      0.1154
    SETDIJ:  cpu time      0.4491: real time      0.4503
    TRIAL :  cpu time     17.2541: real time     17.8160
    CORREC:  cpu time     17.8548: real time     17.9875
    CHARGE:  cpu time      0.1050: real time      0.1053
    --------------------------------------------
      LOOP:  cpu time     35.7802: real time     36.4828

 eigenvalue-minimisations  :     0
 total energy-change (2. order) :-0.1162293E-02  (-0.1060529E-02)
 number of electron     306.0000070 magnetization 
 augmentation part       47.9697981 magnetization 

 Free energy of the ion-electron system (eV)
  ---------------------------------------------------
  alpha Z        PSCENC =       346.31287096
  Ewald energy   TEWEN  =     19232.08394480
  -Hartree energ DENC   =    -46971.19641502
  -exchange      EXHF   =      4365.18991494
  -V(xc)+E(xc)   XCENC  =         0.00000000
  PAW double counting   =     31466.82966647   -31690.33473063
  entropy T*S    EENTRO =        -0.00000000
  eigenvalues    EBANDS =     -8291.56245448
  atomic energy  EATOM  =     30700.14502859
  ---------------------------------------------------
  free energy    TOTEN  =      -842.53217439 eV

  energy without entropy =     -842.53217439  energy(sigma->0) =     -842.53217439
  exchange ACFDT corr.  =         0.00000000  see jH, gK, PRB 81, 115126


--------------------------------------------------------------------------------------------------------




--------------------------------------- Iteration      1(  68)  ---------------------------------------


    POTLOK:  cpu time      0.1481: real time      0.1711
    SETDIJ:  cpu time      0.4485: real time      0.4643
    TRIAL :  cpu time     17.5094: real time     17.6189
    CORREC:  cpu time     17.7220: real time     18.0837
    CHARGE:  cpu time      0.1062: real time      0.1066
    --------------------------------------------
      LOOP:  cpu time     35.9385: real time     36.4545

 eigenvalue-minimisations  :     0
 total energy-change (2. order) :-0.1058128E-02  (-0.7209674E-03)
 number of electron     306.0000070 magnetization 
 augmentation part       47.9696622 magnetization 

 Free energy of the ion-electron system (eV)
  ---------------------------------------------------
  alpha Z        PSCENC =       346.31287096
  Ewald energy   TEWEN  =     19232.08394480
  -Hartree energ DENC   =    -46971.34970735
  -exchange      EXHF   =      4365.22058160
  -V(xc)+E(xc)   XCENC  =         0.00000000
  PAW double counting   =     31467.12617914   -31690.62230323
  entropy T*S    EENTRO =        -0.00000000
  eigenvalues    EBANDS =     -8291.44982701
  atomic energy  EATOM  =     30700.14502859
  ---------------------------------------------------
  free energy    TOTEN  =      -842.53323252 eV

  energy without entropy =     -842.53323252  energy(sigma->0) =     -842.53323252
  exchange ACFDT corr.  =         0.00000000  see jH, gK, PRB 81, 115126


--------------------------------------------------------------------------------------------------------




--------------------------------------- Iteration      1(  69)  ---------------------------------------


    POTLOK:  cpu time      0.1166: real time      0.1170
    SETDIJ:  cpu time      0.4447: real time      0.4460
    TRIAL :  cpu time     17.7357: real time     17.7881
    CORREC:  cpu time     17.8639: real time     17.9560
    CHARGE:  cpu time      0.1045: real time      0.1047
    --------------------------------------------
      LOOP:  cpu time     36.2683: real time     36.4202

 eigenvalue-minimisations  :     0
 total energy-change (2. order) :-0.7209640E-03  (-0.5799266E-03)
 number of electron     306.0000070 magnetization 
 augmentation part       47.9689921 magnetization 

 Free energy of the ion-electron system (eV)
  ---------------------------------------------------
  alpha Z        PSCENC =       346.31287096
  Ewald energy   TEWEN  =     19232.08394480
  -Hartree energ DENC   =    -46971.33321510
  -exchange      EXHF   =      4365.20381231
  -V(xc)+E(xc)   XCENC  =         0.00000000
  PAW double counting   =     31467.05726841   -31690.56042856
  entropy T*S    EENTRO =        -0.00000000
  eigenvalues    EBANDS =     -8291.44323489
  atomic energy  EATOM  =     30700.14502859
  ---------------------------------------------------
  free energy    TOTEN  =      -842.53395348 eV

  energy without entropy =     -842.53395348  energy(sigma->0) =     -842.53395348
  exchange ACFDT corr.  =         0.00000000  see jH, gK, PRB 81, 115126


--------------------------------------------------------------------------------------------------------




--------------------------------------- Iteration      1(  70)  ---------------------------------------


    POTLOK:  cpu time      0.1165: real time      0.1168
    SETDIJ:  cpu time      0.4476: real time      0.4487
    TRIAL :  cpu time     17.4424: real time     17.6296
    CORREC:  cpu time     17.6720: real time     17.9473
    CHARGE:  cpu time      0.1065: real time      0.1068
    --------------------------------------------
      LOOP:  cpu time     35.7880: real time     36.2585

 eigenvalue-minimisations  :     0
 total energy-change (2. order) :-0.5799340E-03  (-0.6429448E-03)
 number of electron     306.0000070 magnetization 
 augmentation part       47.9681822 magnetization 

 Free energy of the ion-electron system (eV)
  ---------------------------------------------------
  alpha Z        PSCENC =       346.31287096
  Ewald energy   TEWEN  =     19232.08394480
  -Hartree energ DENC   =    -46971.24563407
  -exchange      EXHF   =      4365.17394984
  -V(xc)+E(xc)   XCENC  =         0.00000000
  PAW double counting   =     31466.89640996   -31690.40057021
  entropy T*S    EENTRO =        -0.00000000
  eigenvalues    EBANDS =     -8291.50053327
  atomic energy  EATOM  =     30700.14502859
  ---------------------------------------------------
  free energy    TOTEN  =      -842.53453342 eV

  energy without entropy =     -842.53453342  energy(sigma->0) =     -842.53453342
  exchange ACFDT corr.  =         0.00000000  see jH, gK, PRB 81, 115126


--------------------------------------------------------------------------------------------------------




--------------------------------------- Iteration      1(  71)  ---------------------------------------


    POTLOK:  cpu time      0.1164: real time      0.1167
    SETDIJ:  cpu time      0.4477: real time      0.4490
    TRIAL :  cpu time     17.4762: real time     17.5917
    CORREC:  cpu time     17.7943: real time     17.9183
    CHARGE:  cpu time      0.1059: real time      0.1062
    --------------------------------------------
      LOOP:  cpu time     35.9439: real time     36.1906

 eigenvalue-minimisations  :     0
 total energy-change (2. order) :-0.6429438E-03  (-0.3583726E-03)
 number of electron     306.0000070 magnetization 
 augmentation part       47.9682336 magnetization 

 Free energy of the ion-electron system (eV)
  ---------------------------------------------------
  alpha Z        PSCENC =       346.31287096
  Ewald energy   TEWEN  =     19232.08394480
  -Hartree energ DENC   =    -46971.17880413
  -exchange      EXHF   =      4365.14089496
  -V(xc)+E(xc)   XCENC  =         0.00000000
  PAW double counting   =     31466.79633121   -31690.29611014
  entropy T*S    EENTRO =        -0.00000000
  eigenvalues    EBANDS =     -8291.53933261
  atomic energy  EATOM  =     30700.14502859
  ---------------------------------------------------
  free energy    TOTEN  =      -842.53517636 eV

  energy without entropy =     -842.53517636  energy(sigma->0) =     -842.53517636
  exchange ACFDT corr.  =         0.00000000  see jH, gK, PRB 81, 115126


--------------------------------------------------------------------------------------------------------




--------------------------------------- Iteration      1(  72)  ---------------------------------------


    POTLOK:  cpu time      0.1158: real time      0.1162
    SETDIJ:  cpu time      0.4492: real time      0.4505
    TRIAL :  cpu time     17.7285: real time     18.2140
    CORREC:  cpu time     17.7676: real time     17.9084
    CHARGE:  cpu time      0.1067: real time      0.1069
    --------------------------------------------
      LOOP:  cpu time     36.1706: real time     36.8044

 eigenvalue-minimisations  :     0
 total energy-change (2. order) :-0.3583729E-03  (-0.3255389E-03)
 number of electron     306.0000070 magnetization 
 augmentation part       47.9688428 magnetization 

 Free energy of the ion-electron system (eV)
  ---------------------------------------------------
  alpha Z        PSCENC =       346.31287096
  Ewald energy   TEWEN  =     19232.08394480
  -Hartree energ DENC   =    -46971.26971997
  -exchange      EXHF   =      4365.13718758
  -V(xc)+E(xc)   XCENC  =         0.00000000
  PAW double counting   =     31466.92371411   -31690.42436281
  entropy T*S    EENTRO =        -0.00000000
  eigenvalues    EBANDS =     -8291.44419799
  atomic energy  EATOM  =     30700.14502859
  ---------------------------------------------------
  free energy    TOTEN  =      -842.53553473 eV

  energy without entropy =     -842.53553473  energy(sigma->0) =     -842.53553473
  exchange ACFDT corr.  =         0.00000000  see jH, gK, PRB 81, 115126


--------------------------------------------------------------------------------------------------------




--------------------------------------- Iteration      1(  73)  ---------------------------------------


    POTLOK:  cpu time      0.1158: real time      0.1161
    SETDIJ:  cpu time      0.4461: real time      0.4474
    TRIAL :  cpu time     17.6719: real time     17.7517
    CORREC:  cpu time     17.2601: real time     18.1294
    CHARGE:  cpu time      0.1097: real time      0.1103
    --------------------------------------------
      LOOP:  cpu time     35.6077: real time     36.5638

 eigenvalue-minimisations  :     0
 total energy-change (2. order) :-0.3255404E-03  (-0.2890086E-03)
 number of electron     306.0000070 magnetization 
 augmentation part       47.9692555 magnetization 

 Free energy of the ion-electron system (eV)
  ---------------------------------------------------
  alpha Z        PSCENC =       346.31287096
  Ewald energy   TEWEN  =     19232.08394480
  -Hartree energ DENC   =    -46971.49719394
  -exchange      EXHF   =      4365.14973428
  -V(xc)+E(xc)   XCENC  =         0.00000000
  PAW double counting   =     31467.25956059   -31690.76183274
  entropy T*S    EENTRO =        -0.00000000
  eigenvalues    EBANDS =     -8291.22797281
  atomic energy  EATOM  =     30700.14502859
  ---------------------------------------------------
  free energy    TOTEN  =      -842.53586027 eV

  energy without entropy =     -842.53586027  energy(sigma->0) =     -842.53586027
  exchange ACFDT corr.  =         0.00000000  see jH, gK, PRB 81, 115126


--------------------------------------------------------------------------------------------------------




--------------------------------------- Iteration      1(  74)  ---------------------------------------


    POTLOK:  cpu time      0.1171: real time      0.1174
    SETDIJ:  cpu time      0.4460: real time      0.4471
    TRIAL :  cpu time     17.7166: real time     17.7888
    CORREC:  cpu time     17.7764: real time     17.9071
    CHARGE:  cpu time      0.1055: real time      0.1057
    --------------------------------------------
      LOOP:  cpu time     36.1637: real time     36.3744

 eigenvalue-minimisations  :     0
 total energy-change (2. order) :-0.2890083E-03  (-0.2805966E-03)
 number of electron     306.0000070 magnetization 
 augmentation part       47.9696218 magnetization 

 Free energy of the ion-electron system (eV)
  ---------------------------------------------------
  alpha Z        PSCENC =       346.31287096
  Ewald energy   TEWEN  =     19232.08394480
  -Hartree energ DENC   =    -46971.68416043
  -exchange      EXHF   =      4365.16664359
  -V(xc)+E(xc)   XCENC  =         0.00000000
  PAW double counting   =     31467.55922726   -31691.05625346
  entropy T*S    EENTRO =        -0.00000000
  eigenvalues    EBANDS =     -8291.06345058
  atomic energy  EATOM  =     30700.14502859
  ---------------------------------------------------
  free energy    TOTEN  =      -842.53614928 eV

  energy without entropy =     -842.53614928  energy(sigma->0) =     -842.53614928
  exchange ACFDT corr.  =         0.00000000  see jH, gK, PRB 81, 115126


--------------------------------------------------------------------------------------------------------




--------------------------------------- Iteration      1(  75)  ---------------------------------------


    POTLOK:  cpu time      0.1171: real time      0.1174
    SETDIJ:  cpu time      0.4457: real time      0.4471
    TRIAL :  cpu time     17.6819: real time     17.8906
    CORREC:  cpu time     17.7390: real time     17.8633
    CHARGE:  cpu time      0.1089: real time      0.1091
    --------------------------------------------
      LOOP:  cpu time     36.0956: real time     36.4360

 eigenvalue-minimisations  :     0
 total energy-change (2. order) :-0.2805971E-03  (-0.2060620E-03)
 number of electron     306.0000070 magnetization 
 augmentation part       47.9698236 magnetization 

 Free energy of the ion-electron system (eV)
  ---------------------------------------------------
  alpha Z        PSCENC =       346.31287096
  Ewald energy   TEWEN  =     19232.08394480
  -Hartree energ DENC   =    -46971.84020690
  -exchange      EXHF   =      4365.17790872
  -V(xc)+E(xc)   XCENC  =         0.00000000
  PAW double counting   =     31467.81526212   -31691.30814749
  entropy T*S    EENTRO =        -0.00000000
  eigenvalues    EBANDS =     -8290.92309069
  atomic energy  EATOM  =     30700.14502859
  ---------------------------------------------------
  free energy    TOTEN  =      -842.53642988 eV

  energy without entropy =     -842.53642988  energy(sigma->0) =     -842.53642988
  exchange ACFDT corr.  =         0.00000000  see jH, gK, PRB 81, 115126


--------------------------------------------------------------------------------------------------------




--------------------------------------- Iteration      1(  76)  ---------------------------------------


    POTLOK:  cpu time      0.1174: real time      0.1177
    SETDIJ:  cpu time      0.4468: real time      0.4482
    TRIAL :  cpu time     17.5540: real time     17.6230
    CORREC:  cpu time     17.7982: real time     17.9136
    CHARGE:  cpu time      0.1056: real time      0.1062
    --------------------------------------------
      LOOP:  cpu time     36.0253: real time     36.2171

 eigenvalue-minimisations  :     0
 total energy-change (2. order) :-0.2060678E-03  (-0.1746920E-03)
 number of electron     306.0000070 magnetization 
 augmentation part       47.9697453 magnetization 

 Free energy of the ion-electron system (eV)
  ---------------------------------------------------
  alpha Z        PSCENC =       346.31287096
  Ewald energy   TEWEN  =     19232.08394480
  -Hartree energ DENC   =    -46971.90268768
  -exchange      EXHF   =      4365.17517008
  -V(xc)+E(xc)   XCENC  =         0.00000000
  PAW double counting   =     31467.89705703   -31691.39453306
  entropy T*S    EENTRO =        -0.00000000
  eigenvalues    EBANDS =     -8290.85348666
  atomic energy  EATOM  =     30700.14502859
  ---------------------------------------------------
  free energy    TOTEN  =      -842.53663595 eV

  energy without entropy =     -842.53663595  energy(sigma->0) =     -842.53663595
  exchange ACFDT corr.  =         0.00000000  see jH, gK, PRB 81, 115126


--------------------------------------------------------------------------------------------------------




--------------------------------------- Iteration      1(  77)  ---------------------------------------


    POTLOK:  cpu time      0.1165: real time      0.1168
    SETDIJ:  cpu time      0.4478: real time      0.4489
    TRIAL :  cpu time     17.9084: real time     18.1758
    CORREC:  cpu time     17.9101: real time     17.9973
    CHARGE:  cpu time      0.1086: real time      0.1089
    --------------------------------------------
      LOOP:  cpu time     36.4954: real time     36.8560

 eigenvalue-minimisations  :     0
 total energy-change (2. order) :-0.1746904E-03  (-0.1533121E-03)
 number of electron     306.0000070 magnetization 
 augmentation part       47.9692735 magnetization 

 Free energy of the ion-electron system (eV)
  ---------------------------------------------------
  alpha Z        PSCENC =       346.31287096
  Ewald energy   TEWEN  =     19232.08394480
  -Hartree energ DENC   =    -46971.88769186
  -exchange      EXHF   =      4365.16184118
  -V(xc)+E(xc)   XCENC  =         0.00000000
  PAW double counting   =     31467.84825964   -31691.35012280
  entropy T*S    EENTRO =        -0.00000000
  eigenvalues    EBANDS =     -8290.85094115
  atomic energy  EATOM  =     30700.14502859
  ---------------------------------------------------
  free energy    TOTEN  =      -842.53681064 eV

  energy without entropy =     -842.53681064  energy(sigma->0) =     -842.53681064
  exchange ACFDT corr.  =         0.00000000  see jH, gK, PRB 81, 115126


--------------------------------------------------------------------------------------------------------




--------------------------------------- Iteration      1(  78)  ---------------------------------------


    POTLOK:  cpu time      0.1166: real time      0.1175
    SETDIJ:  cpu time      0.4455: real time      0.4467
    TRIAL :  cpu time     17.6169: real time     17.7065
    CORREC:  cpu time     17.8486: real time     18.1943
    CHARGE:  cpu time      0.1062: real time      0.1065
    --------------------------------------------
      LOOP:  cpu time     36.1366: real time     36.5796

 eigenvalue-minimisations  :     0
 total energy-change (2. order) :-0.1533128E-03  (-0.1468477E-03)
 number of electron     306.0000070 magnetization 
 augmentation part       47.9686228 magnetization 

 Free energy of the ion-electron system (eV)
  ---------------------------------------------------
  alpha Z        PSCENC =       346.31287096
  Ewald energy   TEWEN  =     19232.08394480
  -Hartree energ DENC   =    -46971.79891096
  -exchange      EXHF   =      4365.13887379
  -V(xc)+E(xc)   XCENC  =         0.00000000
  PAW double counting   =     31467.68783880   -31691.18652190
  entropy T*S    EENTRO =        -0.00000000
  eigenvalues    EBANDS =     -8290.92008803
  atomic energy  EATOM  =     30700.14502859
  ---------------------------------------------------
  free energy    TOTEN  =      -842.53696395 eV

  energy without entropy =     -842.53696395  energy(sigma->0) =     -842.53696395
  exchange ACFDT corr.  =         0.00000000  see jH, gK, PRB 81, 115126


--------------------------------------------------------------------------------------------------------




--------------------------------------- Iteration      1(  79)  ---------------------------------------


    POTLOK:  cpu time      0.1168: real time      0.1171
    SETDIJ:  cpu time      0.4470: real time      0.4483
    TRIAL :  cpu time     17.5493: real time     17.6450
    CORREC:  cpu time     17.9081: real time     17.9883
    CHARGE:  cpu time      0.1096: real time      0.1099
    --------------------------------------------
      LOOP:  cpu time     36.1338: real time     36.3172

 eigenvalue-minimisations  :     0
 total energy-change (2. order) :-0.1468477E-03  (-0.1248773E-03)
 number of electron     306.0000070 magnetization 
 augmentation part       47.9685527 magnetization 

 Free energy of the ion-electron system (eV)
  ---------------------------------------------------
  alpha Z        PSCENC =       346.31287096
  Ewald energy   TEWEN  =     19232.08394480
  -Hartree energ DENC   =    -46971.69680637
  -exchange      EXHF   =      4365.11507340
  -V(xc)+E(xc)   XCENC  =         0.00000000
  PAW double counting   =     31467.49740226   -31690.98819274
  entropy T*S    EENTRO =        -0.00000000
  eigenvalues    EBANDS =     -8291.00643170
  atomic energy  EATOM  =     30700.14502859
  ---------------------------------------------------
  free energy    TOTEN  =      -842.53711080 eV

  energy without entropy =     -842.53711080  energy(sigma->0) =     -842.53711080
  exchange ACFDT corr.  =         0.00000000  see jH, gK, PRB 81, 115126


--------------------------------------------------------------------------------------------------------




--------------------------------------- Iteration      1(  80)  ---------------------------------------


    POTLOK:  cpu time      0.1169: real time      0.1171
    SETDIJ:  cpu time      0.4461: real time      0.4474
    TRIAL :  cpu time     17.7029: real time     17.8398
    CORREC:  cpu time     18.0792: real time     18.2103
    CHARGE:  cpu time      0.1066: real time      0.1069
    --------------------------------------------
      LOOP:  cpu time     36.4542: real time     36.7299

 eigenvalue-minimisations  :     0
 total energy-change (2. order) :-0.1248740E-03  (-0.1465395E-03)
 number of electron     306.0000071 magnetization 
 augmentation part       47.9689070 magnetization 

 Free energy of the ion-electron system (eV)
  ---------------------------------------------------
  alpha Z        PSCENC =       346.31287096
  Ewald energy   TEWEN  =     19232.08394480
  -Hartree energ DENC   =    -46971.72655421
  -exchange      EXHF   =      4365.10678804
  -V(xc)+E(xc)   XCENC  =         0.00000000
  PAW double counting   =     31467.48110959   -31690.97396127
  entropy T*S    EENTRO =        -0.00000000
  eigenvalues    EBANDS =     -8290.96646217
  atomic energy  EATOM  =     30700.14502859
  ---------------------------------------------------
  free energy    TOTEN  =      -842.53723567 eV

  energy without entropy =     -842.53723567  energy(sigma->0) =     -842.53723567
  exchange ACFDT corr.  =         0.00000000  see jH, gK, PRB 81, 115126


--------------------------------------------------------------------------------------------------------




--------------------------------------- Iteration      1(  81)  ---------------------------------------


    POTLOK:  cpu time      0.1167: real time      0.1170
    SETDIJ:  cpu time      0.4446: real time      0.4459
    TRIAL :  cpu time     17.7033: real time     17.7568
    CORREC:  cpu time     17.8967: real time     17.9677
    CHARGE:  cpu time      0.1143: real time      0.1145
    --------------------------------------------
      LOOP:  cpu time     36.2793: real time     36.4106

 eigenvalue-minimisations  :     0
 total energy-change (2. order) :-0.1465194E-03  (-0.1508725E-03)
 number of electron     306.0000071 magnetization 
 augmentation part       47.9689300 magnetization 

 Free energy of the ion-electron system (eV)
  ---------------------------------------------------
  alpha Z        PSCENC =       346.31287096
  Ewald energy   TEWEN  =     19232.08394480
  -Hartree energ DENC   =    -46971.87530416
  -exchange      EXHF   =      4365.11159814
  -V(xc)+E(xc)   XCENC  =         0.00000000
  PAW double counting   =     31467.62734508   -31691.12702071
  entropy T*S    EENTRO =        -0.00000000
  eigenvalues    EBANDS =     -8290.81584489
  atomic energy  EATOM  =     30700.14502859
  ---------------------------------------------------
  free energy    TOTEN  =      -842.53738219 eV

  energy without entropy =     -842.53738219  energy(sigma->0) =     -842.53738219
  exchange ACFDT corr.  =         0.00000000  see jH, gK, PRB 81, 115126


--------------------------------------------------------------------------------------------------------




--------------------------------------- Iteration      1(  82)  ---------------------------------------


    POTLOK:  cpu time      0.1215: real time      0.1234
    SETDIJ:  cpu time      0.4120: real time      0.4521
    TRIAL :  cpu time     17.8441: real time     18.0704
    CORREC:  cpu time     17.6484: real time     17.7542
    CHARGE:  cpu time      0.1064: real time      0.1066
    --------------------------------------------
      LOOP:  cpu time     36.1353: real time     36.5143

 eigenvalue-minimisations  :     0
 total energy-change (2. order) :-0.1508398E-03  (-0.1293990E-03)
 number of electron     306.0000071 magnetization 
 augmentation part       47.9688174 magnetization 

 Free energy of the ion-electron system (eV)
  ---------------------------------------------------
  alpha Z        PSCENC =       346.31287096
  Ewald energy   TEWEN  =     19232.08394480
  -Hartree energ DENC   =    -46971.97661590
  -exchange      EXHF   =      4365.12071042
  -V(xc)+E(xc)   XCENC  =         0.00000000
  PAW double counting   =     31467.74881086   -31691.24331040
  entropy T*S    EENTRO =        -0.00000000
  eigenvalues    EBANDS =     -8290.72897235
  atomic energy  EATOM  =     30700.14502859
  ---------------------------------------------------
  free energy    TOTEN  =      -842.53753303 eV

  energy without entropy =     -842.53753303  energy(sigma->0) =     -842.53753303
  exchange ACFDT corr.  =         0.00000000  see jH, gK, PRB 81, 115126


--------------------------------------------------------------------------------------------------------




--------------------------------------- Iteration      1(  83)  ---------------------------------------


    POTLOK:  cpu time      0.1158: real time      0.1162
    SETDIJ:  cpu time      0.4410: real time      0.4423
    TRIAL :  cpu time     17.5533: real time     17.6252
    CORREC:  cpu time     17.9328: real time     18.2197
    CHARGE:  cpu time      0.1071: real time      0.1077
    --------------------------------------------
      LOOP:  cpu time     36.1528: real time     36.5196

 eigenvalue-minimisations  :     0
 total energy-change (2. order) :-0.1293662E-03  (-0.9245579E-04)
 number of electron     306.0000071 magnetization 
 augmentation part       47.9687841 magnetization 

 Free energy of the ion-electron system (eV)
  ---------------------------------------------------
  alpha Z        PSCENC =       346.31287096
  Ewald energy   TEWEN  =     19232.08394480
  -Hartree energ DENC   =    -46972.00494455
  -exchange      EXHF   =      4365.12765574
  -V(xc)+E(xc)   XCENC  =         0.00000000
  PAW double counting   =     31467.80217680   -31691.29036254
  entropy T*S    EENTRO =        -0.00000000
  eigenvalues    EBANDS =     -8290.71403220
  atomic energy  EATOM  =     30700.14502859
  ---------------------------------------------------
  free energy    TOTEN  =      -842.53766240 eV

  energy without entropy =     -842.53766240  energy(sigma->0) =     -842.53766240
  exchange ACFDT corr.  =         0.00000000  see jH, gK, PRB 81, 115126


--------------------------------------------------------------------------------------------------------




--------------------------------------- Iteration      1(  84)  ---------------------------------------


    POTLOK:  cpu time      0.1150: real time      0.1153
    SETDIJ:  cpu time      0.4451: real time      0.4462
    TRIAL :  cpu time     17.7047: real time     17.7552
    CORREC:  cpu time     17.8214: real time     17.9497
    CHARGE:  cpu time      0.1204: real time      0.1207
    --------------------------------------------
      LOOP:  cpu time     36.2090: real time     36.3950

 eigenvalue-minimisations  :     0
 total energy-change (2. order) :-0.9246623E-04  (-0.9493742E-04)
 number of electron     306.0000071 magnetization 
 augmentation part       47.9688040 magnetization 

 Free energy of the ion-electron system (eV)
  ---------------------------------------------------
  alpha Z        PSCENC =       346.31287096
  Ewald energy   TEWEN  =     19232.08394480
  -Hartree energ DENC   =    -46971.99559205
  -exchange      EXHF   =      4365.12977420
  -V(xc)+E(xc)   XCENC  =         0.00000000
  PAW double counting   =     31467.80237755   -31691.29029125
  entropy T*S    EENTRO =        -0.00000000
  eigenvalues    EBANDS =     -8290.72586766
  atomic energy  EATOM  =     30700.14502859
  ---------------------------------------------------
  free energy    TOTEN  =      -842.53775486 eV

  energy without entropy =     -842.53775486  energy(sigma->0) =     -842.53775486
  exchange ACFDT corr.  =         0.00000000  see jH, gK, PRB 81, 115126


--------------------------------------------------------------------------------------------------------




--------------------------------------- Iteration      1(  85)  ---------------------------------------


    POTLOK:  cpu time      0.1167: real time      0.1171
    SETDIJ:  cpu time      0.4469: real time      0.4480
    TRIAL :  cpu time     17.6121: real time     17.9150
    CORREC:  cpu time     17.7679: real time     17.8242
    CHARGE:  cpu time      0.1044: real time      0.1048
    --------------------------------------------
      LOOP:  cpu time     36.0501: real time     36.4166

 eigenvalue-minimisations  :     0
 total energy-change (2. order) :-0.9493060E-04  (-0.7203640E-04)
 number of electron     306.0000071 magnetization 
 augmentation part       47.9687674 magnetization 

 Free energy of the ion-electron system (eV)
  ---------------------------------------------------
  alpha Z        PSCENC =       346.31287096
  Ewald energy   TEWEN  =     19232.08394480
  -Hartree energ DENC   =    -46971.94862720
  -exchange      EXHF   =      4365.12709315
  -V(xc)+E(xc)   XCENC  =         0.00000000
  PAW double counting   =     31467.75039190   -31691.24252467
  entropy T*S    EENTRO =        -0.00000000
  eigenvalues    EBANDS =     -8290.76602733
  atomic energy  EATOM  =     30700.14502859
  ---------------------------------------------------
  free energy    TOTEN  =      -842.53784979 eV

  energy without entropy =     -842.53784979  energy(sigma->0) =     -842.53784979
  exchange ACFDT corr.  =         0.00000000  see jH, gK, PRB 81, 115126


--------------------------------------------------------------------------------------------------------




--------------------------------------- Iteration      1(  86)  ---------------------------------------


    POTLOK:  cpu time      0.1160: real time      0.1163
    SETDIJ:  cpu time      0.4489: real time      0.4503
    TRIAL :  cpu time     17.4786: real time     17.5788
    CORREC:  cpu time     17.8885: real time     18.0784
    CHARGE:  cpu time      0.1278: real time      0.1509
    --------------------------------------------
      LOOP:  cpu time     36.0625: real time     36.3826

 eigenvalue-minimisations  :     0
 total energy-change (2. order) :-0.7204081E-04  (-0.7216581E-04)
 number of electron     306.0000071 magnetization 
 augmentation part       47.9686590 magnetization 

 Free energy of the ion-electron system (eV)
  ---------------------------------------------------
  alpha Z        PSCENC =       346.31287096
  Ewald energy   TEWEN  =     19232.08394480
  -Hartree energ DENC   =    -46971.88062604
  -exchange      EXHF   =      4365.12185675
  -V(xc)+E(xc)   XCENC  =         0.00000000
  PAW double counting   =     31467.67185126   -31691.16657831
  entropy T*S    EENTRO =        -0.00000000
  eigenvalues    EBANDS =     -8290.82626985
  atomic energy  EATOM  =     30700.14502859
  ---------------------------------------------------
  free energy    TOTEN  =      -842.53792183 eV

  energy without entropy =     -842.53792183  energy(sigma->0) =     -842.53792183
  exchange ACFDT corr.  =         0.00000000  see jH, gK, PRB 81, 115126


--------------------------------------------------------------------------------------------------------




--------------------------------------- Iteration      1(  87)  ---------------------------------------


    POTLOK:  cpu time      0.1517: real time      0.1762
    SETDIJ:  cpu time      0.4266: real time      0.4498
    TRIAL :  cpu time     17.5998: real time     17.6864
    CORREC:  cpu time     17.8789: real time     18.0225
    CHARGE:  cpu time      0.1045: real time      0.1048
    --------------------------------------------
      LOOP:  cpu time     36.1780: real time     36.4703

 eigenvalue-minimisations  :     0
 total energy-change (2. order) :-0.7214842E-04  (-0.6865819E-04)
 number of electron     306.0000071 magnetization 
 augmentation part       47.9686792 magnetization 

 Free energy of the ion-electron system (eV)
  ---------------------------------------------------
  alpha Z        PSCENC =       346.31287096
  Ewald energy   TEWEN  =     19232.08394480
  -Hartree energ DENC   =    -46971.80140117
  -exchange      EXHF   =      4365.11642760
  -V(xc)+E(xc)   XCENC  =         0.00000000
  PAW double counting   =     31467.58433067   -31691.07897191
  entropy T*S    EENTRO =        -0.00000000
  eigenvalues    EBANDS =     -8290.90022351
  atomic energy  EATOM  =     30700.14502859
  ---------------------------------------------------
  free energy    TOTEN  =      -842.53799398 eV

  energy without entropy =     -842.53799398  energy(sigma->0) =     -842.53799398
  exchange ACFDT corr.  =         0.00000000  see jH, gK, PRB 81, 115126


--------------------------------------------------------------------------------------------------------




--------------------------------------- Iteration      1(  88)  ---------------------------------------


    POTLOK:  cpu time      0.1147: real time      0.1151
    SETDIJ:  cpu time      0.4406: real time      0.4420
    TRIAL :  cpu time     17.6813: real time     17.7658
    CORREC:  cpu time     17.6512: real time     18.3700
    CHARGE:  cpu time      0.1070: real time      0.1072
    --------------------------------------------
      LOOP:  cpu time     35.9970: real time     36.8083

 eigenvalue-minimisations  :     0
 total energy-change (2. order) :-0.6863672E-04  (-0.6363824E-04)
 number of electron     306.0000071 magnetization 
 augmentation part       47.9687847 magnetization 

 Free energy of the ion-electron system (eV)
  ---------------------------------------------------
  alpha Z        PSCENC =       346.31287096
  Ewald energy   TEWEN  =     19232.08394480
  -Hartree energ DENC   =    -46971.76412147
  -exchange      EXHF   =      4365.11533746
  -V(xc)+E(xc)   XCENC  =         0.00000000
  PAW double counting   =     31467.54775417   -31691.04344534
  entropy T*S    EENTRO =        -0.00000000
  eigenvalues    EBANDS =     -8290.93543178
  atomic energy  EATOM  =     30700.14502859
  ---------------------------------------------------
  free energy    TOTEN  =      -842.53806262 eV

  energy without entropy =     -842.53806262  energy(sigma->0) =     -842.53806262
  exchange ACFDT corr.  =         0.00000000  see jH, gK, PRB 81, 115126


--------------------------------------------------------------------------------------------------------




--------------------------------------- Iteration      1(  89)  ---------------------------------------


    POTLOK:  cpu time      0.1164: real time      0.1166
    SETDIJ:  cpu time      0.4487: real time      0.4501
    TRIAL :  cpu time     17.6750: real time     17.7398
    CORREC:  cpu time     17.8472: real time     17.9218
    CHARGE:  cpu time      0.1041: real time      0.1044
    --------------------------------------------
      LOOP:  cpu time     36.1941: real time     36.3409

 eigenvalue-minimisations  :     0
 total energy-change (2. order) :-0.6360314E-04  (-0.5080601E-04)
 number of electron     306.0000071 magnetization 
 augmentation part       47.9688118 magnetization 

 Free energy of the ion-electron system (eV)
  ---------------------------------------------------
  alpha Z        PSCENC =       346.31287096
  Ewald energy   TEWEN  =     19232.08394480
  -Hartree energ DENC   =    -46971.76911603
  -exchange      EXHF   =      4365.11946255
  -V(xc)+E(xc)   XCENC  =         0.00000000
  PAW double counting   =     31467.56433473   -31691.06091518
  entropy T*S    EENTRO =        -0.00000000
  eigenvalues    EBANDS =     -8290.93373663
  atomic energy  EATOM  =     30700.14502859
  ---------------------------------------------------
  free energy    TOTEN  =      -842.53812622 eV

  energy without entropy =     -842.53812622  energy(sigma->0) =     -842.53812622
  exchange ACFDT corr.  =         0.00000000  see jH, gK, PRB 81, 115126


--------------------------------------------------------------------------------------------------------




--------------------------------------- Iteration      1(  90)  ---------------------------------------


    POTLOK:  cpu time      0.1150: real time      0.1153
    SETDIJ:  cpu time      0.4489: real time      0.4503
    TRIAL :  cpu time     17.3148: real time     18.4546
    CORREC:  cpu time     17.8219: real time     17.9426
    CHARGE:  cpu time      0.1068: real time      0.1070
    --------------------------------------------
      LOOP:  cpu time     35.8109: real time     37.0783

 eigenvalue-minimisations  :     0
 total energy-change (2. order) :-0.5080513E-04  (-0.4490440E-04)
 number of electron     306.0000071 magnetization 
 augmentation part       47.9688257 magnetization 

 Free energy of the ion-electron system (eV)
  ---------------------------------------------------
  alpha Z        PSCENC =       346.31287096
  Ewald energy   TEWEN  =     19232.08394480
  -Hartree energ DENC   =    -46971.78381473
  -exchange      EXHF   =      4365.12486370
  -V(xc)+E(xc)   XCENC  =         0.00000000
  PAW double counting   =     31467.59163549   -31691.08646707
  entropy T*S    EENTRO =        -0.00000000
  eigenvalues    EBANDS =     -8290.92623877
  atomic energy  EATOM  =     30700.14502859
  ---------------------------------------------------
  free energy    TOTEN  =      -842.53817703 eV

  energy without entropy =     -842.53817703  energy(sigma->0) =     -842.53817703
  exchange ACFDT corr.  =         0.00000000  see jH, gK, PRB 81, 115126


--------------------------------------------------------------------------------------------------------




--------------------------------------- Iteration      1(  91)  ---------------------------------------


    POTLOK:  cpu time      0.1145: real time      0.1150
    SETDIJ:  cpu time      0.4481: real time      0.4493
    TRIAL :  cpu time     17.7180: real time     17.8183
    CORREC:  cpu time     17.3388: real time     18.3388
    CHARGE:  cpu time      0.1077: real time      0.1080
    --------------------------------------------
      LOOP:  cpu time     35.7297: real time     36.8376

 eigenvalue-minimisations  :     0
 total energy-change (2. order) :-0.4490696E-04  (-0.4575843E-04)
 number of electron     306.0000071 magnetization 
 augmentation part       47.9689439 magnetization 

 Free energy of the ion-electron system (eV)
  ---------------------------------------------------
  alpha Z        PSCENC =       346.31287096
  Ewald energy   TEWEN  =     19232.08394480
  -Hartree energ DENC   =    -46971.80777675
  -exchange      EXHF   =      4365.12982542
  -V(xc)+E(xc)   XCENC  =         0.00000000
  PAW double counting   =     31467.62953611   -31691.12203565
  entropy T*S    EENTRO =        -0.00000000
  eigenvalues    EBANDS =     -8290.90961541
  atomic energy  EATOM  =     30700.14502859
  ---------------------------------------------------
  free energy    TOTEN  =      -842.53822194 eV

  energy without entropy =     -842.53822194  energy(sigma->0) =     -842.53822194
  exchange ACFDT corr.  =         0.00000000  see jH, gK, PRB 81, 115126


--------------------------------------------------------------------------------------------------------




--------------------------------------- Iteration      1(  92)  ---------------------------------------


    POTLOK:  cpu time      0.1134: real time      0.1137
    SETDIJ:  cpu time      0.4481: real time      0.4495
    TRIAL :  cpu time     17.6352: real time     17.7096
    CORREC:  cpu time     17.7041: real time     17.9279
    CHARGE:  cpu time      0.1057: real time      0.1063
    --------------------------------------------
      LOOP:  cpu time     36.0100: real time     36.3151

 eigenvalue-minimisations  :     0
 total energy-change (2. order) :-0.4573648E-04  (-0.3925415E-04)
 number of electron     306.0000071 magnetization 
 augmentation part       47.9690540 magnetization 

 Free energy of the ion-electron system (eV)
  ---------------------------------------------------
  alpha Z        PSCENC =       346.31287096
  Ewald energy   TEWEN  =     19232.08394480
  -Hartree energ DENC   =    -46971.84829184
  -exchange      EXHF   =      4365.13418685
  -V(xc)+E(xc)   XCENC  =         0.00000000
  PAW double counting   =     31467.68756212   -31691.18053505
  entropy T*S    EENTRO =        -0.00000000
  eigenvalues    EBANDS =     -8290.87303410
  atomic energy  EATOM  =     30700.14502859
  ---------------------------------------------------
  free energy    TOTEN  =      -842.53826767 eV

  energy without entropy =     -842.53826767  energy(sigma->0) =     -842.53826767
  exchange ACFDT corr.  =         0.00000000  see jH, gK, PRB 81, 115126


--------------------------------------------------------------------------------------------------------




--------------------------------------- Iteration      1(  93)  ---------------------------------------


    POTLOK:  cpu time      0.1159: real time      0.1162
    SETDIJ:  cpu time      0.4476: real time      0.4487
    TRIAL :  cpu time     17.6180: real time     17.8233
    CORREC:  cpu time     18.0457: real time     18.2918
    CHARGE:  cpu time      0.1076: real time      0.1078
    --------------------------------------------
      LOOP:  cpu time     36.3375: real time     36.7964

 eigenvalue-minimisations  :     0
 total energy-change (2. order) :-0.3924432E-04  (-0.3985258E-04)
 number of electron     306.0000071 magnetization 
 augmentation part       47.9690388 magnetization 

 Free energy of the ion-electron system (eV)
  ---------------------------------------------------
  alpha Z        PSCENC =       346.31287096
  Ewald energy   TEWEN  =     19232.08394480
  -Hartree energ DENC   =    -46971.86956727
  -exchange      EXHF   =      4365.13667703
  -V(xc)+E(xc)   XCENC  =         0.00000000
  PAW double counting   =     31467.72396801   -31691.21875318
  entropy T*S    EENTRO =        -0.00000000
  eigenvalues    EBANDS =     -8290.85247586
  atomic energy  EATOM  =     30700.14502859
  ---------------------------------------------------
  free energy    TOTEN  =      -842.53830692 eV

  energy without entropy =     -842.53830692  energy(sigma->0) =     -842.53830692
  exchange ACFDT corr.  =         0.00000000  see jH, gK, PRB 81, 115126


--------------------------------------------------------------------------------------------------------




--------------------------------------- Iteration      1(  94)  ---------------------------------------


    POTLOK:  cpu time      0.1161: real time      0.1164
    SETDIJ:  cpu time      0.4432: real time      0.4445
    TRIAL :  cpu time     17.5831: real time     17.6895
    CORREC:  cpu time     17.7998: real time     17.8715
    CHARGE:  cpu time      0.1042: real time      0.1049
    --------------------------------------------
      LOOP:  cpu time     36.0497: real time     36.2351

 eigenvalue-minimisations  :     0
 total energy-change (2. order) :-0.3984551E-04  (-0.4097156E-04)
 number of electron     306.0000071 magnetization 
 augmentation part       47.9689114 magnetization 

 Free energy of the ion-electron system (eV)
  ---------------------------------------------------
  alpha Z        PSCENC =       346.31287096
  Ewald energy   TEWEN  =     19232.08394480
  -Hartree energ DENC   =    -46971.85612526
  -exchange      EXHF   =      4365.13737089
  -V(xc)+E(xc)   XCENC  =         0.00000000
  PAW double counting   =     31467.72527203   -31691.21981164
  entropy T*S    EENTRO =        -0.00000000
  eigenvalues    EBANDS =     -8290.86689712
  atomic energy  EATOM  =     30700.14502859
  ---------------------------------------------------
  free energy    TOTEN  =      -842.53834676 eV

  energy without entropy =     -842.53834676  energy(sigma->0) =     -842.53834676
  exchange ACFDT corr.  =         0.00000000  see jH, gK, PRB 81, 115126


--------------------------------------------------------------------------------------------------------




--------------------------------------- Iteration      1(  95)  ---------------------------------------


    POTLOK:  cpu time      0.1166: real time      0.1169
    SETDIJ:  cpu time      0.4457: real time      0.4469
    TRIAL :  cpu time     17.8660: real time     18.0800
    CORREC:  cpu time     18.1169: real time     18.1982
    CHARGE:  cpu time      0.1060: real time      0.1066
    --------------------------------------------
      LOOP:  cpu time     36.6570: real time     36.9567

 eigenvalue-minimisations  :     0
 total energy-change (2. order) :-0.4095296E-04  (-0.3791908E-04)
 number of electron     306.0000071 magnetization 
 augmentation part       47.9688824 magnetization 

 Free energy of the ion-electron system (eV)
  ---------------------------------------------------
  alpha Z        PSCENC =       346.31287096
  Ewald energy   TEWEN  =     19232.08394480
  -Hartree energ DENC   =    -46971.81283788
  -exchange      EXHF   =      4365.13641695
  -V(xc)+E(xc)   XCENC  =         0.00000000
  PAW double counting   =     31467.69226993   -31691.18455319
  entropy T*S    EENTRO =        -0.00000000
  eigenvalues    EBANDS =     -8290.91152787
  atomic energy  EATOM  =     30700.14502859
  ---------------------------------------------------
  free energy    TOTEN  =      -842.53838771 eV

  energy without entropy =     -842.53838771  energy(sigma->0) =     -842.53838771
  exchange ACFDT corr.  =         0.00000000  see jH, gK, PRB 81, 115126


--------------------------------------------------------------------------------------------------------




--------------------------------------- Iteration      1(  96)  ---------------------------------------


    POTLOK:  cpu time      0.1158: real time      0.1161
    SETDIJ:  cpu time      0.4452: real time      0.4463
    TRIAL :  cpu time     17.4990: real time     17.5746
    CORREC:  cpu time     17.7478: real time     18.0434
    CHARGE:  cpu time      0.1044: real time      0.1047
    --------------------------------------------
      LOOP:  cpu time     35.9153: real time     36.2930

 eigenvalue-minimisations  :     0
 total energy-change (2. order) :-0.3790538E-04  (-0.3694021E-04)
 number of electron     306.0000071 magnetization 
 augmentation part       47.9688882 magnetization 

 Free energy of the ion-electron system (eV)
  ---------------------------------------------------
  alpha Z        PSCENC =       346.31287096
  Ewald energy   TEWEN  =     19232.08394480
  -Hartree energ DENC   =    -46971.78298604
  -exchange      EXHF   =      4365.13651720
  -V(xc)+E(xc)   XCENC  =         0.00000000
  PAW double counting   =     31467.67133329   -31691.16436283
  entropy T*S    EENTRO =        -0.00000000
  eigenvalues    EBANDS =     -8290.94077158
  atomic energy  EATOM  =     30700.14502859
  ---------------------------------------------------
  free energy    TOTEN  =      -842.53842562 eV

  energy without entropy =     -842.53842562  energy(sigma->0) =     -842.53842562
  exchange ACFDT corr.  =         0.00000000  see jH, gK, PRB 81, 115126


--------------------------------------------------------------------------------------------------------




--------------------------------------- Iteration      1(  97)  ---------------------------------------


    POTLOK:  cpu time      0.1155: real time      0.1158
    SETDIJ:  cpu time      0.4464: real time      0.4475
    TRIAL :  cpu time     17.5440: real time     17.6529
    CORREC:  cpu time     17.7933: real time     17.9041
    CHARGE:  cpu time      0.1044: real time      0.1047
    --------------------------------------------
      LOOP:  cpu time     36.0069: real time     36.2337

 eigenvalue-minimisations  :     0
 total energy-change (2. order) :-0.3692341E-04  (-0.3842448E-04)
 number of electron     306.0000071 magnetization 
 augmentation part       47.9688024 magnetization 

 Free energy of the ion-electron system (eV)
  ---------------------------------------------------
  alpha Z        PSCENC =       346.31287096
  Ewald energy   TEWEN  =     19232.08394480
  -Hartree energ DENC   =    -46971.76438412
  -exchange      EXHF   =      4365.13737268
  -V(xc)+E(xc)   XCENC  =         0.00000000
  PAW double counting   =     31467.66337420   -31691.15811470
  entropy T*S    EENTRO =        -0.00000000
  eigenvalues    EBANDS =     -8290.95855495
  atomic energy  EATOM  =     30700.14502859
  ---------------------------------------------------
  free energy    TOTEN  =      -842.53846254 eV

  energy without entropy =     -842.53846254  energy(sigma->0) =     -842.53846254
  exchange ACFDT corr.  =         0.00000000  see jH, gK, PRB 81, 115126


--------------------------------------------------------------------------------------------------------




--------------------------------------- Iteration      1(  98)  ---------------------------------------


    POTLOK:  cpu time      0.1152: real time      0.1155
    SETDIJ:  cpu time      0.4472: real time      0.4486
    TRIAL :  cpu time     17.4467: real time     17.7765
    CORREC:  cpu time     17.9338: real time     18.0287
    CHARGE:  cpu time      0.1078: real time      0.1084
    --------------------------------------------
      LOOP:  cpu time     36.0536: real time     36.4860

 eigenvalue-minimisations  :     0
 total energy-change (2. order) :-0.3839444E-04  (-0.3731534E-04)
 number of electron     306.0000071 magnetization 
 augmentation part       47.9686716 magnetization 

 Free energy of the ion-electron system (eV)
  ---------------------------------------------------
  alpha Z        PSCENC =       346.31287096
  Ewald energy   TEWEN  =     19232.08394480
  -Hartree energ DENC   =    -46971.73917986
  -exchange      EXHF   =      4365.13733231
  -V(xc)+E(xc)   XCENC  =         0.00000000
  PAW double counting   =     31467.64601461   -31691.13989884
  entropy T*S    EENTRO =        -0.00000000
  eigenvalues    EBANDS =     -8290.98461350
  atomic energy  EATOM  =     30700.14502859
  ---------------------------------------------------
  free energy    TOTEN  =      -842.53850094 eV

  energy without entropy =     -842.53850094  energy(sigma->0) =     -842.53850094
  exchange ACFDT corr.  =         0.00000000  see jH, gK, PRB 81, 115126


--------------------------------------------------------------------------------------------------------




--------------------------------------- Iteration      1(  99)  ---------------------------------------


    POTLOK:  cpu time      0.1154: real time      0.1157
    SETDIJ:  cpu time      0.4506: real time      0.4517
    TRIAL :  cpu time     17.6792: real time     17.7563
    CORREC:  cpu time     17.9856: real time     18.0636
    CHARGE:  cpu time      0.1050: real time      0.1053
    --------------------------------------------
      LOOP:  cpu time     36.3384: real time     36.5009

 eigenvalue-minimisations  :     0
 total energy-change (2. order) :-0.3729352E-04  (-0.2028952E-04)
 number of electron     306.0000071 magnetization 
 augmentation part       47.9687313 magnetization 

 Free energy of the ion-electron system (eV)
  ---------------------------------------------------
  alpha Z        PSCENC =       346.31287096
  Ewald energy   TEWEN  =     19232.08394480
  -Hartree energ DENC   =    -46971.71495672
  -exchange      EXHF   =      4365.13699193
  -V(xc)+E(xc)   XCENC  =         0.00000000
  PAW double counting   =     31467.62307712   -31691.11480131
  entropy T*S    EENTRO =        -0.00000000
  eigenvalues    EBANDS =     -8291.01069360
  atomic energy  EATOM  =     30700.14502859
  ---------------------------------------------------
  free energy    TOTEN  =      -842.53853823 eV

  energy without entropy =     -842.53853823  energy(sigma->0) =     -842.53853823
  exchange ACFDT corr.  =         0.00000000  see jH, gK, PRB 81, 115126


--------------------------------------------------------------------------------------------------------




--------------------------------------- Iteration      1( 100)  ---------------------------------------


    POTLOK:  cpu time      0.1155: real time      0.1158
    SETDIJ:  cpu time      0.4378: real time      0.4502
    TRIAL :  cpu time     17.7217: real time     17.9503
    CORREC:  cpu time     18.1792: real time     18.2315
    CHARGE:  cpu time      0.1074: real time      0.1077
    --------------------------------------------
      LOOP:  cpu time     36.5649: real time     36.8636

 eigenvalue-minimisations  :     0
 total energy-change (2. order) :-0.2028959E-04  (-0.2069067E-04)
 number of electron     306.0000071 magnetization 
 augmentation part       47.9688170 magnetization 

 Free energy of the ion-electron system (eV)
  ---------------------------------------------------
  alpha Z        PSCENC =       346.31287096
  Ewald energy   TEWEN  =     19232.08394480
  -Hartree energ DENC   =    -46971.72893057
  -exchange      EXHF   =      4365.13768874
  -V(xc)+E(xc)   XCENC  =         0.00000000
  PAW double counting   =     31467.63602593   -31691.12907902
  entropy T*S    EENTRO =        -0.00000000
  eigenvalues    EBANDS =     -8290.99610794
  atomic energy  EATOM  =     30700.14502859
  ---------------------------------------------------
  free energy    TOTEN  =      -842.53855852 eV

  energy without entropy =     -842.53855852  energy(sigma->0) =     -842.53855852
  exchange ACFDT corr.  =         0.00000000  see jH, gK, PRB 81, 115126


--------------------------------------------------------------------------------------------------------




--------------------------------------- Iteration      1( 101)  ---------------------------------------


    POTLOK:  cpu time      0.1170: real time      0.1173
    SETDIJ:  cpu time      0.4470: real time      0.4481
    TRIAL :  cpu time     17.8953: real time     17.9531
    CORREC:  cpu time     17.9748: real time     18.2752
    CHARGE:  cpu time      0.1049: real time      0.1052
    --------------------------------------------
      LOOP:  cpu time     36.5416: real time     36.9071

 eigenvalue-minimisations  :     0
 total energy-change (2. order) :-0.2069066E-04  (-0.1962834E-04)
 number of electron     306.0000071 magnetization 
 augmentation part       47.9688505 magnetization 

 Free energy of the ion-electron system (eV)
  ---------------------------------------------------
  alpha Z        PSCENC =       346.31287096
  Ewald energy   TEWEN  =     19232.08394480
  -Hartree energ DENC   =    -46971.75437724
  -exchange      EXHF   =      4365.13858810
  -V(xc)+E(xc)   XCENC  =         0.00000000
  PAW double counting   =     31467.65579245   -31691.15064896
  entropy T*S    EENTRO =        -0.00000000
  eigenvalues    EBANDS =     -8290.96977791
  atomic energy  EATOM  =     30700.14502859
  ---------------------------------------------------
  free energy    TOTEN  =      -842.53857921 eV

  energy without entropy =     -842.53857921  energy(sigma->0) =     -842.53857921
  exchange ACFDT corr.  =         0.00000000  see jH, gK, PRB 81, 115126


--------------------------------------------------------------------------------------------------------




--------------------------------------- Iteration      1( 102)  ---------------------------------------


    POTLOK:  cpu time      0.1155: real time      0.1158
    SETDIJ:  cpu time      0.4480: real time      0.4490
    TRIAL :  cpu time     17.5702: real time     17.7134
    CORREC:  cpu time     18.1504: real time     18.2363
    CHARGE:  cpu time      0.1093: real time      0.1095
    --------------------------------------------
      LOOP:  cpu time     36.3960: real time     36.6323

 eigenvalue-minimisations  :     0
 total energy-change (2. order) :-0.1962828E-04  (-0.2080947E-04)
 number of electron     306.0000071 magnetization 
 augmentation part       47.9688132 magnetization 

 Free energy of the ion-electron system (eV)
  ---------------------------------------------------
  alpha Z        PSCENC =       346.31287096
  Ewald energy   TEWEN  =     19232.08394480
  -Hartree energ DENC   =    -46971.77665969
  -exchange      EXHF   =      4365.13852024
  -V(xc)+E(xc)   XCENC  =         0.00000000
  PAW double counting   =     31467.66984185   -31691.16487085
  entropy T*S    EENTRO =        -0.00000000
  eigenvalues    EBANDS =     -8290.94727475
  atomic energy  EATOM  =     30700.14502859
  ---------------------------------------------------
  free energy    TOTEN  =      -842.53859884 eV

  energy without entropy =     -842.53859884  energy(sigma->0) =     -842.53859884
  exchange ACFDT corr.  =         0.00000000  see jH, gK, PRB 81, 115126


--------------------------------------------------------------------------------------------------------




--------------------------------------- Iteration      1( 103)  ---------------------------------------


    POTLOK:  cpu time      0.1209: real time      0.1217
    SETDIJ:  cpu time      0.4497: real time      0.4509
    TRIAL :  cpu time     17.4745: real time     17.8811
    CORREC:  cpu time     17.8010: real time     17.9231
    CHARGE:  cpu time      0.1047: real time      0.1051
    --------------------------------------------
      LOOP:  cpu time     35.9534: real time     36.4893

 eigenvalue-minimisations  :     0
 total energy-change (2. order) :-0.2080936E-04  (-0.1820450E-04)
 number of electron     306.0000071 magnetization 
 augmentation part       47.9688299 magnetization 

 Free energy of the ion-electron system (eV)
  ---------------------------------------------------
  alpha Z        PSCENC =       346.31287096
  Ewald energy   TEWEN  =     19232.08394480
  -Hartree energ DENC   =    -46971.79302409
  -exchange      EXHF   =      4365.13795808
  -V(xc)+E(xc)   XCENC  =         0.00000000
  PAW double counting   =     31467.67565768   -31691.16897059
  entropy T*S    EENTRO =        -0.00000000
  eigenvalues    EBANDS =     -8290.93208507
  atomic energy  EATOM  =     30700.14502859
  ---------------------------------------------------
  free energy    TOTEN  =      -842.53861965 eV

  energy without entropy =     -842.53861965  energy(sigma->0) =     -842.53861965
  exchange ACFDT corr.  =         0.00000000  see jH, gK, PRB 81, 115126


--------------------------------------------------------------------------------------------------------




--------------------------------------- Iteration      1( 104)  ---------------------------------------


    POTLOK:  cpu time      0.1169: real time      0.1173
    SETDIJ:  cpu time      0.4511: real time      0.4525
    TRIAL :  cpu time     17.5811: real time     17.6751
    CORREC:  cpu time     17.8744: real time     18.1308
    CHARGE:  cpu time      0.1023: real time      0.1237
    --------------------------------------------
      LOOP:  cpu time     36.1286: real time     36.5076

 eigenvalue-minimisations  :     0
 total energy-change (2. order) :-0.1820443E-04  (-0.1433052E-04)
 number of electron     306.0000071 magnetization 
 augmentation part       47.9688487 magnetization 

 Free energy of the ion-electron system (eV)
  ---------------------------------------------------
  alpha Z        PSCENC =       346.31287096
  Ewald energy   TEWEN  =     19232.08394480
  -Hartree energ DENC   =    -46971.81670552
  -exchange      EXHF   =      4365.13809863
  -V(xc)+E(xc)   XCENC  =         0.00000000
  PAW double counting   =     31467.69027231   -31691.18366606
  entropy T*S    EENTRO =        -0.00000000
  eigenvalues    EBANDS =     -8290.90848156
  atomic energy  EATOM  =     30700.14502859
  ---------------------------------------------------
  free energy    TOTEN  =      -842.53863785 eV

  energy without entropy =     -842.53863785  energy(sigma->0) =     -842.53863785
  exchange ACFDT corr.  =         0.00000000  see jH, gK, PRB 81, 115126


--------------------------------------------------------------------------------------------------------




--------------------------------------- Iteration      1( 105)  ---------------------------------------


    POTLOK:  cpu time      0.1269: real time      0.1450
    SETDIJ:  cpu time      0.4434: real time      0.4444
    TRIAL :  cpu time     17.5226: real time     17.5947
    CORREC:  cpu time     17.8432: real time     17.8938
    CHARGE:  cpu time      0.1063: real time      0.1065
    --------------------------------------------
      LOOP:  cpu time     36.0470: real time     36.1970

 eigenvalue-minimisations  :     0
 total energy-change (2. order) :-0.1433047E-04  (-0.1529450E-04)
 number of electron     306.0000071 magnetization 
 augmentation part       47.9688213 magnetization 

 Free energy of the ion-electron system (eV)
  ---------------------------------------------------
  alpha Z        PSCENC =       346.31287096
  Ewald energy   TEWEN  =     19232.08394480
  -Hartree energ DENC   =    -46971.83467147
  -exchange      EXHF   =      4365.13798615
  -V(xc)+E(xc)   XCENC  =         0.00000000
  PAW double counting   =     31467.70182607   -31691.19532705
  entropy T*S    EENTRO =        -0.00000000
  eigenvalues    EBANDS =     -8290.89031023
  atomic energy  EATOM  =     30700.14502859
  ---------------------------------------------------
  free energy    TOTEN  =      -842.53865218 eV

  energy without entropy =     -842.53865218  energy(sigma->0) =     -842.53865218
  exchange ACFDT corr.  =         0.00000000  see jH, gK, PRB 81, 115126


--------------------------------------------------------------------------------------------------------




--------------------------------------- Iteration      1( 106)  ---------------------------------------


    POTLOK:  cpu time      0.1168: real time      0.1171
    SETDIJ:  cpu time      0.4509: real time      0.4520
    TRIAL :  cpu time     17.5282: real time     17.6361
    CORREC:  cpu time     17.7279: real time     18.0638
    CHARGE:  cpu time      0.1064: real time      0.1067
    --------------------------------------------
      LOOP:  cpu time     35.9328: real time     36.3836

 eigenvalue-minimisations  :     0
 total energy-change (2. order) :-0.1529443E-04  (-0.1462545E-04)
 number of electron     306.0000071 magnetization 
 augmentation part       47.9688137 magnetization 

 Free energy of the ion-electron system (eV)
  ---------------------------------------------------
  alpha Z        PSCENC =       346.31287096
  Ewald energy   TEWEN  =     19232.08394480
  -Hartree energ DENC   =    -46971.83946926
  -exchange      EXHF   =      4365.13723992
  -V(xc)+E(xc)   XCENC  =         0.00000000
  PAW double counting   =     31467.69701967   -31691.18993047
  entropy T*S    EENTRO =        -0.00000000
  eigenvalues    EBANDS =     -8290.88537168
  atomic energy  EATOM  =     30700.14502859
  ---------------------------------------------------
  free energy    TOTEN  =      -842.53866748 eV

  energy without entropy =     -842.53866748  energy(sigma->0) =     -842.53866748
  exchange ACFDT corr.  =         0.00000000  see jH, gK, PRB 81, 115126


--------------------------------------------------------------------------------------------------------




--------------------------------------- Iteration      1( 107)  ---------------------------------------


    POTLOK:  cpu time      0.1146: real time      0.1149
    SETDIJ:  cpu time      0.4472: real time      0.4486
    TRIAL :  cpu time     17.6563: real time     17.7645
    CORREC:  cpu time     17.8885: real time     17.9748
    CHARGE:  cpu time      0.1104: real time      0.1106
    --------------------------------------------
      LOOP:  cpu time     36.2202: real time     36.4220

 eigenvalue-minimisations  :     0
 total energy-change (2. order) :-0.1462565E-04  (-0.1226729E-04)
 number of electron     306.0000071 magnetization 
 augmentation part       47.9688230 magnetization 

 Free energy of the ion-electron system (eV)
  ---------------------------------------------------
  alpha Z        PSCENC =       346.31287096
  Ewald energy   TEWEN  =     19232.08394480
  -Hartree energ DENC   =    -46971.83974997
  -exchange      EXHF   =      4365.13626999
  -V(xc)+E(xc)   XCENC  =         0.00000000
  PAW double counting   =     31467.68553245   -31691.17918615
  entropy T*S    EENTRO =        -0.00000000
  eigenvalues    EBANDS =     -8290.88339278
  atomic energy  EATOM  =     30700.14502859
  ---------------------------------------------------
  free energy    TOTEN  =      -842.53868210 eV

  energy without entropy =     -842.53868210  energy(sigma->0) =     -842.53868210
  exchange ACFDT corr.  =         0.00000000  see jH, gK, PRB 81, 115126


--------------------------------------------------------------------------------------------------------




--------------------------------------- Iteration      1( 108)  ---------------------------------------


    POTLOK:  cpu time      0.1166: real time      0.1172
    SETDIJ:  cpu time      0.4460: real time      0.4471
    TRIAL :  cpu time     17.6317: real time     17.8964
    CORREC:  cpu time     17.8246: real time     17.9242
    CHARGE:  cpu time      0.1071: real time      0.1076
    --------------------------------------------
      LOOP:  cpu time     36.1296: real time     36.5006

 eigenvalue-minimisations  :     0
 total energy-change (2. order) :-0.1226729E-04  (-0.1106344E-04)
 number of electron     306.0000071 magnetization 
 augmentation part       47.9687988 magnetization 

 Free energy of the ion-electron system (eV)
  ---------------------------------------------------
  alpha Z        PSCENC =       346.31287096
  Ewald energy   TEWEN  =     19232.08394480
  -Hartree energ DENC   =    -46971.84142829
  -exchange      EXHF   =      4365.13514992
  -V(xc)+E(xc)   XCENC  =         0.00000000
  PAW double counting   =     31467.67611179   -31691.17089038
  entropy T*S    EENTRO =        -0.00000000
  eigenvalues    EBANDS =     -8290.87948175
  atomic energy  EATOM  =     30700.14502859
  ---------------------------------------------------
  free energy    TOTEN  =      -842.53869437 eV

  energy without entropy =     -842.53869437  energy(sigma->0) =     -842.53869437
  exchange ACFDT corr.  =         0.00000000  see jH, gK, PRB 81, 115126


--------------------------------------------------------------------------------------------------------




--------------------------------------- Iteration      1( 109)  ---------------------------------------


    POTLOK:  cpu time      0.1168: real time      0.1173
    SETDIJ:  cpu time      0.4495: real time      0.4509
    TRIAL :  cpu time     17.6693: real time     17.7461
    CORREC:  cpu time     17.7211: real time     18.0428
    CHARGE:  cpu time      0.1158: real time      0.1161
    --------------------------------------------
      LOOP:  cpu time     36.0753: real time     36.4815

 eigenvalue-minimisations  :     0
 total energy-change (2. order) :-0.1106336E-04  (-0.1291662E-04)
 number of electron     306.0000071 magnetization 
 augmentation part       47.9687725 magnetization 

 Free energy of the ion-electron system (eV)
  ---------------------------------------------------
  alpha Z        PSCENC =       346.31287096
  Ewald energy   TEWEN  =     19232.08394480
  -Hartree energ DENC   =    -46971.83738566
  -exchange      EXHF   =      4365.13376612
  -V(xc)+E(xc)   XCENC  =         0.00000000
  PAW double counting   =     31467.66125110   -31691.15609670
  entropy T*S    EENTRO =        -0.00000000
  eigenvalues    EBANDS =     -8290.88208464
  atomic energy  EATOM  =     30700.14502859
  ---------------------------------------------------
  free energy    TOTEN  =      -842.53870543 eV

  energy without entropy =     -842.53870543  energy(sigma->0) =     -842.53870543
  exchange ACFDT corr.  =         0.00000000  see jH, gK, PRB 81, 115126


--------------------------------------------------------------------------------------------------------




--------------------------------------- Iteration      1( 110)  ---------------------------------------


    POTLOK:  cpu time      0.1167: real time      0.1173
    SETDIJ:  cpu time      0.4494: real time      0.4505
    TRIAL :  cpu time     17.9164: real time     18.0084
    CORREC:  cpu time     17.8156: real time     17.9369
    CHARGE:  cpu time      0.1047: real time      0.1049
    --------------------------------------------
      LOOP:  cpu time     36.4058: real time     36.6261

 eigenvalue-minimisations  :     0
 total energy-change (2. order) :-0.1291701E-04  (-0.1019790E-04)
 number of electron     306.0000071 magnetization 
 augmentation part       47.9688246 magnetization 

 Free energy of the ion-electron system (eV)
  ---------------------------------------------------
  alpha Z        PSCENC =       346.31287096
  Ewald energy   TEWEN  =     19232.08394480
  -Hartree energ DENC   =    -46971.83488200
  -exchange      EXHF   =      4365.13216485
  -V(xc)+E(xc)   XCENC  =         0.00000000
  PAW double counting   =     31467.65016489   -31691.14440707
  entropy T*S    EENTRO =        -0.00000000
  eigenvalues    EBANDS =     -8290.88360337
  atomic energy  EATOM  =     30700.14502859
  ---------------------------------------------------
  free energy    TOTEN  =      -842.53871835 eV

  energy without entropy =     -842.53871835  energy(sigma->0) =     -842.53871835
  exchange ACFDT corr.  =         0.00000000  see jH, gK, PRB 81, 115126


--------------------------------------------------------------------------------------------------------




--------------------------------------- Iteration      1( 111)  ---------------------------------------


    POTLOK:  cpu time      0.1158: real time      0.1161
    SETDIJ:  cpu time      0.4477: real time      0.4491
    TRIAL :  cpu time     17.6927: real time     17.7814
    CORREC:  cpu time     17.8403: real time     18.1181
    CHARGE:  cpu time      0.1039: real time      0.1042
    --------------------------------------------
      LOOP:  cpu time     36.2029: real time     36.5770

 eigenvalue-minimisations  :     0
 total energy-change (2. order) :-0.1019785E-04  (-0.9140458E-05)
 number of electron     306.0000071 magnetization 
 augmentation part       47.9688240 magnetization 

 Free energy of the ion-electron system (eV)
  ---------------------------------------------------
  alpha Z        PSCENC =       346.31287096
  Ewald energy   TEWEN  =     19232.08394480
  -Hartree energ DENC   =    -46971.85090162
  -exchange      EXHF   =      4365.13202088
  -V(xc)+E(xc)   XCENC  =         0.00000000
  PAW double counting   =     31467.66332780   -31691.15847070
  entropy T*S    EENTRO =        -0.00000000
  eigenvalues    EBANDS =     -8290.86654925
  atomic energy  EATOM  =     30700.14502859
  ---------------------------------------------------
  free energy    TOTEN  =      -842.53872855 eV

  energy without entropy =     -842.53872855  energy(sigma->0) =     -842.53872855
  exchange ACFDT corr.  =         0.00000000  see jH, gK, PRB 81, 115126


--------------------------------------------------------------------------------------------------------




--------------------------------------- Iteration      1( 112)  ---------------------------------------


    POTLOK:  cpu time      0.1172: real time      0.1175
    SETDIJ:  cpu time      0.4480: real time      0.4491
    TRIAL :  cpu time     17.6209: real time     17.7249
    CORREC:  cpu time     17.7568: real time     17.8363
    CHARGE:  cpu time      0.1050: real time      0.1053
    --------------------------------------------
      LOOP:  cpu time     36.0498: real time     36.2356

 eigenvalue-minimisations  :     0
 total energy-change (2. order) :-0.9140560E-05  (-0.1033512E-04)
 number of electron     306.0000071 magnetization 
 augmentation part       47.9687792 magnetization 

 Free energy of the ion-electron system (eV)
  ---------------------------------------------------
  alpha Z        PSCENC =       346.31287096
  Ewald energy   TEWEN  =     19232.08394480
  -Hartree energ DENC   =    -46971.86094310
  -exchange      EXHF   =      4365.13247163
  -V(xc)+E(xc)   XCENC  =         0.00000000
  PAW double counting   =     31467.66999559   -31691.16506131
  entropy T*S    EENTRO =        -0.00000000
  eigenvalues    EBANDS =     -8290.85704484
  atomic energy  EATOM  =     30700.14502859
  ---------------------------------------------------
  free energy    TOTEN  =      -842.53873769 eV

  energy without entropy =     -842.53873769  energy(sigma->0) =     -842.53873769
  exchange ACFDT corr.  =         0.00000000  see jH, gK, PRB 81, 115126


--------------------------------------------------------------------------------------------------------




--------------------------------------- Iteration      1( 113)  ---------------------------------------


    POTLOK:  cpu time      0.1165: real time      0.1168
    SETDIJ:  cpu time      0.4443: real time      0.4454
    TRIAL :  cpu time     17.4979: real time     17.8242
    CORREC:  cpu time     17.8250: real time     17.8775
    CHARGE:  cpu time      0.1044: real time      0.1046
    --------------------------------------------
      LOOP:  cpu time     35.9905: real time     36.3711

 eigenvalue-minimisations  :     0
 total energy-change (2. order) :-0.1033501E-04  (-0.7359583E-05)
 number of electron     306.0000071 magnetization 
 augmentation part       47.9687517 magnetization 

 Free energy of the ion-electron system (eV)
  ---------------------------------------------------
  alpha Z        PSCENC =       346.31287096
  Ewald energy   TEWEN  =     19232.08394480
  -Hartree energ DENC   =    -46971.86784819
  -exchange      EXHF   =      4365.13306940
  -V(xc)+E(xc)   XCENC  =         0.00000000
  PAW double counting   =     31467.67732565   -31691.17106247
  entropy T*S    EENTRO =        -0.00000000
  eigenvalues    EBANDS =     -8290.85207676
  atomic energy  EATOM  =     30700.14502859
  ---------------------------------------------------
  free energy    TOTEN  =      -842.53874803 eV

  energy without entropy =     -842.53874803  energy(sigma->0) =     -842.53874803
  exchange ACFDT corr.  =         0.00000000  see jH, gK, PRB 81, 115126


--------------------------------------------------------------------------------------------------------




--------------------------------------- Iteration      1( 114)  ---------------------------------------


    POTLOK:  cpu time      0.1165: real time      0.1168
    SETDIJ:  cpu time      0.4467: real time      0.4481
    TRIAL :  cpu time     17.4673: real time     17.6226
    CORREC:  cpu time     17.3264: real time     18.2493
    CHARGE:  cpu time      0.1070: real time      0.1072
    --------------------------------------------
      LOOP:  cpu time     35.4662: real time     36.5462

 eigenvalue-minimisations  :     0
 total energy-change (2. order) :-0.7359587E-05  (-0.7465876E-05)
 number of electron     306.0000071 magnetization 
 augmentation part       47.9687366 magnetization 

 Free energy of the ion-electron system (eV)
  ---------------------------------------------------
  alpha Z        PSCENC =       346.31287096
  Ewald energy   TEWEN  =     19232.08394480
  -Hartree energ DENC   =    -46971.87344693
  -exchange      EXHF   =      4365.13364361
  -V(xc)+E(xc)   XCENC  =         0.00000000
  PAW double counting   =     31467.68608544   -31691.17904414
  entropy T*S    EENTRO =        -0.00000000
  eigenvalues    EBANDS =     -8290.84783770
  atomic energy  EATOM  =     30700.14502859
  ---------------------------------------------------
  free energy    TOTEN  =      -842.53875538 eV

  energy without entropy =     -842.53875538  energy(sigma->0) =     -842.53875538
  exchange ACFDT corr.  =         0.00000000  see jH, gK, PRB 81, 115126


--------------------------------------------------------------------------------------------------------




--------------------------------------- Iteration      1( 115)  ---------------------------------------


    POTLOK:  cpu time      0.1168: real time      0.1171
    SETDIJ:  cpu time      0.4472: real time      0.4515
    TRIAL :  cpu time     17.6290: real time     17.7249
    CORREC:  cpu time     17.9245: real time     17.9951
    CHARGE:  cpu time      0.1039: real time      0.1042
    --------------------------------------------
      LOOP:  cpu time     36.2232: real time     36.3947

 eigenvalue-minimisations  :     0
 total energy-change (2. order) :-0.7465867E-05  (-0.6916158E-05)
 number of electron     306.0000071 magnetization 
 augmentation part       47.9687679 magnetization 

 Free energy of the ion-electron system (eV)
  ---------------------------------------------------
  alpha Z        PSCENC =       346.31287096
  Ewald energy   TEWEN  =     19232.08394480
  -Hartree energ DENC   =    -46971.87762004
  -exchange      EXHF   =      4365.13427952
  -V(xc)+E(xc)   XCENC  =         0.00000000
  PAW double counting   =     31467.69380766   -31691.18663774
  entropy T*S    EENTRO =        -0.00000000
  eigenvalues    EBANDS =     -8290.84443659
  atomic energy  EATOM  =     30700.14502859
  ---------------------------------------------------
  free energy    TOTEN  =      -842.53876285 eV

  energy without entropy =     -842.53876285  energy(sigma->0) =     -842.53876285
  exchange ACFDT corr.  =         0.00000000  see jH, gK, PRB 81, 115126


--------------------------------------------------------------------------------------------------------




--------------------------------------- Iteration      1( 116)  ---------------------------------------


    POTLOK:  cpu time      0.1170: real time      0.1173
    SETDIJ:  cpu time      0.4497: real time      0.4510
    TRIAL :  cpu time     17.8635: real time     18.0229
    CORREC:  cpu time     18.0173: real time     18.1688
    CHARGE:  cpu time      0.1097: real time      0.1100
    --------------------------------------------
      LOOP:  cpu time     36.5599: real time     36.8727

 eigenvalue-minimisations  :     0
 total energy-change (2. order) :-0.6916125E-05  (-0.6189074E-05)
 number of electron     306.0000071 magnetization 
 augmentation part       47.9688044 magnetization 

 Free energy of the ion-electron system (eV)
  ---------------------------------------------------
  alpha Z        PSCENC =       346.31287096
  Ewald energy   TEWEN  =     19232.08394480
  -Hartree energ DENC   =    -46971.88590473
  -exchange      EXHF   =      4365.13477780
  -V(xc)+E(xc)   XCENC  =         0.00000000
  PAW double counting   =     31467.70644057   -31691.20001193
  entropy T*S    EENTRO =        -0.00000000
  eigenvalues    EBANDS =     -8290.83591583
  atomic energy  EATOM  =     30700.14502859
  ---------------------------------------------------
  free energy    TOTEN  =      -842.53876977 eV

  energy without entropy =     -842.53876977  energy(sigma->0) =     -842.53876977
  exchange ACFDT corr.  =         0.00000000  see jH, gK, PRB 81, 115126


--------------------------------------------------------------------------------------------------------




--------------------------------------- Iteration      1( 117)  ---------------------------------------


    POTLOK:  cpu time      0.1171: real time      0.1174
    SETDIJ:  cpu time      0.4567: real time      0.4580
    TRIAL :  cpu time     17.6849: real time     17.7962
    CORREC:  cpu time     17.9395: real time     18.0019
    CHARGE:  cpu time      0.1076: real time      0.1081
    --------------------------------------------
      LOOP:  cpu time     36.3083: real time     36.4841

 eigenvalue-minimisations  :     0
 total energy-change (2. order) :-0.6189126E-05  (-0.5989543E-05)
 number of electron     306.0000071 magnetization 
 augmentation part       47.9687945 magnetization 

 Free energy of the ion-electron system (eV)
  ---------------------------------------------------
  alpha Z        PSCENC =       346.31287096
  Ewald energy   TEWEN  =     19232.08394480
  -Hartree energ DENC   =    -46971.89182978
  -exchange      EXHF   =      4365.13511472
  -V(xc)+E(xc)   XCENC  =         0.00000000
  PAW double counting   =     31467.71581702   -31691.21007515
  entropy T*S    EENTRO =        -0.00000000
  eigenvalues    EBANDS =     -8290.82964710
  atomic energy  EATOM  =     30700.14502859
  ---------------------------------------------------
  free energy    TOTEN  =      -842.53877596 eV

  energy without entropy =     -842.53877596  energy(sigma->0) =     -842.53877596
  exchange ACFDT corr.  =         0.00000000  see jH, gK, PRB 81, 115126


--------------------------------------------------------------------------------------------------------




--------------------------------------- Iteration      1( 118)  ---------------------------------------


    POTLOK:  cpu time      0.1170: real time      0.1173
    SETDIJ:  cpu time      0.4450: real time      0.4461
    TRIAL :  cpu time     17.9968: real time     18.2586
    CORREC:  cpu time     17.9183: real time     17.9699
    CHARGE:  cpu time      0.1069: real time      0.1072
    --------------------------------------------
      LOOP:  cpu time     36.5861: real time     36.9010

 eigenvalue-minimisations  :     0
 total energy-change (2. order) :-0.5989583E-05  (-0.6029371E-05)
 number of electron     306.0000071 magnetization 
 augmentation part       47.9687834 magnetization 

 Free energy of the ion-electron system (eV)
  ---------------------------------------------------
  alpha Z        PSCENC =       346.31287096
  Ewald energy   TEWEN  =     19232.08394480
  -Hartree energ DENC   =    -46971.88489994
  -exchange      EXHF   =      4365.13532416
  -V(xc)+E(xc)   XCENC  =         0.00000000
  PAW double counting   =     31467.71052459   -31691.20452424
  entropy T*S    EENTRO =        -0.00000000
  eigenvalues    EBANDS =     -8290.83705085
  atomic energy  EATOM  =     30700.14502859
  ---------------------------------------------------
  free energy    TOTEN  =      -842.53878195 eV

  energy without entropy =     -842.53878195  energy(sigma->0) =     -842.53878195
  exchange ACFDT corr.  =         0.00000000  see jH, gK, PRB 81, 115126


--------------------------------------------------------------------------------------------------------




--------------------------------------- Iteration      1( 119)  ---------------------------------------


    POTLOK:  cpu time      0.1157: real time      0.1162
    SETDIJ:  cpu time      0.4497: real time      0.4508
    TRIAL :  cpu time     17.6828: real time     17.7656
    CORREC:  cpu time     17.8439: real time     18.3034
    CHARGE:  cpu time      0.1047: real time      0.1050
    --------------------------------------------
      LOOP:  cpu time     36.1996: real time     36.7438

 eigenvalue-minimisations  :     0
 total energy-change (2. order) :-0.6029499E-05  (-0.5320723E-05)
 number of electron     306.0000071 magnetization 
 augmentation part       47.9687902 magnetization 

 Free energy of the ion-electron system (eV)
  ---------------------------------------------------
  alpha Z        PSCENC =       346.31287096
  Ewald energy   TEWEN  =     19232.08394480
  -Hartree energ DENC   =    -46971.87600993
  -exchange      EXHF   =      4365.13573080
  -V(xc)+E(xc)   XCENC  =         0.00000000
  PAW double counting   =     31467.70323593   -31691.19665301
  entropy T*S    EENTRO =        -0.00000000
  eigenvalues    EBANDS =     -8290.84693610
  atomic energy  EATOM  =     30700.14502859
  ---------------------------------------------------
  free energy    TOTEN  =      -842.53878798 eV

  energy without entropy =     -842.53878798  energy(sigma->0) =     -842.53878798
  exchange ACFDT corr.  =         0.00000000  see jH, gK, PRB 81, 115126


--------------------------------------------------------------------------------------------------------




--------------------------------------- Iteration      1( 120)  ---------------------------------------


    POTLOK:  cpu time      0.1145: real time      0.1148
    SETDIJ:  cpu time      0.4432: real time      0.4446
    TRIAL :  cpu time     17.6656: real time     17.7229
    CORREC:  cpu time     17.9412: real time     18.0234
    CHARGE:  cpu time      0.1069: real time      0.1075
    --------------------------------------------
      LOOP:  cpu time     36.2738: real time     36.4154

 eigenvalue-minimisations  :     0
 total energy-change (2. order) :-0.5320711E-05  (-0.4502805E-05)
 number of electron     306.0000071 magnetization 
 augmentation part       47.9687839 magnetization 

 Free energy of the ion-electron system (eV)
  ---------------------------------------------------
  alpha Z        PSCENC =       346.31287096
  Ewald energy   TEWEN  =     19232.08394480
  -Hartree energ DENC   =    -46971.87174615
  -exchange      EXHF   =      4365.13631096
  -V(xc)+E(xc)   XCENC  =         0.00000000
  PAW double counting   =     31467.70066544   -31691.19385512
  entropy T*S    EENTRO =        -0.00000000
  eigenvalues    EBANDS =     -8290.85201278
  atomic energy  EATOM  =     30700.14502859
  ---------------------------------------------------
  free energy    TOTEN  =      -842.53879330 eV

  energy without entropy =     -842.53879330  energy(sigma->0) =     -842.53879330
  exchange ACFDT corr.  =         0.00000000  see jH, gK, PRB 81, 115126


--------------------------------------------------------------------------------------------------------




--------------------------------------- Iteration      1( 121)  ---------------------------------------


    POTLOK:  cpu time      0.1160: real time      0.1162
    SETDIJ:  cpu time      0.4505: real time      0.4516
    TRIAL :  cpu time     17.5741: real time     17.8577
    CORREC:  cpu time     17.9210: real time     17.9906
    CHARGE:  cpu time      0.1043: real time      0.1046
    --------------------------------------------
      LOOP:  cpu time     36.1681: real time     36.5229

 eigenvalue-minimisations  :     0
 total energy-change (2. order) :-0.4502734E-05  (-0.4095686E-05)
 number of electron     306.0000071 magnetization 
 augmentation part       47.9687952 magnetization 

 Free energy of the ion-electron system (eV)
  ---------------------------------------------------
  alpha Z        PSCENC =       346.31287096
  Ewald energy   TEWEN  =     19232.08394480
  -Hartree energ DENC   =    -46971.86724351
  -exchange      EXHF   =      4365.13692797
  -V(xc)+E(xc)   XCENC  =         0.00000000
  PAW double counting   =     31467.69679857   -31691.18966311
  entropy T*S    EENTRO =        -0.00000000
  eigenvalues    EBANDS =     -8290.85746206
  atomic energy  EATOM  =     30700.14502859
  ---------------------------------------------------
  free energy    TOTEN  =      -842.53879780 eV

  energy without entropy =     -842.53879780  energy(sigma->0) =     -842.53879780
  exchange ACFDT corr.  =         0.00000000  see jH, gK, PRB 81, 115126


--------------------------------------------------------------------------------------------------------




--------------------------------------- Iteration      1( 122)  ---------------------------------------


    POTLOK:  cpu time      0.1153: real time      0.1156
    SETDIJ:  cpu time      0.4506: real time      0.4520
    TRIAL :  cpu time     17.6739: real time     17.7916
    CORREC:  cpu time     17.8935: real time     18.0274
    CHARGE:  cpu time      0.1078: real time      0.1107
    --------------------------------------------
      LOOP:  cpu time     36.2435: real time     36.4997

 eigenvalue-minimisations  :     0
 total energy-change (2. order) :-0.4095702E-05  (-0.4415944E-05)
 number of electron     306.0000071 magnetization 
 augmentation part       47.9688334 magnetization 

 Free energy of the ion-electron system (eV)
  ---------------------------------------------------
  alpha Z        PSCENC =       346.31287096
  Ewald energy   TEWEN  =     19232.08394480
  -Hartree energ DENC   =    -46971.86902723
  -exchange      EXHF   =      4365.13784665
  -V(xc)+E(xc)   XCENC  =         0.00000000
  PAW double counting   =     31467.69845758   -31691.19131269
  entropy T*S    EENTRO =        -0.00000000
  eigenvalues    EBANDS =     -8290.85661055
  atomic energy  EATOM  =     30700.14502859
  ---------------------------------------------------
  free energy    TOTEN  =      -842.53880189 eV

  energy without entropy =     -842.53880189  energy(sigma->0) =     -842.53880189
  exchange ACFDT corr.  =         0.00000000  see jH, gK, PRB 81, 115126


--------------------------------------------------------------------------------------------------------




--------------------------------------- Iteration      1( 123)  ---------------------------------------


    POTLOK:  cpu time      0.1143: real time      0.1145
    SETDIJ:  cpu time      0.4489: real time      0.4527
    TRIAL :  cpu time     18.0551: real time     18.3426
    CORREC:  cpu time     17.9406: real time     18.0171
    CHARGE:  cpu time      0.1048: real time      0.1051
    --------------------------------------------
      LOOP:  cpu time     36.6656: real time     37.0338

 eigenvalue-minimisations  :     0
 total energy-change (2. order) :-0.4415873E-05  (-0.4418041E-05)
 number of electron     306.0000071 magnetization 
 augmentation part       47.9688702 magnetization 

 Free energy of the ion-electron system (eV)
  ---------------------------------------------------
  alpha Z        PSCENC =       346.31287096
  Ewald energy   TEWEN  =     19232.08394480
  -Hartree energ DENC   =    -46971.87541356
  -exchange      EXHF   =      4365.13902527
  -V(xc)+E(xc)   XCENC  =         0.00000000
  PAW double counting   =     31467.70571937   -31691.19905784
  entropy T*S    EENTRO =        -0.00000000
  eigenvalues    EBANDS =     -8290.85092389
  atomic energy  EATOM  =     30700.14502859
  ---------------------------------------------------
  free energy    TOTEN  =      -842.53880631 eV

  energy without entropy =     -842.53880631  energy(sigma->0) =     -842.53880631
  exchange ACFDT corr.  =         0.00000000  see jH, gK, PRB 81, 115126


--------------------------------------------------------------------------------------------------------




--------------------------------------- Iteration      1( 124)  ---------------------------------------


    POTLOK:  cpu time      0.1152: real time      0.1154
    SETDIJ:  cpu time      0.4451: real time      0.4462
    TRIAL :  cpu time     17.6786: real time     17.7805
    CORREC:  cpu time     18.2214: real time     18.4824
    CHARGE:  cpu time      0.1063: real time      0.1069
    --------------------------------------------
      LOOP:  cpu time     36.5691: real time     36.9340

 eigenvalue-minimisations  :     0
 total energy-change (2. order) :-0.4417976E-05  (-0.4261902E-05)
 number of electron     306.0000071 magnetization 
 augmentation part       47.9688544 magnetization 

 Free energy of the ion-electron system (eV)
  ---------------------------------------------------
  alpha Z        PSCENC =       346.31287096
  Ewald energy   TEWEN  =     19232.08394480
  -Hartree energ DENC   =    -46971.88259718
  -exchange      EXHF   =      4365.14009238
  -V(xc)+E(xc)   XCENC  =         0.00000000
  PAW double counting   =     31467.71510304   -31691.20863214
  entropy T*S    EENTRO =        -0.00000000
  eigenvalues    EBANDS =     -8290.84462117
  atomic energy  EATOM  =     30700.14502859
  ---------------------------------------------------
  free energy    TOTEN  =      -842.53881073 eV

  energy without entropy =     -842.53881073  energy(sigma->0) =     -842.53881073
  exchange ACFDT corr.  =         0.00000000  see jH, gK, PRB 81, 115126


--------------------------------------------------------------------------------------------------------




--------------------------------------- Iteration      1( 125)  ---------------------------------------


    POTLOK:  cpu time      0.1157: real time      0.1160
    SETDIJ:  cpu time      0.4459: real time      0.4469
    TRIAL :  cpu time     17.5974: real time     17.6713
    CORREC:  cpu time     17.8778: real time     17.9526
    CHARGE:  cpu time      0.1065: real time      0.1068
    --------------------------------------------
      LOOP:  cpu time     36.1458: real time     36.2960

 eigenvalue-minimisations  :     0
 total energy-change (2. order) :-0.4261667E-05  (-0.3641617E-05)
 number of electron     306.0000071 magnetization 
 augmentation part       47.9688257 magnetization 

 Free energy of the ion-electron system (eV)
  ---------------------------------------------------
  alpha Z        PSCENC =       346.31287096
  Ewald energy   TEWEN  =     19232.08394480
  -Hartree energ DENC   =    -46971.87917045
  -exchange      EXHF   =      4365.14045870
  -V(xc)+E(xc)   XCENC  =         0.00000000
  PAW double counting   =     31467.71246527   -31691.20516970
  entropy T*S    EENTRO =        -0.00000000
  eigenvalues    EBANDS =     -8290.84924316
  atomic energy  EATOM  =     30700.14502859
  ---------------------------------------------------
  free energy    TOTEN  =      -842.53881499 eV

  energy without entropy =     -842.53881499  energy(sigma->0) =     -842.53881499
  exchange ACFDT corr.  =         0.00000000  see jH, gK, PRB 81, 115126


--------------------------------------------------------------------------------------------------------




--------------------------------------- Iteration      1( 126)  ---------------------------------------


    POTLOK:  cpu time      0.1163: real time      0.1166
    SETDIJ:  cpu time      0.4475: real time      0.4486
    TRIAL :  cpu time     17.5490: real time     17.9375
    CORREC:  cpu time     17.8836: real time     17.9483
    CHARGE:  cpu time      0.1069: real time      0.1072
    --------------------------------------------
      LOOP:  cpu time     36.1060: real time     36.5608

 eigenvalue-minimisations  :     0
 total energy-change (2. order) :-0.3641373E-05  (-0.2956263E-05)
 number of electron     306.0000071 magnetization 
 augmentation part       47.9688269 magnetization 

 Free energy of the ion-electron system (eV)
  ---------------------------------------------------
  alpha Z        PSCENC =       346.31287096
  Ewald energy   TEWEN  =     19232.08394480
  -Hartree energ DENC   =    -46971.87078494
  -exchange      EXHF   =      4365.14039206
  -V(xc)+E(xc)   XCENC  =         0.00000000
  PAW double counting   =     31467.70275319   -31691.19500031
  entropy T*S    EENTRO =        -0.00000000
  eigenvalues    EBANDS =     -8290.85802297
  atomic energy  EATOM  =     30700.14502859
  ---------------------------------------------------
  free energy    TOTEN  =      -842.53881863 eV

  energy without entropy =     -842.53881863  energy(sigma->0) =     -842.53881863
  exchange ACFDT corr.  =         0.00000000  see jH, gK, PRB 81, 115126


--------------------------------------------------------------------------------------------------------




--------------------------------------- Iteration      1( 127)  ---------------------------------------


    POTLOK:  cpu time      0.1160: real time      0.1165
    SETDIJ:  cpu time      0.4494: real time      0.4504
    TRIAL :  cpu time     17.5826: real time     17.6636
    CORREC:  cpu time     17.8323: real time     18.0076
    CHARGE:  cpu time      0.1101: real time      0.1103
    --------------------------------------------
      LOOP:  cpu time     36.0921: real time     36.3503

 eigenvalue-minimisations  :     0
 total energy-change (2. order) :-0.2956425E-05  (-0.2698442E-05)
 number of electron     306.0000071 magnetization 
 augmentation part       47.9688275 magnetization 

 Free energy of the ion-electron system (eV)
  ---------------------------------------------------
  alpha Z        PSCENC =       346.31287096
  Ewald energy   TEWEN  =     19232.08394480
  -Hartree energ DENC   =    -46971.86763412
  -exchange      EXHF   =      4365.14052681
  -V(xc)+E(xc)   XCENC  =         0.00000000
  PAW double counting   =     31467.69846418   -31691.19120400
  entropy T*S    EENTRO =        -0.00000000
  eigenvalues    EBANDS =     -8290.86081880
  atomic energy  EATOM  =     30700.14502859
  ---------------------------------------------------
  free energy    TOTEN  =      -842.53882159 eV

  energy without entropy =     -842.53882159  energy(sigma->0) =     -842.53882159
  exchange ACFDT corr.  =         0.00000000  see jH, gK, PRB 81, 115126


--------------------------------------------------------------------------------------------------------




--------------------------------------- Iteration      1( 128)  ---------------------------------------


    POTLOK:  cpu time      0.1167: real time      0.1170
    SETDIJ:  cpu time      0.4450: real time      0.4460
    TRIAL :  cpu time     17.5109: real time     17.8855
    CORREC:  cpu time     18.2297: real time     18.3033
    CHARGE:  cpu time      0.1049: real time      0.1054
    --------------------------------------------
      LOOP:  cpu time     36.4096: real time     36.8597

 eigenvalue-minimisations  :     0
 total energy-change (2. order) :-0.2698409E-05  (-0.2952211E-05)
 number of electron     306.0000071 magnetization 
 augmentation part       47.9688198 magnetization 

 Free energy of the ion-electron system (eV)
  ---------------------------------------------------
  alpha Z        PSCENC =       346.31287096
  Ewald energy   TEWEN  =     19232.08394480
  -Hartree energ DENC   =    -46971.86186550
  -exchange      EXHF   =      4365.14051094
  -V(xc)+E(xc)   XCENC  =         0.00000000
  PAW double counting   =     31467.69229924   -31691.18570543
  entropy T*S    EENTRO =        -0.00000000
  eigenvalues    EBANDS =     -8290.86590789
  atomic energy  EATOM  =     30700.14502859
  ---------------------------------------------------
  free energy    TOTEN  =      -842.53882429 eV

  energy without entropy =     -842.53882429  energy(sigma->0) =     -842.53882429
  exchange ACFDT corr.  =         0.00000000  see jH, gK, PRB 81, 115126


--------------------------------------------------------------------------------------------------------




--------------------------------------- Iteration      1( 129)  ---------------------------------------


    POTLOK:  cpu time      0.1157: real time      0.1163
    SETDIJ:  cpu time      0.4471: real time      0.4484
    TRIAL :  cpu time     17.7046: real time     17.7978
    CORREC:  cpu time     17.1614: real time     18.3842
    CHARGE:  cpu time      0.1102: real time      0.1104
    --------------------------------------------
      LOOP:  cpu time     35.5415: real time     36.8595

 eigenvalue-minimisations  :     0
 total energy-change (2. order) :-0.2952147E-05  (-0.2800995E-05)
 number of electron     306.0000071 magnetization 
 augmentation part       47.9688154 magnetization 

 Free energy of the ion-electron system (eV)
  ---------------------------------------------------
  alpha Z        PSCENC =       346.31287096
  Ewald energy   TEWEN  =     19232.08394480
  -Hartree energ DENC   =    -46971.85382145
  -exchange      EXHF   =      4365.14027383
  -V(xc)+E(xc)   XCENC  =         0.00000000
  PAW double counting   =     31467.68391289   -31691.17767590
  entropy T*S    EENTRO =        -0.00000000
  eigenvalues    EBANDS =     -8290.87336095
  atomic energy  EATOM  =     30700.14502859
  ---------------------------------------------------
  free energy    TOTEN  =      -842.53882724 eV

  energy without entropy =     -842.53882724  energy(sigma->0) =     -842.53882724
  exchange ACFDT corr.  =         0.00000000  see jH, gK, PRB 81, 115126


--------------------------------------------------------------------------------------------------------




--------------------------------------- Iteration      1( 130)  ---------------------------------------


    POTLOK:  cpu time      0.1171: real time      0.1177
    SETDIJ:  cpu time      0.4481: real time      0.4492
    TRIAL :  cpu time     17.6428: real time     17.7205
    CORREC:  cpu time     18.0988: real time     18.2158
    CHARGE:  cpu time      0.1066: real time      0.1069
    --------------------------------------------
      LOOP:  cpu time     36.4152: real time     36.6119

 eigenvalue-minimisations  :     0
 total energy-change (2. order) :-0.2800949E-05  (-0.1663340E-05)
 number of electron     306.0000071 magnetization 
 augmentation part       47.9688211 magnetization 

 Free energy of the ion-electron system (eV)
  ---------------------------------------------------
  alpha Z        PSCENC =       346.31287096
  Ewald energy   TEWEN  =     19232.08394480
  -Hartree energ DENC   =    -46971.84794170
  -exchange      EXHF   =      4365.14005886
  -V(xc)+E(xc)   XCENC  =         0.00000000
  PAW double counting   =     31467.67770697   -31691.17161106
  entropy T*S    EENTRO =        -0.00000000
  eigenvalues    EBANDS =     -8290.87888745
  atomic energy  EATOM  =     30700.14502859
  ---------------------------------------------------
  free energy    TOTEN  =      -842.53883004 eV

  energy without entropy =     -842.53883004  energy(sigma->0) =     -842.53883004
  exchange ACFDT corr.  =         0.00000000  see jH, gK, PRB 81, 115126


--------------------------------------------------------------------------------------------------------




--------------------------------------- Iteration      1( 131)  ---------------------------------------


    POTLOK:  cpu time      0.1147: real time      0.1152
    SETDIJ:  cpu time      0.4479: real time      0.4494
    TRIAL :  cpu time     17.5142: real time     18.1320
    CORREC:  cpu time     17.8096: real time     17.9083
    CHARGE:  cpu time      0.1039: real time      0.1135
    --------------------------------------------
      LOOP:  cpu time     35.9926: real time     36.7207

 eigenvalue-minimisations  :     0
 total energy-change (2. order) :-0.1663338E-05  (-0.1575734E-05)
 number of electron     306.0000071 magnetization 
 augmentation part       47.9688223 magnetization 

 Free energy of the ion-electron system (eV)
  ---------------------------------------------------
  alpha Z        PSCENC =       346.31287096
  Ewald energy   TEWEN  =     19232.08394480
  -Hartree energ DENC   =    -46971.85018799
  -exchange      EXHF   =      4365.14019284
  -V(xc)+E(xc)   XCENC  =         0.00000000
  PAW double counting   =     31467.68008924   -31691.17397990
  entropy T*S    EENTRO =        -0.00000000
  eigenvalues    EBANDS =     -8290.87679024
  atomic energy  EATOM  =     30700.14502859
  ---------------------------------------------------
  free energy    TOTEN  =      -842.53883170 eV

  energy without entropy =     -842.53883170  energy(sigma->0) =     -842.53883170
  exchange ACFDT corr.  =         0.00000000  see jH, gK, PRB 81, 115126


--------------------------------------------------------------------------------------------------------




--------------------------------------- Iteration      1( 132)  ---------------------------------------


    POTLOK:  cpu time      0.1180: real time      0.1183
    SETDIJ:  cpu time      0.4196: real time      0.4527
    TRIAL :  cpu time     17.6130: real time     17.7077
    CORREC:  cpu time     18.1509: real time     18.4157
    CHARGE:  cpu time      0.1038: real time      0.1041
    --------------------------------------------
      LOOP:  cpu time     36.4074: real time     36.8007

 eigenvalue-minimisations  :     0
 total energy-change (2. order) :-0.1575583E-05  (-0.1839194E-05)
 number of electron     306.0000071 magnetization 
 augmentation part       47.9688134 magnetization 

 Free energy of the ion-electron system (eV)
  ---------------------------------------------------
  alpha Z        PSCENC =       346.31287096
  Ewald energy   TEWEN  =     19232.08394480
  -Hartree energ DENC   =    -46971.85402122
  -exchange      EXHF   =      4365.14038278
  -V(xc)+E(xc)   XCENC  =         0.00000000
  PAW double counting   =     31467.68360339   -31691.17713791
  entropy T*S    EENTRO =        -0.00000000
  eigenvalues    EBANDS =     -8290.87350467
  atomic energy  EATOM  =     30700.14502859
  ---------------------------------------------------
  free energy    TOTEN  =      -842.53883328 eV

  energy without entropy =     -842.53883328  energy(sigma->0) =     -842.53883328
  exchange ACFDT corr.  =         0.00000000  see jH, gK, PRB 81, 115126


--------------------------------------------------------------------------------------------------------




--------------------------------------- Iteration      1( 133)  ---------------------------------------


    POTLOK:  cpu time      0.1159: real time      0.1162
    SETDIJ:  cpu time      0.4507: real time      0.4518
    TRIAL :  cpu time     17.6137: real time     17.7121
    CORREC:  cpu time     17.9594: real time     18.0127
    CHARGE:  cpu time      0.1046: real time      0.1113
    --------------------------------------------
      LOOP:  cpu time     36.2470: real time     36.4067

 eigenvalue-minimisations  :     0
 total energy-change (2. order) :-0.1839155E-05  (-0.1716369E-05)
 number of electron     306.0000071 magnetization 
 augmentation part       47.9688186 magnetization 

 Free energy of the ion-electron system (eV)
  ---------------------------------------------------
  alpha Z        PSCENC =       346.31287096
  Ewald energy   TEWEN  =     19232.08394480
  -Hartree energ DENC   =    -46971.85683819
  -exchange      EXHF   =      4365.14053746
  -V(xc)+E(xc)   XCENC  =         0.00000000
  PAW double counting   =     31467.68620094   -31691.17914462
  entropy T*S    EENTRO =        -0.00000000
  eigenvalues    EBANDS =     -8290.87143505
  atomic energy  EATOM  =     30700.14502859
  ---------------------------------------------------
  free energy    TOTEN  =      -842.53883512 eV

  energy without entropy =     -842.53883512  energy(sigma->0) =     -842.53883512
  exchange ACFDT corr.  =         0.00000000  see jH, gK, PRB 81, 115126


--------------------------------------------------------------------------------------------------------




--------------------------------------- Iteration      1( 134)  ---------------------------------------


    POTLOK:  cpu time      0.1155: real time      0.1157
    SETDIJ:  cpu time      0.4457: real time      0.4470
    TRIAL :  cpu time     17.5021: real time     17.5849
    CORREC:  cpu time     18.0523: real time     18.3475
    CHARGE:  cpu time      0.1063: real time      0.1065
    --------------------------------------------
      LOOP:  cpu time     36.2244: real time     36.6043

 eigenvalue-minimisations  :     0
 total energy-change (2. order) :-0.1716293E-05  (-0.1526594E-05)
 number of electron     306.0000071 magnetization 
 augmentation part       47.9688207 magnetization 

 Free energy of the ion-electron system (eV)
  ---------------------------------------------------
  alpha Z        PSCENC =       346.31287096
  Ewald energy   TEWEN  =     19232.08394480
  -Hartree energ DENC   =    -46971.86100043
  -exchange      EXHF   =      4365.14067351
  -V(xc)+E(xc)   XCENC  =         0.00000000
  PAW double counting   =     31467.69101692   -31691.18404392
  entropy T*S    EENTRO =        -0.00000000
  eigenvalues    EBANDS =     -8290.86732726
  atomic energy  EATOM  =     30700.14502859
  ---------------------------------------------------
  free energy    TOTEN  =      -842.53883683 eV

  energy without entropy =     -842.53883683  energy(sigma->0) =     -842.53883683
  exchange ACFDT corr.  =         0.00000000  see jH, gK, PRB 81, 115126


--------------------------------------------------------------------------------------------------------




--------------------------------------- Iteration      1( 135)  ---------------------------------------


    POTLOK:  cpu time      0.1160: real time      0.1163
    SETDIJ:  cpu time      0.4494: real time      0.4505
    TRIAL :  cpu time     17.7325: real time     17.8258
    CORREC:  cpu time     17.8643: real time     17.9773
    CHARGE:  cpu time      0.1054: real time      0.1056
    --------------------------------------------
      LOOP:  cpu time     36.2702: real time     36.4781

 eigenvalue-minimisations  :     0
 total energy-change (2. order) :-0.1526561E-05  (-0.1723381E-05)
 number of electron     306.0000071 magnetization 
 augmentation part       47.9688084 magnetization 

 Free energy of the ion-electron system (eV)
  ---------------------------------------------------
  alpha Z        PSCENC =       346.31287096
  Ewald energy   TEWEN  =     19232.08394480
  -Hartree energ DENC   =    -46971.86470724
  -exchange      EXHF   =      4365.14068571
  -V(xc)+E(xc)   XCENC  =         0.00000000
  PAW double counting   =     31467.69445852   -31691.18783389
  entropy T*S    EENTRO =        -0.00000000
  eigenvalues    EBANDS =     -8290.86328580
  atomic energy  EATOM  =     30700.14502859
  ---------------------------------------------------
  free energy    TOTEN  =      -842.53883836 eV

  energy without entropy =     -842.53883836  energy(sigma->0) =     -842.53883836
  exchange ACFDT corr.  =         0.00000000  see jH, gK, PRB 81, 115126


--------------------------------------------------------------------------------------------------------




--------------------------------------- Iteration      1( 136)  ---------------------------------------


    POTLOK:  cpu time      0.1155: real time      0.1158
    SETDIJ:  cpu time      0.4460: real time      0.4474
    TRIAL :  cpu time     17.4812: real time     17.9752
    CORREC:  cpu time     17.8050: real time     17.9974
    CHARGE:  cpu time      0.1075: real time      0.1077
    --------------------------------------------
      LOOP:  cpu time     35.9573: real time     36.6457

 eigenvalue-minimisations  :     0
 total energy-change (2. order) :-0.1723332E-05  (-0.1386301E-05)
 number of electron     306.0000071 magnetization 
 augmentation part       47.9688046 magnetization 

 Free energy of the ion-electron system (eV)
  ---------------------------------------------------
  alpha Z        PSCENC =       346.31287096
  Ewald energy   TEWEN  =     19232.08394480
  -Hartree energ DENC   =    -46971.86510333
  -exchange      EXHF   =      4365.14042599
  -V(xc)+E(xc)   XCENC  =         0.00000000
  PAW double counting   =     31467.69398481   -31691.18770956
  entropy T*S    EENTRO =        -0.00000000
  eigenvalues    EBANDS =     -8290.86228233
  atomic energy  EATOM  =     30700.14502859
  ---------------------------------------------------
  free energy    TOTEN  =      -842.53884008 eV

  energy without entropy =     -842.53884008  energy(sigma->0) =     -842.53884008
  exchange ACFDT corr.  =         0.00000000  see jH, gK, PRB 81, 115126


--------------------------------------------------------------------------------------------------------




--------------------------------------- Iteration      1( 137)  ---------------------------------------


    POTLOK:  cpu time      0.1161: real time      0.1164
    SETDIJ:  cpu time      0.4477: real time      0.4489
    TRIAL :  cpu time     17.5827: real time     17.7232
    CORREC:  cpu time     17.7523: real time     18.1081
    CHARGE:  cpu time      0.1043: real time      0.1046
    --------------------------------------------
      LOOP:  cpu time     36.0055: real time     36.5035

 eigenvalue-minimisations  :     0
 total energy-change (2. order) :-0.1386266E-05  (-0.1447917E-05)
 number of electron     306.0000071 magnetization 
 augmentation part       47.9687900 magnetization 

 Free energy of the ion-electron system (eV)
  ---------------------------------------------------
  alpha Z        PSCENC =       346.31287096
  Ewald energy   TEWEN  =     19232.08394480
  -Hartree energ DENC   =    -46971.86548066
  -exchange      EXHF   =      4365.14001623
  -V(xc)+E(xc)   XCENC  =         0.00000000
  PAW double counting   =     31467.69386671   -31691.18789067
  entropy T*S    EENTRO =        -0.00000000
  eigenvalues    EBANDS =     -8290.86119743
  atomic energy  EATOM  =     30700.14502859
  ---------------------------------------------------
  free energy    TOTEN  =      -842.53884147 eV

  energy without entropy =     -842.53884147  energy(sigma->0) =     -842.53884147
  exchange ACFDT corr.  =         0.00000000  see jH, gK, PRB 81, 115126


--------------------------------------------------------------------------------------------------------




--------------------------------------- Iteration      1( 138)  ---------------------------------------


    POTLOK:  cpu time      0.1154: real time      0.1157
    SETDIJ:  cpu time      0.4508: real time      0.4522
    TRIAL :  cpu time     17.5175: real time     17.5957
    CORREC:  cpu time     17.8864: real time     17.9751
    CHARGE:  cpu time      0.1058: real time      0.1060
    --------------------------------------------
      LOOP:  cpu time     36.0784: real time     36.2473

 eigenvalue-minimisations  :     0
 total energy-change (2. order) :-0.1447868E-05  (-0.1316136E-05)
 number of electron     306.0000071 magnetization 
 augmentation part       47.9687701 magnetization 

 Free energy of the ion-electron system (eV)
  ---------------------------------------------------
  alpha Z        PSCENC =       346.31287096
  Ewald energy   TEWEN  =     19232.08394480
  -Hartree energ DENC   =    -46971.86462866
  -exchange      EXHF   =      4365.13947413
  -V(xc)+E(xc)   XCENC  =         0.00000000
  PAW double counting   =     31467.69258474   -31691.18642086
  entropy T*S    EENTRO =        -0.00000000
  eigenvalues    EBANDS =     -8290.86169661
  atomic energy  EATOM  =     30700.14502859
  ---------------------------------------------------
  free energy    TOTEN  =      -842.53884292 eV

  energy without entropy =     -842.53884292  energy(sigma->0) =     -842.53884292
  exchange ACFDT corr.  =         0.00000000  see jH, gK, PRB 81, 115126


--------------------------------------------------------------------------------------------------------




--------------------------------------- Iteration      1( 139)  ---------------------------------------


    POTLOK:  cpu time      0.1171: real time      0.1174
    SETDIJ:  cpu time      0.4488: real time      0.4499
    TRIAL :  cpu time     17.8451: real time     18.0411
    CORREC:  cpu time     17.8546: real time     17.9365
    CHARGE:  cpu time      0.1064: real time      0.1067
    --------------------------------------------
      LOOP:  cpu time     36.3745: real time     36.6544

 eigenvalue-minimisations  :     0
 total energy-change (2. order) :-0.1315995E-05  (-0.1272032E-05)
 number of electron     306.0000071 magnetization 
 augmentation part       47.9687789 magnetization 

 Free energy of the ion-electron system (eV)
  ---------------------------------------------------
  alpha Z        PSCENC =       346.31287096
  Ewald energy   TEWEN  =     19232.08394480
  -Hartree energ DENC   =    -46971.86341305
  -exchange      EXHF   =      4365.13909775
  -V(xc)+E(xc)   XCENC  =         0.00000000
  PAW double counting   =     31467.69162373   -31691.18500340
  entropy T*S    EENTRO =        -0.00000000
  eigenvalues    EBANDS =     -8290.86299360
  atomic energy  EATOM  =     30700.14502859
  ---------------------------------------------------
  free energy    TOTEN  =      -842.53884423 eV

  energy without entropy =     -842.53884423  energy(sigma->0) =     -842.53884423
  exchange ACFDT corr.  =         0.00000000  see jH, gK, PRB 81, 115126


--------------------------------------------------------------------------------------------------------




--------------------------------------- Iteration      1( 140)  ---------------------------------------


    POTLOK:  cpu time      0.1167: real time      0.1169
    SETDIJ:  cpu time      0.4473: real time      0.4487
    TRIAL :  cpu time     17.6541: real time     17.7427
    CORREC:  cpu time     17.6522: real time     17.7334
    CHARGE:  cpu time      0.1062: real time      0.1067
    --------------------------------------------
      LOOP:  cpu time     35.9792: real time     36.1511

 eigenvalue-minimisations  :     0
 total energy-change (2. order) :-0.1271917E-05  (-0.1297844E-05)
 number of electron     306.0000071 magnetization 
 augmentation part       47.9688061 magnetization 

 Free energy of the ion-electron system (eV)
  ---------------------------------------------------
  alpha Z        PSCENC =       346.31287096
  Ewald energy   TEWEN  =     19232.08394480
  -Hartree energ DENC   =    -46971.86763550
  -exchange      EXHF   =      4365.13899355
  -V(xc)+E(xc)   XCENC  =         0.00000000
  PAW double counting   =     31467.69623337   -31691.18978668
  entropy T*S    EENTRO =        -0.00000000
  eigenvalues    EBANDS =     -8290.85849459
  atomic energy  EATOM  =     30700.14502859
  ---------------------------------------------------
  free energy    TOTEN  =      -842.53884551 eV

  energy without entropy =     -842.53884551  energy(sigma->0) =     -842.53884551
  exchange ACFDT corr.  =         0.00000000  see jH, gK, PRB 81, 115126


--------------------------------------------------------------------------------------------------------




--------------------------------------- Iteration      1( 141)  ---------------------------------------


    POTLOK:  cpu time      0.1152: real time      0.1155
    SETDIJ:  cpu time      0.4493: real time      0.4508
    TRIAL :  cpu time     17.8219: real time     18.1483
    CORREC:  cpu time     18.0897: real time     18.2173
    CHARGE:  cpu time      0.1079: real time      0.1082
    --------------------------------------------
      LOOP:  cpu time     36.5866: real time     37.0427

 eigenvalue-minimisations  :     0
 total energy-change (2. order) :-0.1297791E-05  (-0.1066838E-05)
 number of electron     306.0000071 magnetization 
 augmentation part       47.9688061 magnetization 

 Free energy of the ion-electron system (eV)
  ---------------------------------------------------
  alpha Z        PSCENC =       346.31287096
  Ewald energy   TEWEN  =     19232.08394480
  -Hartree energ DENC   =    -46971.87520377
  -exchange      EXHF   =      4365.13906016
  -V(xc)+E(xc)   XCENC  =         0.00000000
  PAW double counting   =     31467.70388925   -31691.19804069
  entropy T*S    EENTRO =        -0.00000000
  eigenvalues    EBANDS =     -8290.85039609
  atomic energy  EATOM  =     30700.14502859
  ---------------------------------------------------
  free energy    TOTEN  =      -842.53884680 eV

  energy without entropy =     -842.53884680  energy(sigma->0) =     -842.53884680
  exchange ACFDT corr.  =         0.00000000  see jH, gK, PRB 81, 115126


--------------------------------------------------------------------------------------------------------




--------------------------------------- Iteration      1( 142)  ---------------------------------------


    POTLOK:  cpu time      0.1144: real time      0.1147
    SETDIJ:  cpu time      0.4463: real time      0.4478
    TRIAL :  cpu time     17.6781: real time     17.7633
    CORREC:  cpu time     17.7275: real time     17.9919
    CHARGE:  cpu time      0.1071: real time      0.1074
    --------------------------------------------
      LOOP:  cpu time     36.0760: real time     36.4277

 eigenvalue-minimisations  :     0
 total energy-change (2. order) :-0.1066794E-05  (-0.1082788E-05)
 number of electron     306.0000071 magnetization 
 augmentation part       47.9687853 magnetization 

 Free energy of the ion-electron system (eV)
  ---------------------------------------------------
  alpha Z        PSCENC =       346.31287096
  Ewald energy   TEWEN  =     19232.08394480
  -Hartree energ DENC   =    -46971.87727374
  -exchange      EXHF   =      4365.13891171
  -V(xc)+E(xc)   XCENC  =         0.00000000
  PAW double counting   =     31467.70617863   -31691.20028429
  entropy T*S    EENTRO =        -0.00000000
  eigenvalues    EBANDS =     -8290.84822453
  atomic energy  EATOM  =     30700.14502859
  ---------------------------------------------------
  free energy    TOTEN  =      -842.53884787 eV

  energy without entropy =     -842.53884787  energy(sigma->0) =     -842.53884787
  exchange ACFDT corr.  =         0.00000000  see jH, gK, PRB 81, 115126


--------------------------------------------------------------------------------------------------------




--------------------------------------- Iteration      1( 143)  ---------------------------------------


    POTLOK:  cpu time      0.1150: real time      0.1153
    SETDIJ:  cpu time      0.4482: real time      0.4493
    TRIAL :  cpu time     17.6217: real time     17.6957
    CORREC:  cpu time     17.7262: real time     17.8297
    CHARGE:  cpu time      0.1099: real time      0.1102
    --------------------------------------------
      LOOP:  cpu time     36.0238: real time     36.2030

 eigenvalue-minimisations  :     0
 total energy-change (2. order) :-0.1082750E-05  (-0.8904780E-06)
 number of electron     306.0000071 magnetization 
 augmentation part       47.9687763 magnetization 

 Free energy of the ion-electron system (eV)
  ---------------------------------------------------
  alpha Z        PSCENC =       346.31287096
  Ewald energy   TEWEN  =     19232.08394480
  -Hartree energ DENC   =    -46971.87552045
  -exchange      EXHF   =      4365.13856167
  -V(xc)+E(xc)   XCENC  =         0.00000000
  PAW double counting   =     31467.70438505   -31691.19798570
  entropy T*S    EENTRO =        -0.00000000
  eigenvalues    EBANDS =     -8290.85013387
  atomic energy  EATOM  =     30700.14502859
  ---------------------------------------------------
  free energy    TOTEN  =      -842.53884895 eV

  energy without entropy =     -842.53884895  energy(sigma->0) =     -842.53884895
  exchange ACFDT corr.  =         0.00000000  see jH, gK, PRB 81, 115126


--------------------------------------------------------------------------------------------------------




--------------------------------------- Iteration      1( 144)  ---------------------------------------


    POTLOK:  cpu time      0.1181: real time      0.1186
    SETDIJ:  cpu time      0.4455: real time      0.4468
    TRIAL :  cpu time     17.5438: real time     17.8617
    CORREC:  cpu time     17.9397: real time     17.9966
    EDDIAG:  cpu time     17.3658: real time     17.4778
    CHARGE:  cpu time      0.1069: real time      0.1071
    --------------------------------------------
      LOOP:  cpu time     53.5221: real time     54.0108

 eigenvalue-minimisations  :     0
 total energy-change (2. order) :-0.8904062E-06  (-0.7952518E-06)
 number of electron     306.0000071 magnetization 
 augmentation part       47.9687691 magnetization 

 Free energy of the ion-electron system (eV)
  ---------------------------------------------------
  alpha Z        PSCENC =       346.31287096
  Ewald energy   TEWEN  =     19232.08394480
  -Hartree energ DENC   =    -46971.87450386
  -exchange      EXHF   =      4365.13813401
  -V(xc)+E(xc)   XCENC  =         0.00000000
  PAW double counting   =     31467.70360034   -31691.19700788
  entropy T*S    EENTRO =        -0.00000000
  eigenvalues    EBANDS =     -8290.85107205
  atomic energy  EATOM  =     30700.14502859
  ---------------------------------------------------
  free energy    TOTEN  =      -842.53884984 eV

  energy without entropy =     -842.53884984  energy(sigma->0) =     -842.53884984
  exchange ACFDT corr.  =         0.00000000  see jH, gK, PRB 81, 115126


--------------------------------------------------------------------------------------------------------


  average scaling for gradient   0.1005


 average (electrostatic) potential at core
  the test charge radii are     0.6991  0.5883  0.7215  0.8933
  (the norm of the test charge is              1.0000)
       1 -40.8652       2 -39.5890       3 -40.8543       4 -39.5999       5 -43.4256
       6 -39.0860       7 -39.0735       8 -43.4273       9 -39.0793      10 -43.4340
      11 -39.5917      12 -40.8592      13 -40.8593      14 -39.5917      15 -43.4339
      16 -39.0793      17 -43.4272      18 -39.0735      19 -39.0860      20 -43.4256
      21 -39.5999      22 -40.8543      23 -39.5890      24 -40.8652      25 -19.0187
      26 -19.0263      27 -19.0113      28 -19.0113      29 -19.0262      30 -19.0186
      31 -51.1375      32 -50.0693      33 -50.8277      34 -50.0577      35 -51.1355
      36 -51.1401      37 -50.0641      38 -50.8293      39 -50.8395      40 -50.8394
      41 -50.8292      42 -50.0640      43 -51.1401      44 -51.1355      45 -50.0577
      46 -50.8277      47 -50.0693      48 -51.1375      49 -57.6755      50 -57.6824
      51 -57.6749      52 -57.6749      53 -57.6824      54 -57.6755
 
 
 
 E-fermi :  -4.2882     XC(G=0):   0.0000     alpha+bet : -3.5582

 Fermi energy:        -4.2882038208

 k-point     1 :       0.0000    0.0000    0.0000
  band No.  band energies     occupation 
      1    -112.0351      2.00000
      2    -112.0349      2.00000
      3    -112.0285      2.00000
      4    -112.0284      2.00000
      5    -112.0277      2.00000
      6    -112.0268      2.00000
      7     -71.5347      2.00000
      8     -71.5316      2.00000
      9     -71.5274      2.00000
     10     -71.5264      2.00000
     11     -71.5224      2.00000
     12     -71.5210      2.00000
     13     -71.4154      2.00000
     14     -71.4115      2.00000
     15     -71.4048      2.00000
     16     -71.4046      2.00000
     17     -71.4027      2.00000
     18     -71.3991      2.00000
     19     -71.3916      2.00000
     20     -71.3896      2.00000
     21     -71.3839      2.00000
     22     -71.3822      2.00000
     23     -71.3744      2.00000
     24     -71.3716      2.00000
     25     -36.6156      2.00000
     26     -36.6066      2.00000
     27     -36.4664      2.00000
     28     -36.4608      2.00000
     29     -36.4596      2.00000
     30     -36.4539      2.00000
     31     -33.8397      2.00000
     32     -33.8257      2.00000
     33     -33.7493      2.00000
     34     -33.7447      2.00000
     35     -33.7237      2.00000
     36     -33.7214      2.00000
     37     -33.5550      2.00000
     38     -33.5544      2.00000
     39     -33.5182      2.00000
     40     -33.4994      2.00000
     41     -33.4962      2.00000
     42     -33.4594      2.00000
     43     -28.3615      2.00000
     44     -28.3059      2.00000
     45     -28.3004      2.00000
     46     -25.9393      2.00000
     47     -25.8948      2.00000
     48     -25.8901      2.00000
     49     -24.1001      2.00000
     50     -23.9889      2.00000
     51     -23.9833      2.00000
     52     -22.2011      2.00000
     53     -22.1745      2.00000
     54     -22.1704      2.00000
     55     -19.5664      2.00000
     56     -19.5382      2.00000
     57     -19.5304      2.00000
     58     -19.5160      2.00000
     59     -19.3384      2.00000
     60     -19.3303      2.00000
     61     -18.7310      2.00000
     62     -18.1094      2.00000
     63     -18.1053      2.00000
     64     -16.9119      2.00000
     65     -16.9101      2.00000
     66     -16.7783      2.00000
     67     -16.7709      2.00000
     68     -16.6935      2.00000
     69     -16.6544      2.00000
     70     -16.2665      2.00000
     71     -16.2619      2.00000
     72     -16.2564      2.00000
     73     -16.0303      2.00000
     74     -16.0276      2.00000
     75     -15.6956      2.00000
     76     -15.2345      2.00000
     77     -15.1995      2.00000
     78     -15.1905      2.00000
     79     -14.9612      2.00000
     80     -14.9479      2.00000
     81     -14.9308      2.00000
     82     -14.5750      2.00000
     83     -14.5698      2.00000
     84     -14.2737      2.00000
     85     -14.2663      2.00000
     86     -14.1740      2.00000
     87     -14.0597      2.00000
     88     -13.6470      2.00000
     89     -13.6394      2.00000
     90     -13.5042      2.00000
     91     -13.3551      2.00000
     92     -13.2759      2.00000
     93     -13.2703      2.00000
     94     -13.1948      2.00000
     95     -13.0618      2.00000
     96     -13.0565      2.00000
     97     -13.0424      2.00000
     98     -13.0070      2.00000
     99     -12.9992      2.00000
    100     -12.8560      2.00000
    101     -12.8414      2.00000
    102     -12.3995      2.00000
    103     -12.3897      2.00000
    104     -12.3158      2.00000
    105     -12.1325      2.00000
    106     -12.0520      2.00000
    107     -12.0467      2.00000
    108     -12.0452      2.00000
    109     -12.0308      2.00000
    110     -12.0254      2.00000
    111     -11.9106      2.00000
    112     -11.8301      2.00000
    113     -11.8185      2.00000
    114     -11.7975      2.00000
    115     -11.6633      2.00000
    116     -11.6499      2.00000
    117     -11.5778      2.00000
    118     -11.5677      2.00000
    119     -11.3956      2.00000
    120     -11.3386      2.00000
    121     -10.9670      2.00000
    122     -10.9631      2.00000
    123     -10.9614      2.00000
    124     -10.8914      2.00000
    125     -10.8853      2.00000
    126     -10.8829      2.00000
    127     -10.6635      2.00000
    128     -10.6420      2.00000
    129     -10.4457      2.00000
    130     -10.4434      2.00000
    131     -10.4371      2.00000
    132     -10.4347      2.00000
    133      -9.9213      2.00000
    134      -9.9140      2.00000
    135      -9.8340      2.00000
    136      -9.8273      2.00000
    137      -9.7892      2.00000
    138      -9.7835      2.00000
    139      -9.7466      2.00000
    140      -9.6858      2.00000
    141      -9.5021      2.00000
    142      -9.0977      2.00000
    143      -9.0940      2.00000
    144      -9.0724      2.00000
    145      -9.0146      2.00000
    146      -9.0127      2.00000
    147      -8.9462      2.00000
    148      -7.0164      2.00000
    149      -7.0110      2.00000
    150      -6.9789      2.00000
    151      -5.1603      2.00000
    152      -5.1507      2.00000
    153      -4.9704      2.00000
    154       3.3278      0.00000
    155       4.0115      0.00000
    156       4.0162      0.00000
    157       4.1714      0.00000
    158       4.2710      0.00000
    159       4.2734      0.00000
    160       4.6209      0.00000
    161       4.6258      0.00000
    162       4.6865      0.00000
    163       4.8953      0.00000
    164       6.0115      0.00000
    165       6.0180      0.00000
    166       6.0446      0.00000
    167       6.4522      0.00000
    168       6.4550      0.00000
    169       6.4595      0.00000
    170       6.4764      0.00000
    171       6.4828      0.00000
    172       6.5030      0.00000
    173       6.8550      0.00000
    174       6.9748      0.00000
    175       6.9767      0.00000
    176       7.0885      0.00000
    177       7.2439      0.00000
    178       7.2480      0.00000
    179       7.2544      0.00000
    180       7.2643      0.00000
    181       7.4348      0.00000
    182       7.4515      0.00000
    183       7.5410      0.00000
    184       7.5436      0.00000
    185       7.6853      0.00000
    186       7.6886      0.00000
    187       7.7300      0.00000
    188       7.9790      0.00000
    189       7.9909      0.00000
    190       7.9955      0.00000
    191       8.0045      0.00000
    192       8.0197      0.00000
    193       8.3983      0.00000
    194       8.7211      0.00000
    195       8.7278      0.00000
    196       8.7370      0.00000
    197       8.7421      0.00000
    198       8.7521      0.00000
    199       8.8535      0.00000
    200       9.0856      0.00000


--------------------------------------------------------------------------------------------------------


 soft charge-density along one line, spin component           1
         0         1         2         3         4         5         6         7         8         9
 total charge-density along one line
 
 pseudopotential strength for first ion, spin component:           1
  9.125 -13.895   0.007   0.002  -0.007   0.032   0.010  -0.034
-13.895  23.926  -0.008  -0.002   0.009  -0.062  -0.019   0.066
  0.007  -0.008  -3.488   0.004  -0.002  -0.997  -0.015   0.007
  0.002  -0.002   0.004  -3.477   0.010  -0.015  -1.045  -0.039
 -0.007   0.009  -0.002   0.010  -3.480   0.007  -0.039  -1.031
  0.032  -0.062  -0.997  -0.015   0.007  52.139   0.039  -0.024
  0.010  -0.019  -0.015  -1.045  -0.039   0.039  52.241   0.084
 -0.034   0.066   0.007  -0.039  -1.031  -0.024   0.084  52.214
 total augmentation occupancy for first ion, spin component:           1
  1.585   0.052  -0.084  -0.020   0.095  -0.004  -0.000   0.004
  0.052   0.002   0.000  -0.000  -0.000   0.000   0.000  -0.000
 -0.084   0.000   1.068   0.125  -0.106   0.074   0.015  -0.015
 -0.020  -0.000   0.125   1.289   0.191   0.015   0.086   0.012
  0.095  -0.000  -0.106   0.191   1.244  -0.015   0.012   0.086
 -0.004   0.000   0.074   0.015  -0.015   0.006   0.002  -0.002
 -0.000   0.000   0.015   0.086   0.012   0.002   0.006   0.001
  0.004  -0.000  -0.015   0.012   0.086  -0.002   0.001   0.006


------------------------ aborting loop because EDIFF is reached ----------------------------------------





 total charge

# of ion       s       p       d       f       tot
--------------------------------------------------
    1        0.816   1.649   0.000   0.000   2.465
    2        0.829   1.753   0.000   0.000   2.582
    3        0.816   1.649   0.000   0.000   2.465
    4        0.829   1.753   0.000   0.000   2.581
    5        0.826   1.572   0.000   0.000   2.398
    6        0.839   1.745   0.000   0.000   2.584
    7        0.839   1.745   0.000   0.000   2.584
    8        0.826   1.572   0.000   0.000   2.397
    9        0.839   1.745   0.000   0.000   2.584
   10        0.826   1.572   0.000   0.000   2.397
   11        0.829   1.753   0.000   0.000   2.582
   12        0.816   1.649   0.000   0.000   2.465
   13        0.816   1.649   0.000   0.000   2.465
   14        0.829   1.753   0.000   0.000   2.582
   15        0.826   1.572   0.000   0.000   2.397
   16        0.839   1.745   0.000   0.000   2.584
   17        0.826   1.572   0.000   0.000   2.397
   18        0.839   1.745   0.000   0.000   2.584
   19        0.839   1.745   0.000   0.000   2.584
   20        0.826   1.572   0.000   0.000   2.398
   21        0.829   1.753   0.000   0.000   2.581
   22        0.816   1.649   0.000   0.000   2.465
   23        0.829   1.753   0.000   0.000   2.582
   24        0.816   1.649   0.000   0.000   2.465
   25        0.675   0.048   0.001   0.000   0.723
   26        0.675   0.048   0.001   0.000   0.723
   27        0.675   0.048   0.001   0.000   0.723
   28        0.675   0.048   0.001   0.000   0.723
   29        0.675   0.048   0.001   0.000   0.723
   30        0.675   0.048   0.001   0.000   0.723
   31        1.576   3.756   0.000   0.000   5.332
   32        1.561   3.732   0.000   0.000   5.293
   33        1.589   3.704   0.000   0.000   5.293
   34        1.561   3.731   0.000   0.000   5.292
   35        1.576   3.756   0.000   0.000   5.332
   36        1.576   3.756   0.000   0.000   5.331
   37        1.561   3.731   0.000   0.000   5.292
   38        1.589   3.704   0.000   0.000   5.293
   39        1.589   3.703   0.000   0.000   5.293
   40        1.589   3.703   0.000   0.000   5.293
   41        1.589   3.704   0.000   0.000   5.293
   42        1.561   3.731   0.000   0.000   5.292
   43        1.576   3.756   0.000   0.000   5.331
   44        1.576   3.756   0.000   0.000   5.332
   45        1.561   3.731   0.000   0.000   5.292
   46        1.589   3.704   0.000   0.000   5.293
   47        1.561   3.732   0.000   0.000   5.293
   48        1.576   3.756   0.000   0.000   5.332
   49        2.067   6.229   5.728   0.017  14.040
   50        2.067   6.229   5.727   0.017  14.039
   51        2.067   6.230   5.727   0.017  14.041
   52        2.067   6.230   5.727   0.017  14.041
   53        2.067   6.229   5.727   0.017  14.039
   54        2.067   6.229   5.728   0.017  14.040
--------------------------------------------------
tot         64.660 145.119  34.368   0.100 244.247
 
    FORLOC:  cpu time      0.0358: real time      0.0359
    FORHF :  cpu time     10.7876: real time     10.8245
    FORNL :  cpu time      0.2377: real time      0.2384
    FORCOR:  cpu time      0.5319: real time      0.5338
    OFIELD:  cpu time      0.0010: real time      0.0010

 VOLUME and BASIS-vectors are now :
 -----------------------------------------------------------------------------
  energy-cutoff  :      320.00
  volume of cell :     1403.01
      direct lattice vectors                 reciprocal lattice vectors
    15.439217752  0.004465832 -0.038376892     0.065085042  0.034326685  0.130688713
    -7.186282924 13.630928377 -0.001416099     0.000303919  0.073536393  0.130825479
    -7.182834812-11.890639092  6.700359279     0.000372844  0.000212151  0.150021909

  length of vectors
    15.439266094 15.409246337 15.423204220     0.149979744  0.150076646  0.150022522


 FORCES acting on ions:
    Electron-Ion                     Ewald-Force                    Non-Local-Force
 -----------------------------------------------------------------------------------------------
   -.190E+03 0.709E+02 0.246E+02   0.193E+03 -.743E+02 -.259E+02   -.325E+01 0.312E+01 0.112E+01
   -.123E+03 -.466E+02 -.637E+00   0.125E+03 0.472E+02 -.164E+01   -.872E+00 -.263E+00 0.100E+01
   0.150E+03 0.130E+03 -.452E+02   -.155E+03 -.132E+03 0.448E+02   0.429E+01 0.170E+01 0.281E+00
   0.923E+02 -.910E+02 -.237E+02   -.944E+02 0.917E+02 0.220E+02   0.103E+01 -.439E+00 0.754E+00
   -.259E+03 -.772E+02 0.108E+03   0.263E+03 0.787E+02 -.111E+03   -.368E+01 -.201E+01 0.443E+01
   -.747E+02 -.805E+02 -.675E+02   0.749E+02 0.824E+02 0.693E+02   -.270E+00 -.165E+01 -.169E+01
   -.370E+02 0.581E+02 -.110E+03   0.385E+02 -.582E+02 0.112E+03   -.134E+01 0.422E-01 -.196E+01
   -.518E+02 -.284E+03 0.360E+02   0.520E+02 0.289E+03 -.354E+02   0.254E-01 -.585E+01 -.180E+01
   -.672E+02 0.489E+02 0.985E+02   0.680E+02 -.487E+02 -.101E+03   -.665E+00 -.411E-01 0.228E+01
   0.227E+03 -.174E+03 0.562E+02   -.231E+03 0.175E+03 -.578E+02   0.519E+01 -.146E+01 0.287E+01
   -.158E+02 -.113E+03 0.649E+02   0.161E+02 0.116E+03 -.637E+02   -.184E+00 -.127E+01 -.439E+00
   -.448E+02 0.191E+03 -.557E+02   0.443E+02 -.195E+03 0.585E+02   0.457E+00 0.387E+01 -.250E+01
   0.448E+02 -.191E+03 0.557E+02   -.443E+02 0.195E+03 -.585E+02   -.457E+00 -.387E+01 0.250E+01
   0.158E+02 0.113E+03 -.649E+02   -.161E+02 -.116E+03 0.637E+02   0.185E+00 0.127E+01 0.439E+00
   -.227E+03 0.174E+03 -.562E+02   0.231E+03 -.175E+03 0.578E+02   -.519E+01 0.146E+01 -.287E+01
   0.672E+02 -.489E+02 -.985E+02   -.680E+02 0.487E+02 0.101E+03   0.665E+00 0.412E-01 -.228E+01
   0.518E+02 0.284E+03 -.360E+02   -.520E+02 -.289E+03 0.354E+02   -.255E-01 0.585E+01 0.180E+01
   0.370E+02 -.581E+02 0.110E+03   -.385E+02 0.582E+02 -.112E+03   0.134E+01 -.422E-01 0.196E+01
   0.747E+02 0.805E+02 0.675E+02   -.749E+02 -.824E+02 -.693E+02   0.270E+00 0.165E+01 0.169E+01
   0.259E+03 0.772E+02 -.108E+03   -.263E+03 -.787E+02 0.111E+03   0.368E+01 0.201E+01 -.443E+01
   -.923E+02 0.910E+02 0.237E+02   0.944E+02 -.917E+02 -.220E+02   -.103E+01 0.440E+00 -.754E+00
   -.150E+03 -.130E+03 0.452E+02   0.155E+03 0.132E+03 -.448E+02   -.429E+01 -.170E+01 -.281E+00
   0.123E+03 0.466E+02 0.637E+00   -.125E+03 -.472E+02 0.164E+01   0.872E+00 0.263E+00 -.100E+01
   0.190E+03 -.709E+02 -.246E+02   -.193E+03 0.743E+02 0.259E+02   0.325E+01 -.312E+01 -.112E+01
   -.362E+02 0.178E+02 0.567E+02   0.367E+02 -.186E+02 -.624E+02   -.450E+00 0.805E+00 0.545E+01
   -.326E+02 -.485E+02 -.376E+02   0.336E+02 0.514E+02 0.425E+02   -.922E+00 -.270E+01 -.474E+01
   -.281E+02 0.270E+02 -.580E+02   0.302E+02 -.265E+02 0.634E+02   -.198E+01 -.499E+00 -.514E+01
   0.281E+02 -.270E+02 0.580E+02   -.302E+02 0.265E+02 -.634E+02   0.198E+01 0.499E+00 0.514E+01
   0.326E+02 0.485E+02 0.376E+02   -.336E+02 -.514E+02 -.425E+02   0.922E+00 0.270E+01 0.474E+01
   0.362E+02 -.178E+02 -.567E+02   -.367E+02 0.186E+02 0.624E+02   0.450E+00 -.805E+00 -.545E+01
   -.276E+03 -.104E+03 0.622E+02   0.242E+03 0.901E+02 -.672E+02   0.208E+02 0.822E+01 0.310E+01
   -.487E+03 0.326E+02 0.261E+02   0.472E+03 -.732E+01 -.129E+02   0.868E+01 -.142E+02 -.733E+01
   -.242E+03 -.447E+03 0.210E+03   0.250E+03 0.454E+03 -.256E+03   -.515E+01 -.347E+01 0.280E+02
   0.250E+03 0.382E+03 -.189E+03   -.221E+03 -.375E+03 0.200E+03   -.168E+02 -.410E+01 -.609E+01
   -.263E+02 -.285E+03 0.923E+02   0.217E+02 0.256E+03 -.704E+02   0.282E+01 0.178E+02 -.134E+02
   0.240E+03 -.185E+03 -.315E+01   -.216E+03 0.158E+03 -.740E+01   -.144E+02 0.159E+02 0.646E+01
   -.219E+03 0.440E+03 -.345E+02   0.226E+03 -.419E+03 0.103E+02   -.406E+01 -.117E+02 0.135E+02
   -.546E+03 -.208E+02 0.380E+02   0.575E+03 0.271E+02 -.185E+01   -.172E+02 -.358E+01 -.227E+02
   -.283E+03 0.470E+03 -.221E+02   0.285E+03 -.502E+03 -.124E+02   -.666E+00 0.191E+02 0.215E+02
   0.283E+03 -.470E+03 0.221E+02   -.285E+03 0.502E+03 0.124E+02   0.666E+00 -.191E+02 -.215E+02
   0.546E+03 0.208E+02 -.380E+02   -.575E+03 -.271E+02 0.185E+01   0.172E+02 0.358E+01 0.227E+02
   0.219E+03 -.440E+03 0.345E+02   -.226E+03 0.419E+03 -.103E+02   0.406E+01 0.117E+02 -.135E+02
   -.240E+03 0.185E+03 0.315E+01   0.216E+03 -.158E+03 0.740E+01   0.144E+02 -.159E+02 -.645E+01
   0.263E+02 0.285E+03 -.923E+02   -.217E+02 -.256E+03 0.704E+02   -.282E+01 -.178E+02 0.134E+02
   -.250E+03 -.382E+03 0.189E+03   0.221E+03 0.375E+03 -.200E+03   0.168E+02 0.410E+01 0.609E+01
   0.242E+03 0.447E+03 -.210E+03   -.250E+03 -.454E+03 0.256E+03   0.515E+01 0.347E+01 -.280E+02
   0.487E+03 -.326E+02 -.261E+02   -.472E+03 0.732E+01 0.129E+02   -.868E+01 0.142E+02 0.733E+01
   0.276E+03 0.104E+03 -.622E+02   -.242E+03 -.901E+02 0.672E+02   -.208E+02 -.822E+01 -.310E+01
   0.664E+03 0.727E+03 -.328E+03   -.660E+03 -.722E+03 0.325E+03   -.519E+01 0.565E+01 0.866E+01
   -.101E+04 0.216E+03 0.730E+02   0.100E+04 -.215E+03 -.737E+02   0.206E+01 -.476E+01 0.105E+02
   0.334E+03 -.971E+03 0.170E+03   -.332E+03 0.965E+03 -.170E+03   0.745E+01 0.597E+01 0.696E+01
   -.334E+03 0.971E+03 -.170E+03   0.332E+03 -.965E+03 0.170E+03   -.744E+01 -.597E+01 -.696E+01
   0.101E+04 -.216E+03 -.730E+02   -.100E+04 0.215E+03 0.737E+02   -.205E+01 0.477E+01 -.105E+02
   -.664E+03 -.727E+03 0.328E+03   0.660E+03 0.722E+03 -.325E+03   0.520E+01 -.564E+01 -.865E+01
 -----------------------------------------------------------------------------------------------
   -.275E-02 -.289E-03 0.246E-03   0.000E+00 -.341E-12 0.114E-12   0.208E-01 0.943E-02 0.122E-01
 
 
 POSITION                                       TOTAL-FORCE (eV/Angst)
 -----------------------------------------------------------------------------------
     -4.52388     -4.95096      3.79931        -0.300938      0.050442     -0.265244
     -4.37821      6.43769      1.10882         0.127509      0.105904     -0.866293
     -2.27140      7.33612      0.20906         0.175384      0.067975     -0.337077
     -2.44692     -6.22910      4.12534        -0.521814     -0.116100     -0.698748
     -5.11592      6.03086      2.33290        -0.407170     -0.392832      1.092575
     -3.37431     -5.26237      4.53352         0.013944     -0.028829     -0.006210
     -3.08474      6.94685      1.27881        -0.030674     -0.005500     -0.005966
     -6.67312     -0.89799      5.49428         0.168107     -1.050699     -0.676676
     -6.53791      1.55649      5.31338        -0.006412     -0.007379      0.020685
     -1.25474     -6.43703      4.98854         0.999411     -0.005707      0.723780
     -6.68409      0.43821      6.14372        -0.033839      0.569020      0.677758
     -6.50125      2.86783      5.80002         0.019244      0.313277      0.227424
      7.57135     -1.12308      0.86055        -0.019094     -0.313485     -0.227380
      7.75419      1.30655      0.51685         0.033941     -0.568800     -0.677609
      2.32484      8.18178      1.67203        -0.999229      0.005662     -0.723724
      7.60801      0.18827      1.34718         0.006365      0.007584     -0.020525
      7.74322      2.64274      1.16629        -0.168130      1.050947      0.676903
      4.15484     -5.20209      5.38176         0.030775      0.005533      0.006074
      4.44441      7.00712      2.12704        -0.013881      0.028809      0.005880
      6.18602     -4.28611      4.32766         0.407257      0.392802     -1.092601
      3.51702      7.97385      2.53523         0.521763      0.116270      0.698898
      3.34150     -5.59137      6.45151        -0.175506     -0.067862      0.336979
      5.44831     -4.69294      5.55174        -0.127515     -0.105900      0.866340
      5.59398      6.69571      2.86125         0.300816     -0.050225      0.265092
     -6.44726      1.39877      4.23973         0.019091      0.077818      0.218178
     -3.19258     -4.72839      5.46491        -0.063993     -0.059647     -0.212154
     -2.69330      7.04306      2.29033        -0.022597     -0.033082     -0.226738
      3.76340     -5.29830      4.37024         0.022585      0.033183      0.226773
      4.26268      6.47315      1.19565         0.064009      0.059749      0.212221
      7.51736      0.34598      2.42084        -0.019083     -0.077720     -0.218126
     -6.31841      5.58472      2.19568         0.601525      0.146723      0.296783
     -5.36548     -4.00543      4.28416         0.274442      0.058362      0.177569
     -6.48288     -1.00634      4.24024        -0.354995     -0.309205      1.671795
     -1.03477      7.82012      0.48250        -0.088689     -0.069208      0.312623
     -6.85236     -1.93768      6.23784         0.207369      0.388022     -0.551916
     -0.41602     -7.36024      4.65396        -0.266329      0.597107      0.326801
     -6.36144      3.88288      4.91321         0.049976     -0.232233     -0.221994
     -4.56624      6.11546      3.47828        -1.136093     -0.235706     -1.310452
      2.14039      7.46364      0.63844        -0.130061      1.198519      1.216357
     -1.07029     -5.71889      6.02213         0.129747     -1.198093     -1.216068
      5.63634     -4.37071      3.18228         1.135872      0.235683      1.310419
      7.43154     -2.13813      1.74735        -0.049392      0.232114      0.222484
      1.48612      9.10500      2.00661         0.266846     -0.597709     -0.326512
      7.92246      3.68243      0.42272        -0.207373     -0.387746      0.551813
      2.10487     -6.07537      6.17806         0.088596      0.069600     -0.312975
      7.55298      2.75109      2.42033         0.354366      0.309573     -1.672061
      6.43558      5.75019      2.37641        -0.273747     -0.058638     -0.176607
      7.38851     -3.83997      4.46489        -0.601511     -0.146816     -0.297355
     -7.67594      4.55003      3.44770        -0.175217      0.678852      0.440561
      1.56621     -7.84999      5.22512        -0.233198     -0.285836      0.761923
      7.62424      5.76929      0.68183         0.685289      0.058337      0.491428
     -6.55414     -4.02454      5.97873        -0.686599     -0.059003     -0.490343
     -0.49611      9.59474      1.43544         0.233767      0.284049     -0.762593
      8.74604     -2.80527      3.21286         0.175081     -0.677956     -0.442169
 -----------------------------------------------------------------------------------
    total drift:                               -0.000366     -0.002228     -0.001212


--------------------------------------------------------------------------------------------------------



  FREE ENERGIE OF THE ION-ELECTRON SYSTEM (eV)
  ---------------------------------------------------
  free  energy   TOTEN  =      -842.53884984 eV

  energy  without entropy=     -842.53884984  energy(sigma->0) =     -842.53884984
 


--------------------------------------------------------------------------------------------------------


    POTLOK:  cpu time      0.5722: real time      0.5736


--------------------------------------------------------------------------------------------------------


 writing wavefunctions
     LOOP+:  cpu time   5083.1642: real time   5140.9384
    4ORBIT:  cpu time      0.0000: real time      0.0000



 total charge

# of ion       s       p       d       f       tot
--------------------------------------------------
    1        0.816   1.649   0.000   0.000   2.465
    2        0.829   1.753   0.000   0.000   2.582
    3        0.816   1.649   0.000   0.000   2.465
    4        0.829   1.753   0.000   0.000   2.581
    5        0.826   1.572   0.000   0.000   2.398
    6        0.839   1.745   0.000   0.000   2.584
    7        0.839   1.745   0.000   0.000   2.584
    8        0.826   1.572   0.000   0.000   2.397
    9        0.839   1.745   0.000   0.000   2.584
   10        0.826   1.572   0.000   0.000   2.397
   11        0.829   1.753   0.000   0.000   2.582
   12        0.816   1.649   0.000   0.000   2.465
   13        0.816   1.649   0.000   0.000   2.465
   14        0.829   1.753   0.000   0.000   2.582
   15        0.826   1.572   0.000   0.000   2.397
   16        0.839   1.745   0.000   0.000   2.584
   17        0.826   1.572   0.000   0.000   2.397
   18        0.839   1.745   0.000   0.000   2.584
   19        0.839   1.745   0.000   0.000   2.584
   20        0.826   1.572   0.000   0.000   2.398
   21        0.829   1.753   0.000   0.000   2.581
   22        0.816   1.649   0.000   0.000   2.465
   23        0.829   1.753   0.000   0.000   2.582
   24        0.816   1.649   0.000   0.000   2.465
   25        0.675   0.048   0.001   0.000   0.723
   26        0.675   0.048   0.001   0.000   0.723
   27        0.675   0.048   0.001   0.000   0.723
   28        0.675   0.048   0.001   0.000   0.723
   29        0.675   0.048   0.001   0.000   0.723
   30        0.675   0.048   0.001   0.000   0.723
   31        1.576   3.756   0.000   0.000   5.332
   32        1.561   3.732   0.000   0.000   5.293
   33        1.589   3.704   0.000   0.000   5.293
   34        1.561   3.731   0.000   0.000   5.292
   35        1.576   3.756   0.000   0.000   5.332
   36        1.576   3.756   0.000   0.000   5.331
   37        1.561   3.731   0.000   0.000   5.292
   38        1.589   3.704   0.000   0.000   5.293
   39        1.589   3.703   0.000   0.000   5.293
   40        1.589   3.703   0.000   0.000   5.293
   41        1.589   3.704   0.000   0.000   5.293
   42        1.561   3.731   0.000   0.000   5.292
   43        1.576   3.756   0.000   0.000   5.331
   44        1.576   3.756   0.000   0.000   5.332
   45        1.561   3.731   0.000   0.000   5.292
   46        1.589   3.704   0.000   0.000   5.293
   47        1.561   3.732   0.000   0.000   5.293
   48        1.576   3.756   0.000   0.000   5.332
   49        2.067   6.229   5.728   0.017  14.040
   50        2.067   6.229   5.727   0.017  14.039
   51        2.067   6.230   5.727   0.017  14.041
   52        2.067   6.230   5.727   0.017  14.041
   53        2.067   6.229   5.727   0.017  14.039
   54        2.067   6.229   5.728   0.017  14.040
--------------------------------------------------
tot         64.660 145.119  34.368   0.100 244.247
 

 total amount of memory used by VASP MPI-rank0   831714. kBytes
=======================================================================

   base      :      30000. kBytes
   nonl-proj :      19845. kBytes
   fftplans  :       8382. kBytes
   grid      :      41054. kBytes
   one-center:       2178. kBytes
   HF        :       1344. kBytes
   nonlr-proj:       4805. kBytes
   wavefun   :       2268. kBytes
   fock_wrk  :     721838. kBytes
 
  
  
 General timing and accounting informations for this job:
 ========================================================
  
                  Total CPU time used (sec):     5092.696
                            User time (sec):     4680.619
                          System time (sec):      412.077
                         Elapsed time (sec):     5151.444
  
                   Maximum memory used (kb):     3174204.
                   Average memory used (kb):          N/A
  
                          Minor page faults:     43438009
                          Major page faults:            2
                 Voluntary context switches:        58900
