 vasp.6.3.2 27Jun22 (build Jul 28 2023 19:28:36) gamma-only                     
  
 executed on             LinuxIFC date 2024.06.16  02:07:50
 running on   40 total cores
 distrk:  each k-point on   40 cores,    1 groups
 distr:  one band on NCORE=   1 cores,   40 groups


--------------------------------------------------------------------------------------------------------


 INCAR:
   SYSTEM = CO2
   ISTART = 0
   ICHARG = 2
   ISMEAR = 0
   SIGMA = 0.1
   ENCUT = 400.0
   ENAUG = 644.9
   PREC = Accurate
   EDIFF = 1E-5
   NELM = 500
   IBRION = -1
   NSW = 0
   ALGO = All
   TIME = 0.05
   LREAL = Auto
   LHFCALC = .TRUE.
   GGA = B3
   AEXX = 0.2
   AGGAX = 0.72
   AGGAC = 0.81
   ALDAC = 0.19
   LASPH = .TRUE.
   PRECFOCK = Normal
   IVDW = 11
   VDW_S8 = 1.703
   VDW_SR = 1.261
   LWAVE = .TRUE.
   LCHARG = .TRUE.
   NWRITE = 1

 POTCAR:    PAW_PBE C 08Apr2002                   
 POTCAR:    PAW_PBE O 08Apr2002                   
 -----------------------------------------------------------------------------
|                                                                             |
|           W    W    AA    RRRRR   N    N  II  N    N   GGGG   !!!           |
|           W    W   A  A   R    R  NN   N  II  NN   N  G    G  !!!           |
|           W    W  A    A  R    R  N N  N  II  N N  N  G       !!!           |
|           W WW W  AAAAAA  RRRRR   N  N N  II  N  N N  G  GGG   !            |
|           WW  WW  A    A  R   R   N   NN  II  N   NN  G    G                |
|           W    W  A    A  R    R  N    N  II  N    N   GGGG   !!!           |
|                                                                             |
|     For optimal performance we recommend to set                             |
|       NCORE = 2 up to number-of-cores-per-socket                            |
|     NCORE specifies how many cores store one orbital (NPAR=cpu/NCORE).      |
|     This setting can greatly improve the performance of VASP for DFT.       |
|     The default, NCORE=1 might be grossly inefficient on modern             |
|     multi-core architectures or massively parallel machines. Do your        |
|     own testing! More info at https://www.vasp.at/wiki/index.php/NCORE      |
|     Unfortunately you need to use the default for GW and RPA                |
|     calculations (for HF NCORE is supported but not extensively tested      |
|     yet).                                                                   |
|                                                                             |
 -----------------------------------------------------------------------------

 POTCAR:    PAW_PBE C 08Apr2002                   
  local pseudopotential read in
  partial core-charges read in
  partial kinetic energy density read in
  atomic valenz-charges read in
  non local Contribution for L=           0  read in
    real space projection operators read in
  non local Contribution for L=           0  read in
    real space projection operators read in
  non local Contribution for L=           1  read in
    real space projection operators read in
  non local Contribution for L=           1  read in
    real space projection operators read in
    PAW grid and wavefunctions read in
 
   number of l-projection  operators is LMAX  =           4
   number of lm-projection operators is LMMAX =           8
 
 POTCAR:    PAW_PBE O 08Apr2002                   
  local pseudopotential read in
  partial core-charges read in
  partial kinetic energy density read in
  kinetic energy density of atom read in
  atomic valenz-charges read in
  non local Contribution for L=           0  read in
    real space projection operators read in
  non local Contribution for L=           0  read in
    real space projection operators read in
  non local Contribution for L=           1  read in
    real space projection operators read in
  non local Contribution for L=           1  read in
    real space projection operators read in
    PAW grid and wavefunctions read in
 
   number of l-projection  operators is LMAX  =           4
   number of lm-projection operators is LMMAX =           8
 
 -----------------------------------------------------------------------------
|                                                                             |
|               ----> ADVICE to this user running VASP <----                  |
|                                                                             |
|     You have a (more or less) 'small supercell' and for smaller cells       |
|     it is recommended to use the reciprocal-space projection scheme!        |
|     The real-space optimization is not efficient for small cells and it     |
|     is also less accurate ...                                               |
|     Therefore, set LREAL=.FALSE. in the INCAR file.                         |
|                                                                             |
 -----------------------------------------------------------------------------

 Optimization of the real space projectors (new method)

 maximal supplied QI-value         = 25.13
 optimisation between [QCUT,QGAM] = [ 10.05, 20.36] = [ 28.30,116.06] Ry 
 Optimized for a Real-space Cutoff    1.51 Angstroem

   l    n(q)    QCUT    max X(q) W(low)/X(q) W(high)/X(q)  e(spline) 
   0      9    10.053   115.676    0.19E-03    0.21E-03    0.38E-06
   0      9    10.053    87.132    0.19E-03    0.21E-03    0.38E-06
   1      9    10.053     4.429    0.87E-04    0.11E-03    0.39E-06
   1      9    10.053     2.733    0.59E-04    0.62E-04    0.43E-06
 Optimization of the real space projectors (new method)

 maximal supplied QI-value         = 24.76
 optimisation between [QCUT,QGAM] = [ 10.15, 20.30] = [ 28.85,115.39] Ry 
 Optimized for a Real-space Cutoff    1.51 Angstroem

   l    n(q)    QCUT    max X(q) W(low)/X(q) W(high)/X(q)  e(spline) 
   0      9    10.150    20.381    0.17E-03    0.18E-03    0.41E-06
   0      9    10.150    15.268    0.18E-03    0.20E-03    0.43E-06
   1      9    10.150     5.964    0.16E-03    0.20E-03    0.36E-06
   1      9    10.150     5.382    0.13E-03    0.16E-03    0.33E-06
 -----------------------------------------------------------------------------
|                                                                             |
|               ----> ADVICE to this user running VASP <----                  |
|                                                                             |
|     You enforced a specific xc type in the INCAR file but a different       |
|     type was found in the POTCAR file.                                      |
|     I HOPE YOU KNOW WHAT YOU ARE DOING!                                     |
|                                                                             |
 -----------------------------------------------------------------------------

  PAW_PBE C 08Apr2002                   :
 energy of atom  1       EATOM= -147.1560
 kinetic energy error for atom=    0.0288 (will be added to EATOM!!)
  PAW_PBE O 08Apr2002                   :
 energy of atom  2       EATOM= -432.3788
 kinetic energy error for atom=    0.1156 (will be added to EATOM!!)
 
 
 POSCAR:  C  O
  positions in direct lattice
  No initial velocities read in
 exchange correlation table for  LEXCH =       11
   RHO(1)=    0.500       N(1)  =     2000
   RHO(2)=  100.500       N(2)  =     4000
 


--------------------------------------------------------------------------------------------------------


 ion  position               nearest neighbor table
   1  0.285  0.924  0.194-   3 1.17   2 1.18
   2  0.289  0.868  0.113-   1 1.18
   3  0.278  0.978  0.271-   1 1.17
 
  LATTYP: Found a trigonal (rhomboedric) cell.
 ALAT       =    15.2580629150
 COS(alpha) =    -0.4652854440
  
  Lattice vectors:
  
 A1 = (  15.2580133847,   0.0063748139,   0.0245793813)
 A2 = (  -7.1051429847,  13.5027912564,   0.0244990776)
 A3 = (  -7.1050972695, -11.7730711972,   6.6121759879)


Analysis of symmetry for initial positions (statically):
=====================================================================
 Subroutine PRICEL returns:
 Original cell was already a primitive cell.
 

 Routine SETGRP: Setting up the symmetry group for a 
 trigonal (rhombohedral) supercell.


 Subroutine GETGRP returns: Found  1 space group operations
 (whereof  1 operations were pure point group operations)
 out of a pool of 12 trial point group operations.


The static configuration has the point symmetry C_1 .


Analysis of symmetry for dynamics (positions and initial velocities):
=====================================================================
 Subroutine PRICEL returns:
 Original cell was already a primitive cell.
 

 Routine SETGRP: Setting up the symmetry group for a 
 trigonal (rhombohedral) supercell.


 Subroutine GETGRP returns: Found  1 space group operations
 (whereof  1 operations were pure point group operations)
 out of a pool of 12 trial point group operations.


The dynamic configuration has the point symmetry C_1 .


 Subroutine INISYM returns: Found  1 space group operations
 (whereof  1 operations are pure point group operations),
 and found     1 'primitive' translations


----------------------------------------------------------------------------------------

                                     Primitive cell                                     

  volume of cell :    1371.3921

  direct lattice vectors                    reciprocal lattice vectors
    15.258013385  0.006374814  0.024579381     0.065314117  0.034130566  0.130953070
    -7.105142985 13.502791256  0.024499078    -0.000241744  0.073693958  0.130953351
    -7.105097270-11.773071197  6.612175988    -0.000241896 -0.000399920  0.150264152

  length of vectors
    15.258034514 15.258080769 15.258062915     0.150264886  0.150265226  0.150264879

  position of ions in fractional coordinates (direct lattice)
     0.285016706  0.923921231  0.193952621
     0.289232368  0.868085903  0.113061372
     0.277903362  0.978317722  0.270697466

  ion indices of the primitive-cell ions
   primitive index   ion index
                 1           1
                 2           2
                 3           3

----------------------------------------------------------------------------------------

 
 
 KPOINTS: KPOINTS                                 

Automatic generation of k-mesh.
 Grid dimensions read from file:
 generate k-points for:    1    1    1

 Generating k-lattice:

  Cartesian coordinates                     Fractional coordinates (reciprocal lattice)
     0.065314117  0.034130566  0.130953070     1.000000000  0.000000000  0.000000000
    -0.000241744  0.073693958  0.130953351     0.000000000  1.000000000  0.000000000
    -0.000241896 -0.000399920  0.150264152     0.000000000 -0.000000000  1.000000000

  Length of vectors
     0.150264886  0.150265226  0.150264879

  Shift w.r.t. Gamma in fractional coordinates (k-lattice)
     0.000000000  0.000000000  0.000000000

 
 Subroutine IBZKPT returns following result:
 ===========================================
 
 Found      1 irreducible k-points:
 
 Following reciprocal coordinates:
            Coordinates               Weight
  0.000000  0.000000  0.000000      1.000000
 
 Following cartesian coordinates:
            Coordinates               Weight
  0.000000  0.000000  0.000000      1.000000
 
 
 Subroutine IBZKPT_HF returns following result:
 ==============================================
 
 Found      1 k-points in 1st BZ
 the following      1 k-points will be used (e.g. in the exchange kernel)
 Following reciprocal coordinates:   # in IRBZ
  0.000000  0.000000  0.000000    1.00000000   1 t-inv F


--------------------------------------------------------------------------------------------------------




 Dimension of arrays:
   k-points           NKPTS =      1   k-points in BZ     NKDIM =      1   number of bands    NBANDS=     40
   number of dos      NEDOS =    301   number of ions     NIONS =      3
   non local maximal  LDIM  =      4   non local SUM 2l+1 LMDIM =      8
   total plane-waves  NPLWV = ******
   max r-space proj   IRMAX =  10535   max aug-charges    IRDMAX=   9659
   dimension x,y,z NGX =   100 NGY =  100 NGZ =  100
   dimension x,y,z NGXF=   200 NGYF=  200 NGZF=  200
   support grid    NGXF=   200 NGYF=  200 NGZF=  200
   ions per type =               1   2
   NGX,Y,Z   is equivalent  to a cutoff of  10.90, 10.90, 10.90 a.u.
   NGXF,Y,Z  is equivalent  to a cutoff of  21.79, 21.79, 21.79 a.u.

 SYSTEM =  CO2                                     
 POSCAR =   C  O                                   

 Startparameter for this run:
   NWRITE =      1    write-flag & timer
   PREC   = accura    normal or accurate (medium, high low for compatibility)
   ISTART =      0    job   : 0-new  1-cont  2-samecut
   ICHARG =      2    charge: 1-file 2-atom 10-const
   ISPIN  =      1    spin polarized calculation?
   LNONCOLLINEAR =      F non collinear calculations
   LSORBIT =      F    spin-orbit coupling
   INIWAV =      1    electr: 0-lowe 1-rand  2-diag
   LASPH  =      T    aspherical Exc in radial PAW
 Electronic Relaxation 1
   ENCUT  =  400.0 eV  29.40 Ry    5.42 a.u.  24.88 24.88 24.88*2*pi/ulx,y,z
   ENINI  =  400.0     initial cutoff
   ENAUG  =  644.9 eV  augmentation charge cutoff
   NELM   =    500;   NELMIN=  2; NELMDL= -5     # of ELM steps 
   EDIFF  = 0.1E-04   stopping-criterion for ELM
   LREAL  =      T    real-space projection
   NLSPLINE    = F    spline interpolate recip. space projectors
   LCOMPAT=      F    compatible to vasp.4.4
   GGA_COMPAT  = T    GGA compatible to vasp.4.4-vasp.4.6
   LMAXPAW     = -100 max onsite density
   LMAXMIX     =    2 max onsite mixed and CHGCAR
   VOSKOWN=      0    Vosko Wilk Nusair interpolation
   ROPT   =   -0.00025  -0.00025
 Ionic relaxation
   EDIFFG = 0.1E-03   stopping-criterion for IOM
   NSW    =      0    number of steps for IOM
   NBLOCK =      1;   KBLOCK =      1    inner block; outer block 
   IBRION =     -1    ionic relax: 0-MD 1-quasi-New 2-CG
   NFREE  =      0    steps in history (QN), initial steepest desc. (CG)
   ISIF   =      0    stress and relaxation
   IWAVPR =     10    prediction:  0-non 1-charg 2-wave 3-comb
   ISYM   =      3    0-nonsym 1-usesym 2-fastsym
   LCORR  =      T    Harris-Foulkes like correction to forces

   POTIM  = 0.5000    time-step for ionic-motion
   TEIN   =    0.0    initial temperature
   TEBEG  =    0.0;   TEEND  =   0.0 temperature during run
   SMASS  =  -3.00    Nose mass-parameter (am)
   estimated Nose-frequenzy (Omega)   =  0.10E-29 period in steps = 0.13E+47 mass=  -0.532E-26a.u.
   SCALEE = 1.0000    scale energy and forces
   NPACO  =    256;   APACO  = 10.0  distance and # of slots for P.C.
   PSTRESS=    0.0 pullay stress

  Mass of Ions in am
   POMASS =  12.01 16.00
  Ionic Valenz
   ZVAL   =   4.00  6.00
  Atomic Wigner-Seitz radii
   RWIGS  =  -1.00 -1.00
  virtual crystal weights 
   VCA    =   1.00  1.00
   NELECT =      16.0000    total number of electrons
   NUPDOWN=      -1.0000    fix difference up-down

 DOS related values:
   EMIN   =  10.00;   EMAX   =-10.00  energy-range for DOS
   EFERMI =   0.00
   ISMEAR =     0;   SIGMA  =   0.10  broadening in eV -4-tet -1-fermi 0-gaus

 Electronic relaxation 2 (details)
   IALGO  =     58    algorithm
   LDIAG  =      T    sub-space diagonalisation (order eigenvalues)
   LSUBROT=      F    optimize rotation matrix (better conditioning)
   TURBO    =      0    0=normal 1=particle mesh
   IRESTART =      0    0=no restart 2=restart with 2 vectors
   NREBOOT  =      0    no. of reboots
   NMIN     =      0    reboot dimension
   EREF     =   0.00    reference energy to select bands
   IMIX   =      4    mixing-type and parameters
     AMIX     =   0.40;   BMIX     =  1.00
     AMIX_MAG =   1.60;   BMIX_MAG =  1.00
     AMIN     =   0.10
     WC   =   100.;   INIMIX=   1;  MIXPRE=   1;  MAXMIX= -45

 Intra band minimization:
   WEIMIN = 0.0000     energy-eigenvalue tresh-hold
   EBREAK =  0.63E-07  absolut break condition
   DEPER  =   0.30     relativ break condition  

   TIME   =   0.05     timestep for ELM

  volume/ion in A,a.u.               =     457.13      3084.87
  Fermi-wavevector in a.u.,A,eV,Ry     =   0.371302  0.701660  1.875772  0.137865
  Thomas-Fermi vector in A             =   1.299325
 
 Write flags
   LWAVE        =      T    write WAVECAR
   LDOWNSAMPLE  =      F    k-point downsampling of WAVECAR
   LCHARG       =      T    write CHGCAR
   LVTOT        =      F    write LOCPOT, total local potential
   LVHAR        =      F    write LOCPOT, Hartree potential only
   LELF         =      F    write electronic localiz. function (ELF)
   LORBIT       =      0    0 simple, 1 ext, 2 COOP (PROOUT), +10 PAW based schemes


 Dipole corrections
   LMONO  =      F    monopole corrections only (constant potential shift)
   LDIPOL =      F    correct potential (dipole corrections)
   IDIPOL =      0    1-x, 2-y, 3-z, 4-all directions 
   EPSILON=  1.0000000 bulk dielectric constant

 Exchange correlation treatment:
   GGA     =    B3    GGA type
   LEXCH   =    11    internal setting for exchange type
   LIBXC   =     F    Libxc                    
   VOSKOWN =     0    Vosko Wilk Nusair interpolation
   EXXOEP  =     0    0=HF, 1=EXX-LHF (local Hartree Fock) 2=EXX OEP
   LHFCALC =     T    Hartree Fock is set to
   LSYMGRAD=     F    symmetrize gradient (conserves proper symmetry)
   PRECFOCK=normal    Normal, Fast or Accurate (Low or Medium for compatibility)
   LRHFCALC=     F    long range Hartree Fock
   LRSCOR  =     F    long range correlation only (use DFT for short range part)
   LTHOMAS =     F    Thomas Fermi screening in HF
   LMODELHF=     F    short range full HF, long range fraction AEXX
   FOCKCORR=     1    mode to apply convergence corrections
   LFOCKACE=     T    use Adeptively-Compressed-Exchange operator
   ENCUT4O =  -1.0   cutoff for four orbital integrals eV
   LMAXFOCK=     4    L truncation for augmentation on plane wave grid
   LMAXFOCKAE=  -1    L truncation for all-electron charge restoration on plane wave grid
   NMAXFOCKAE=   1    number of basis functions for all-electron charge restoration
   LFOCKAEDFT=     F  apply the AE augmentation even for DFT
   NKREDX  =     1    reduce k-point grid by
   NKREDY  =     1    reduce k-point grid by
   NKREDZ  =     1    reduce k-point grid by
   SHIFTRED=     F    shift reduced grid of Gamma
   HFKIDENT=     F    idential grid for each k-point
   ODDONLY =     F    use only odd q-grid points
   EVENONLY=     F    use only even q-grid points
   HFALPHA =   -1.0000 decay constant for conv. correction
   MCALPHA =    0.0000 extent of test-charge in conv. correction in multipole expansion
   AEXX    =    0.2000 exact exchange contribution
   HFSCREEN=    0.0000 screening length (either q_TF or 0.3 A-1)
   HFSCREENC=   0.0000 screening length for correlation (either q_TF or 0.3 A-1)
   HFRCUT  =    0.0000 spherical cutoff for potential kernel
   ALDAX   =    0.8000 LDA exchange part
   AGGAX   =    0.7200 GGA exchange part
   ALDAC   =    0.1900 LDA correlation
   AGGAC   =    0.8100 GGA correlation
   ENCUTFOCK=  -1.0 apply spherical cutoff to Coloumb kernel
   NBANDSGWLOW=     1    first orbital included in HF term
   NBLOCK_FOCK=    64    blocking factor in FOCK_ACC

 Linear response parameters
   LEPSILON=     F    determine dielectric tensor
   LRPA    =     F    only Hartree local field effects (RPA)
   LNABLA  =     F    use nabla operator in PAW spheres
   LVEL    =     F    velocity operator in full k-point grid
   CSHIFT  =0.1000    complex shift for real part using Kramers Kronig
   OMEGAMAX=  -1.0    maximum frequency
   DEG_THRESHOLD= 0.2000000E-02 threshold for treating states as degnerate
   RTIME   =   -0.100 relaxation time in fs
  (WPLASMAI=    0.000 imaginary part of plasma frequency in eV, 0.658/RTIME)
   DFIELD  = 0.0000000 0.0000000 0.0000000 field for delta impulse in time
 
  Optional k-point grid parameters
   LKPOINTS_OPT  =     F    use optional k-point grid
   KPOINTS_OPT_MODE=     1    mode for optional k-point grid
 
 Orbital magnetization related:
   ORBITALMAG=     F  switch on orbital magnetization
   LCHIMAG   =     F  perturbation theory with respect to B field
   DQ        =  0.001000  dq finite difference perturbation B field
   LLRAUG    =     F  two centre corrections for induced B field



--------------------------------------------------------------------------------------------------------


 Static calculation
 charge density and potential will be updated during run
 non-spin polarized calculation
 Conjugate gradient for all bands (Freysoldt, et al. PRB 79, 241103 (2009))
 preconditioned conjugated gradient                                        
 perform sub-space diagonalisation
    before iterative eigenvector-optimisation
 modified Broyden-mixing scheme, WC =      100.0
 initial mixing is a Kerker type mixing with AMIX =  0.4000 and BMIX =      1.0000
 Hartree-type preconditioning will be used
 using additional bands           32
 real space projection scheme for non local part
 use partial core corrections
 no Harris-corrections to forces 
 use gradient corrections 
 use of overlap-Matrix (Vanderbilt PP)
 Gauss-broadening in eV      SIGMA  =   0.10


--------------------------------------------------------------------------------------------------------


  energy-cutoff  :      400.00
  volume of cell :     1371.39
      direct lattice vectors                 reciprocal lattice vectors
    15.258013385  0.006374814  0.024579381     0.065314117  0.034130566  0.130953070
    -7.105142985 13.502791256  0.024499078    -0.000241744  0.073693958  0.130953351
    -7.105097270-11.773071197  6.612175988    -0.000241896 -0.000399920  0.150264152

  length of vectors
    15.258034514 15.258080769 15.258062915     0.150264886  0.150265226  0.150264879


 
 k-points in units of 2pi/SCALE and weight: KPOINTS                                 
   0.00000000  0.00000000  0.00000000       1.000
 
 k-points in reciprocal lattice and weights: KPOINTS                                 
   0.00000000  0.00000000  0.00000000       1.000
 
 position of ions in fractional coordinates (direct lattice) 
   0.28501671  0.92392123  0.19395262
   0.28923237  0.86808590  0.11306137
   0.27790336  0.97831772  0.27069747
 
 position of ions in cartesian coordinates  (Angst):
  -3.59385598 10.19391444  1.31208961
  -2.55807517 10.39234695  0.77595815
  -4.63416591 10.02485103  1.82069786
 


--------------------------------------------------------------------------------------------------------


 use serial FFT for orbitals x direction half grid
 k-point   1 :   0.0000 0.0000 0.0000  plane waves:   12430

 maximum and minimum number of plane-waves per node :     12430    12430

 maximum number of plane-waves:     12430
 maximum index in each direction: 
   IXMAX=   24   IYMAX=   22   IZMAX=   21
   IXMIN=    0   IYMIN=  -24   IZMIN=  -24


 serial   3D FFT for wavefunctions
 parallel 3D FFT for charge:
    minimum data exchange during FFTs selected (reduces bandwidth)


 FFT grid for exact exchange (Hartree Fock) 
  NGX = 80; NGY = 80; NGZ = 80

 use serial FFT for orbitals x direction half grid
 
 Radii for the augmentation spheres in the non-local exchange
 for species   1 augmentation radius   0.874 (default was   0.699)
       energy cutoff for augmentation   1600.0
 for species   2 augmentation radius   0.902 (default was   0.722)
       energy cutoff for augmentation   1600.0
 Maximum index for augmentation-charges in exchange         1146
  SETUP_FOCK is finished

 total amount of memory used by VASP MPI-rank0    95376. kBytes
=======================================================================

   base      :      30000. kBytes
   nonlr-proj:       2413. kBytes
   fftplans  :      10913. kBytes
   grid      :      51440. kBytes
   one-center:          4. kBytes
   HF        :          9. kBytes
   wavefun   :        597. kBytes
 
     INWAV:  cpu time      0.0001: real time      0.0002
 Broyden mixing: mesh for mixing (old mesh)
   NGX = 49   NGY = 49   NGZ = 49
  (NGX  =200   NGY  =200   NGZ  =200)
  gives a total of 117649 points

 initial charge density was supplied:
 charge density of overlapping atoms calculated
 number of electron      16.0000000 magnetization 
 keeping initial charge density in first step


--------------------------------------------------------------------------------------------------------


 Maximum index for non-local projection operator        10208
 Maximum index for augmentation-charges          154 (set IRDMAX)


--------------------------------------------------------------------------------------------------------


    FEWALD:  cpu time      0.0003: real time      0.0003


--------------------------------------- Iteration      1(   1)  ---------------------------------------


    POTLOK:  cpu time      0.1865: real time      0.2012
    SETDIJ:  cpu time      0.0434: real time      0.0441
    TRIAL :  cpu time      0.2739: real time      0.2972
    CORREC:  cpu time      0.0002: real time      0.0002
    --------------------------------------------
      LOOP:  cpu time      0.5062: real time      0.5525

 eigenvalue-minimisations  :   120
 total energy-change (2. order) :-0.2586331E+02  (-0.5163625E+03)
 number of electron      16.0000000 magnetization 
 augmentation part       16.0000000 magnetization 

 Free energy of the ion-electron system (eV)
  ---------------------------------------------------
  alpha Z        PSCENC =         0.77999380
  Ewald energy   TEWEN  =       415.52520223
  -Hartree energ DENC   =     -1225.50010193
  -exchange      EXHF   =         0.00000000
  -V(xc)+E(xc)   XCENC  =        67.51643814
  PAW double counting   =       801.62100016     -873.32065483
  entropy T*S    EENTRO =        -0.00000000
  eigenvalues    EBANDS =      -220.37249594
  atomic energy  EATOM  =      1007.88731181
  ---------------------------------------------------
  free energy    TOTEN  =       -25.86330656 eV

  energy without entropy =      -25.86330656  energy(sigma->0) =      -25.86330656
  exchange ACFDT corr.  =         0.00000000  see jH, gK, PRB 81, 115126


--------------------------------------------------------------------------------------------------------




--------------------------------------- Iteration      1(   2)  ---------------------------------------


    TRIAL :  cpu time      0.1933: real time      0.1939
    CORREC:  cpu time      0.0001: real time      0.0001
    --------------------------------------------
      LOOP:  cpu time      0.1939: real time      0.1952

 eigenvalue-minimisations  :    80
 total energy-change (2. order) :-0.7241481E+02  (-0.7241481E+02)
 number of electron      16.0000000 magnetization 
 augmentation part       16.0000000 magnetization 

 Free energy of the ion-electron system (eV)
  ---------------------------------------------------
  alpha Z        PSCENC =         0.77999380
  Ewald energy   TEWEN  =       415.52520223
  -Hartree energ DENC   =     -1225.50010193
  -exchange      EXHF   =         0.00000000
  -V(xc)+E(xc)   XCENC  =        67.51643814
  PAW double counting   =       801.62100016     -873.32065483
  entropy T*S    EENTRO =        -0.00000000
  eigenvalues    EBANDS =      -292.78730376
  atomic energy  EATOM  =      1007.88731181
  ---------------------------------------------------
  free energy    TOTEN  =       -98.27811437 eV

  energy without entropy =      -98.27811437  energy(sigma->0) =      -98.27811437
  exchange ACFDT corr.  =         0.00000000  see jH, gK, PRB 81, 115126


--------------------------------------------------------------------------------------------------------




--------------------------------------- Iteration      1(   3)  ---------------------------------------


    TRIAL :  cpu time      0.2650: real time      0.2658
    CORREC:  cpu time      0.0001: real time      0.0001
    --------------------------------------------
      LOOP:  cpu time      0.2655: real time      0.2663

 eigenvalue-minimisations  :   120
 total energy-change (2. order) :-0.2136397E+01  (-0.2136397E+01)
 number of electron      16.0000000 magnetization 
 augmentation part       16.0000000 magnetization 

 Free energy of the ion-electron system (eV)
  ---------------------------------------------------
  alpha Z        PSCENC =         0.77999380
  Ewald energy   TEWEN  =       415.52520223
  -Hartree energ DENC   =     -1225.50010193
  -exchange      EXHF   =         0.00000000
  -V(xc)+E(xc)   XCENC  =        67.51643814
  PAW double counting   =       801.62100016     -873.32065483
  entropy T*S    EENTRO =        -0.00000000
  eigenvalues    EBANDS =      -294.92370067
  atomic energy  EATOM  =      1007.88731181
  ---------------------------------------------------
  free energy    TOTEN  =      -100.41451128 eV

  energy without entropy =     -100.41451128  energy(sigma->0) =     -100.41451128
  exchange ACFDT corr.  =         0.00000000  see jH, gK, PRB 81, 115126


--------------------------------------------------------------------------------------------------------




--------------------------------------- Iteration      1(   4)  ---------------------------------------


    TRIAL :  cpu time      0.1931: real time      0.1937
    CORREC:  cpu time      0.0001: real time      0.0001
    --------------------------------------------
      LOOP:  cpu time      0.1934: real time      0.1940

 eigenvalue-minimisations  :    80
 total energy-change (2. order) :-0.1414979E-02  (-0.1414978E-02)
 number of electron      16.0000000 magnetization 
 augmentation part       16.0000000 magnetization 

 Free energy of the ion-electron system (eV)
  ---------------------------------------------------
  alpha Z        PSCENC =         0.77999380
  Ewald energy   TEWEN  =       415.52520223
  -Hartree energ DENC   =     -1225.50010193
  -exchange      EXHF   =         0.00000000
  -V(xc)+E(xc)   XCENC  =        67.51643814
  PAW double counting   =       801.62100016     -873.32065483
  entropy T*S    EENTRO =        -0.00000000
  eigenvalues    EBANDS =      -294.92511565
  atomic energy  EATOM  =      1007.88731181
  ---------------------------------------------------
  free energy    TOTEN  =      -100.41592626 eV

  energy without entropy =     -100.41592626  energy(sigma->0) =     -100.41592626
  exchange ACFDT corr.  =         0.00000000  see jH, gK, PRB 81, 115126


--------------------------------------------------------------------------------------------------------




--------------------------------------- Iteration      1(   5)  ---------------------------------------


    POTLOK:  cpu time      0.2645: real time      0.2655
    SETDIJ:  cpu time      0.1363: real time      0.1367
    TRIAL :  cpu time      2.2887: real time      2.2959
    CORREC:  cpu time      0.0001: real time      0.0001
    CHARGE:  cpu time      0.0586: real time      0.0587
    --------------------------------------------
      LOOP:  cpu time      2.7485: real time      2.7572

 eigenvalue-minimisations  :   120
 total energy-change (2. order) : 0.7016750E+02  (-0.1234096E+00)
 number of electron      16.0000001 magnetization 
 augmentation part        1.5465866 magnetization 

 Free energy of the ion-electron system (eV)
  ---------------------------------------------------
  alpha Z        PSCENC =         0.77999380
  Ewald energy   TEWEN  =       415.52520223
  -Hartree energ DENC   =     -1225.50010193
  -exchange      EXHF   =        44.36749749
  -V(xc)+E(xc)   XCENC  =        53.93717053
  PAW double counting   =       814.06158673     -818.17205984
  entropy T*S    EENTRO =        -0.00000000
  eigenvalues    EBANDS =      -323.13502913
  atomic energy  EATOM  =      1007.88731181
  ---------------------------------------------------
  free energy    TOTEN  =       -30.24842831 eV

  energy without entropy =      -30.24842831  energy(sigma->0) =      -30.24842831
  exchange ACFDT corr.  =        -0.00000000  see jH, gK, PRB 81, 115126


--------------------------------------------------------------------------------------------------------




--------------------------------------- Iteration      1(   6)  ---------------------------------------


    POTLOK:  cpu time      0.2801: real time      0.2815
    SETDIJ:  cpu time      0.1342: real time      0.1345
    TRIAL :  cpu time      2.1331: real time      2.1722
    CORREC:  cpu time      9.7970: real time      9.8378
    CHARGE:  cpu time      0.0589: real time      0.0591
    --------------------------------------------
      LOOP:  cpu time     12.4049: real time     12.4867

 eigenvalue-minimisations  :     0
 total energy-change (2. order) : 0.6253719E+01  (-0.6702263E-01)
 number of electron      16.0000001 magnetization 
 augmentation part        1.3729423 magnetization 

 Free energy of the ion-electron system (eV)
  ---------------------------------------------------
  alpha Z        PSCENC =         0.77999380
  Ewald energy   TEWEN  =       415.52520223
  -Hartree energ DENC   =     -1315.02432639
  -exchange      EXHF   =        44.62541759
  -V(xc)+E(xc)   XCENC  =        58.31517044
  PAW double counting   =      1624.51120857    -1629.63439531
  entropy T*S    EENTRO =        -0.00000000
  eigenvalues    EBANDS =      -230.98029178
  atomic energy  EATOM  =      1007.88731181
  ---------------------------------------------------
  free energy    TOTEN  =       -23.99470905 eV

  energy without entropy =      -23.99470905  energy(sigma->0) =      -23.99470905
  exchange ACFDT corr.  =        -0.00000000  see jH, gK, PRB 81, 115126


--------------------------------------------------------------------------------------------------------




--------------------------------------- Iteration      1(   7)  ---------------------------------------


    POTLOK:  cpu time      0.2816: real time      0.2823
    SETDIJ:  cpu time      0.1357: real time      0.1360
    TRIAL :  cpu time      2.0587: real time      2.0648
    CORREC:  cpu time      2.4288: real time      2.4359
    CHARGE:  cpu time      0.0662: real time      0.0664
    --------------------------------------------
      LOOP:  cpu time      4.9715: real time      4.9869

 eigenvalue-minimisations  :     0
 total energy-change (2. order) :-0.2985633E+01  (-0.5295414E+00)
 number of electron      16.0000000 magnetization 
 augmentation part        1.3387294 magnetization 

 Free energy of the ion-electron system (eV)
  ---------------------------------------------------
  alpha Z        PSCENC =         0.77999380
  Ewald energy   TEWEN  =       415.52520223
  -Hartree energ DENC   =     -1257.10880632
  -exchange      EXHF   =        42.42918638
  -V(xc)+E(xc)   XCENC  =        55.59484805
  PAW double counting   =      1540.30137368    -1544.84880274
  entropy T*S    EENTRO =        -0.00000000
  eigenvalues    EBANDS =      -287.54064871
  atomic energy  EATOM  =      1007.88731181
  ---------------------------------------------------
  free energy    TOTEN  =       -26.98034181 eV

  energy without entropy =      -26.98034181  energy(sigma->0) =      -26.98034181
  exchange ACFDT corr.  =        -0.00000000  see jH, gK, PRB 81, 115126


--------------------------------------------------------------------------------------------------------




--------------------------------------- Iteration      1(   8)  ---------------------------------------


    POTLOK:  cpu time      0.2828: real time      0.2835
    SETDIJ:  cpu time      0.1369: real time      0.1372
    TRIAL :  cpu time      2.0171: real time      2.0230
    CORREC:  cpu time      2.5068: real time      2.5143
    CHARGE:  cpu time      0.0590: real time      0.0591
    --------------------------------------------
      LOOP:  cpu time      5.0041: real time      5.0186

 eigenvalue-minimisations  :     0
 total energy-change (2. order) :-0.5550893E+00  (-0.2336084E+00)
 number of electron      16.0000000 magnetization 
 augmentation part        1.3377874 magnetization 

 Free energy of the ion-electron system (eV)
  ---------------------------------------------------
  alpha Z        PSCENC =         0.77999380
  Ewald energy   TEWEN  =       415.52520223
  -Hartree energ DENC   =     -1264.03389628
  -exchange      EXHF   =        42.55348548
  -V(xc)+E(xc)   XCENC  =        55.75508151
  PAW double counting   =      1549.02098346    -1553.36794562
  entropy T*S    EENTRO =        -0.00000000
  eigenvalues    EBANDS =      -281.65564752
  atomic energy  EATOM  =      1007.88731181
  ---------------------------------------------------
  free energy    TOTEN  =       -27.53543112 eV

  energy without entropy =      -27.53543112  energy(sigma->0) =      -27.53543112
  exchange ACFDT corr.  =         0.00000000  see jH, gK, PRB 81, 115126


--------------------------------------------------------------------------------------------------------




--------------------------------------- Iteration      1(   9)  ---------------------------------------


    POTLOK:  cpu time      0.2812: real time      0.2819
    SETDIJ:  cpu time      0.1369: real time      0.1373
    TRIAL :  cpu time      2.0428: real time      2.1281
    CORREC:  cpu time      2.4869: real time      2.6791
    CHARGE:  cpu time      0.0571: real time      0.0573
    --------------------------------------------
      LOOP:  cpu time      5.0055: real time      5.2841

 eigenvalue-minimisations  :     0
 total energy-change (2. order) :-0.2369240E+00  (-0.1113257E+00)
 number of electron      16.0000000 magnetization 
 augmentation part        1.3301240 magnetization 

 Free energy of the ion-electron system (eV)
  ---------------------------------------------------
  alpha Z        PSCENC =         0.77999380
  Ewald energy   TEWEN  =       415.52520223
  -Hartree energ DENC   =     -1269.04516224
  -exchange      EXHF   =        42.64273191
  -V(xc)+E(xc)   XCENC  =        55.90105450
  PAW double counting   =      1560.89262669    -1565.21042414
  entropy T*S    EENTRO =        -0.00000000
  eigenvalues    EBANDS =      -277.14568963
  atomic energy  EATOM  =      1007.88731181
  ---------------------------------------------------
  free energy    TOTEN  =       -27.77235508 eV

  energy without entropy =      -27.77235508  energy(sigma->0) =      -27.77235508
  exchange ACFDT corr.  =        -0.00000000  see jH, gK, PRB 81, 115126


--------------------------------------------------------------------------------------------------------




--------------------------------------- Iteration      1(  10)  ---------------------------------------


    POTLOK:  cpu time      0.2842: real time      0.2849
    SETDIJ:  cpu time      0.1351: real time      0.1354
    TRIAL :  cpu time      1.9831: real time      1.9893
    CORREC:  cpu time      2.3606: real time      2.3679
    CHARGE:  cpu time      0.0572: real time      0.0573
    --------------------------------------------
      LOOP:  cpu time      4.8216: real time      4.8362

 eigenvalue-minimisations  :     0
 total energy-change (2. order) :-0.1094850E+00  (-0.3420950E-01)
 number of electron      16.0000000 magnetization 
 augmentation part        1.3284736 magnetization 

 Free energy of the ion-electron system (eV)
  ---------------------------------------------------
  alpha Z        PSCENC =         0.77999380
  Ewald energy   TEWEN  =       415.52520223
  -Hartree energ DENC   =     -1265.39436754
  -exchange      EXHF   =        42.46480519
  -V(xc)+E(xc)   XCENC  =        55.72148100
  PAW double counting   =      1562.15689695    -1566.44580634
  entropy T*S    EENTRO =        -0.00000000
  eigenvalues    EBANDS =      -280.57735720
  atomic energy  EATOM  =      1007.88731181
  ---------------------------------------------------
  free energy    TOTEN  =       -27.88184009 eV

  energy without entropy =      -27.88184009  energy(sigma->0) =      -27.88184009
  exchange ACFDT corr.  =        -0.00000000  see jH, gK, PRB 81, 115126


--------------------------------------------------------------------------------------------------------




--------------------------------------- Iteration      1(  11)  ---------------------------------------


    POTLOK:  cpu time      0.3005: real time      0.3034
    SETDIJ:  cpu time      0.1341: real time      0.1345
    TRIAL :  cpu time      1.9610: real time      1.9671
    CORREC:  cpu time      2.3780: real time      2.3855
    CHARGE:  cpu time      0.0574: real time      0.0575
    --------------------------------------------
      LOOP:  cpu time      4.8315: real time      4.8485

 eigenvalue-minimisations  :     0
 total energy-change (2. order) :-0.3384862E-01  (-0.1039070E-01)
 number of electron      16.0000000 magnetization 
 augmentation part        1.3323655 magnetization 

 Free energy of the ion-electron system (eV)
  ---------------------------------------------------
  alpha Z        PSCENC =         0.77999380
  Ewald energy   TEWEN  =       415.52520223
  -Hartree energ DENC   =     -1264.06008830
  -exchange      EXHF   =        42.39751649
  -V(xc)+E(xc)   XCENC  =        55.66448628
  PAW double counting   =      1564.52236600    -1568.80295351
  entropy T*S    EENTRO =        -0.00000000
  eigenvalues    EBANDS =      -281.82952353
  atomic energy  EATOM  =      1007.88731181
  ---------------------------------------------------
  free energy    TOTEN  =       -27.91568872 eV

  energy without entropy =      -27.91568872  energy(sigma->0) =      -27.91568872
  exchange ACFDT corr.  =        -0.00000000  see jH, gK, PRB 81, 115126


--------------------------------------------------------------------------------------------------------




--------------------------------------- Iteration      1(  12)  ---------------------------------------


    POTLOK:  cpu time      0.2824: real time      0.2833
    SETDIJ:  cpu time      0.1364: real time      0.1367
    TRIAL :  cpu time      1.9801: real time      1.9861
    CORREC:  cpu time      2.3889: real time      2.3958
    CHARGE:  cpu time      0.0572: real time      0.0576
    --------------------------------------------
      LOOP:  cpu time      4.8454: real time      4.8599

 eigenvalue-minimisations  :     0
 total energy-change (2. order) :-0.1037580E-01  (-0.3565122E-02)
 number of electron      16.0000000 magnetization 
 augmentation part        1.3336381 magnetization 

 Free energy of the ion-electron system (eV)
  ---------------------------------------------------
  alpha Z        PSCENC =         0.77999380
  Ewald energy   TEWEN  =       415.52520223
  -Hartree energ DENC   =     -1264.45401188
  -exchange      EXHF   =        42.40242768
  -V(xc)+E(xc)   XCENC  =        55.68574715
  PAW double counting   =      1568.04863324    -1572.34725931
  entropy T*S    EENTRO =        -0.00000000
  eigenvalues    EBANDS =      -281.45410924
  atomic energy  EATOM  =      1007.88731181
  ---------------------------------------------------
  free energy    TOTEN  =       -27.92606452 eV

  energy without entropy =      -27.92606452  energy(sigma->0) =      -27.92606452
  exchange ACFDT corr.  =        -0.00000000  see jH, gK, PRB 81, 115126


--------------------------------------------------------------------------------------------------------




--------------------------------------- Iteration      1(  13)  ---------------------------------------


    POTLOK:  cpu time      0.2821: real time      0.2831
    SETDIJ:  cpu time      0.1348: real time      0.1352
    TRIAL :  cpu time      2.0008: real time      2.0694
    CORREC:  cpu time      2.3605: real time      2.3674
    CHARGE:  cpu time      0.0589: real time      0.0590
    --------------------------------------------
      LOOP:  cpu time      4.8377: real time      4.9147

 eigenvalue-minimisations  :     0
 total energy-change (2. order) :-0.3566293E-02  (-0.1166628E-02)
 number of electron      16.0000000 magnetization 
 augmentation part        1.3333696 magnetization 

 Free energy of the ion-electron system (eV)
  ---------------------------------------------------
  alpha Z        PSCENC =         0.77999380
  Ewald energy   TEWEN  =       415.52520223
  -Hartree energ DENC   =     -1263.95500025
  -exchange      EXHF   =        42.38466222
  -V(xc)+E(xc)   XCENC  =        55.66968128
  PAW double counting   =      1569.13786788    -1573.44746018
  entropy T*S    EENTRO =        -0.00000000
  eigenvalues    EBANDS =      -281.91188960
  atomic energy  EATOM  =      1007.88731181
  ---------------------------------------------------
  free energy    TOTEN  =       -27.92963081 eV

  energy without entropy =      -27.92963081  energy(sigma->0) =      -27.92963081
  exchange ACFDT corr.  =        -0.00000000  see jH, gK, PRB 81, 115126


--------------------------------------------------------------------------------------------------------




--------------------------------------- Iteration      1(  14)  ---------------------------------------


    POTLOK:  cpu time      0.2824: real time      0.2834
    SETDIJ:  cpu time      0.1355: real time      0.1358
    TRIAL :  cpu time      1.9698: real time      1.9758
    CORREC:  cpu time      2.4186: real time      2.4256
    CHARGE:  cpu time      0.0568: real time      0.0569
    --------------------------------------------
      LOOP:  cpu time      4.8636: real time      4.8781

 eigenvalue-minimisations  :     0
 total energy-change (2. order) :-0.1159024E-02  (-0.3635656E-03)
 number of electron      16.0000000 magnetization 
 augmentation part        1.3332218 magnetization 

 Free energy of the ion-electron system (eV)
  ---------------------------------------------------
  alpha Z        PSCENC =         0.77999380
  Ewald energy   TEWEN  =       415.52520223
  -Hartree energ DENC   =     -1263.68655438
  -exchange      EXHF   =        42.37627998
  -V(xc)+E(xc)   XCENC  =        55.66060399
  PAW double counting   =      1569.38570581    -1573.69687861
  entropy T*S    EENTRO =        -0.00000000
  eigenvalues    EBANDS =      -282.16245448
  atomic energy  EATOM  =      1007.88731181
  ---------------------------------------------------
  free energy    TOTEN  =       -27.93078984 eV

  energy without entropy =      -27.93078984  energy(sigma->0) =      -27.93078984
  exchange ACFDT corr.  =        -0.00000000  see jH, gK, PRB 81, 115126


--------------------------------------------------------------------------------------------------------




--------------------------------------- Iteration      1(  15)  ---------------------------------------


    POTLOK:  cpu time      0.2851: real time      0.2863
    SETDIJ:  cpu time      0.1355: real time      0.1358
    TRIAL :  cpu time      1.9614: real time      1.9679
    CORREC:  cpu time      2.3740: real time      2.3815
    CHARGE:  cpu time      0.0572: real time      0.0573
    --------------------------------------------
      LOOP:  cpu time      4.8156: real time      4.8312

 eigenvalue-minimisations  :     0
 total energy-change (2. order) :-0.3637400E-03  (-0.1033946E-03)
 number of electron      16.0000000 magnetization 
 augmentation part        1.3327774 magnetization 

 Free energy of the ion-electron system (eV)
  ---------------------------------------------------
  alpha Z        PSCENC =         0.77999380
  Ewald energy   TEWEN  =       415.52520223
  -Hartree energ DENC   =     -1263.77136328
  -exchange      EXHF   =        42.38011374
  -V(xc)+E(xc)   XCENC  =        55.66505502
  PAW double counting   =      1569.39095103    -1573.70175877
  entropy T*S    EENTRO =        -0.00000000
  eigenvalues    EBANDS =      -282.08665916
  atomic energy  EATOM  =      1007.88731181
  ---------------------------------------------------
  free energy    TOTEN  =       -27.93115358 eV

  energy without entropy =      -27.93115358  energy(sigma->0) =      -27.93115358
  exchange ACFDT corr.  =        -0.00000000  see jH, gK, PRB 81, 115126


--------------------------------------------------------------------------------------------------------




--------------------------------------- Iteration      1(  16)  ---------------------------------------


    POTLOK:  cpu time      0.2827: real time      0.2833
    SETDIJ:  cpu time      0.1340: real time      0.1345
    TRIAL :  cpu time      2.0388: real time      2.0490
    CORREC:  cpu time      2.4256: real time      2.4326
    CHARGE:  cpu time      0.0584: real time      0.0586
    --------------------------------------------
      LOOP:  cpu time      4.9410: real time      4.9595

 eigenvalue-minimisations  :     0
 total energy-change (2. order) :-0.1041651E-03  (-0.2864054E-04)
 number of electron      16.0000000 magnetization 
 augmentation part        1.3326956 magnetization 

 Free energy of the ion-electron system (eV)
  ---------------------------------------------------
  alpha Z        PSCENC =         0.77999380
  Ewald energy   TEWEN  =       415.52520223
  -Hartree energ DENC   =     -1263.66789816
  -exchange      EXHF   =        42.37752451
  -V(xc)+E(xc)   XCENC  =        55.66087909
  PAW double counting   =      1568.88326896    -1573.19236336
  entropy T*S    EENTRO =        -0.00000000
  eigenvalues    EBANDS =      -282.18517663
  atomic energy  EATOM  =      1007.88731181
  ---------------------------------------------------
  free energy    TOTEN  =       -27.93125774 eV

  energy without entropy =      -27.93125774  energy(sigma->0) =      -27.93125774
  exchange ACFDT corr.  =        -0.00000000  see jH, gK, PRB 81, 115126


--------------------------------------------------------------------------------------------------------




--------------------------------------- Iteration      1(  17)  ---------------------------------------


    POTLOK:  cpu time      0.2831: real time      0.2838
    SETDIJ:  cpu time      0.1366: real time      0.1372
    TRIAL :  cpu time      2.0495: real time      2.0560
    CORREC:  cpu time      2.3862: real time      2.4024
    CHARGE:  cpu time      0.0575: real time      0.0577
    --------------------------------------------
      LOOP:  cpu time      4.9139: real time      4.9382

 eigenvalue-minimisations  :     0
 total energy-change (2. order) :-0.2901244E-04  (-0.7761795E-05)
 number of electron      16.0000000 magnetization 
 augmentation part        1.3326618 magnetization 

 Free energy of the ion-electron system (eV)
  ---------------------------------------------------
  alpha Z        PSCENC =         0.77999380
  Ewald energy   TEWEN  =       415.52520223
  -Hartree energ DENC   =     -1263.69043425
  -exchange      EXHF   =        42.37873868
  -V(xc)+E(xc)   XCENC  =        55.66205875
  PAW double counting   =      1568.53441022    -1572.84291904
  entropy T*S    EENTRO =        -0.00000000
  eigenvalues    EBANDS =      -282.16564895
  atomic energy  EATOM  =      1007.88731181
  ---------------------------------------------------
  free energy    TOTEN  =       -27.93128675 eV

  energy without entropy =      -27.93128675  energy(sigma->0) =      -27.93128675
  exchange ACFDT corr.  =        -0.00000000  see jH, gK, PRB 81, 115126


--------------------------------------------------------------------------------------------------------




--------------------------------------- Iteration      1(  18)  ---------------------------------------


    POTLOK:  cpu time      0.2833: real time      0.2840
    SETDIJ:  cpu time      0.1342: real time      0.1345
    TRIAL :  cpu time      1.9947: real time      2.0013
    CORREC:  cpu time      2.3936: real time      2.4009
    EDDIAG:  cpu time      1.9800: real time      1.9859
    CHARGE:  cpu time      0.0622: real time      0.0625
    --------------------------------------------
      LOOP:  cpu time      6.8484: real time      6.8695

 eigenvalue-minimisations  :     0
 total energy-change (2. order) :-0.7937515E-05  (-0.3737753E-05)
 number of electron      16.0000000 magnetization 
 augmentation part        1.3326370 magnetization 

 Free energy of the ion-electron system (eV)
  ---------------------------------------------------
  alpha Z        PSCENC =         0.77999380
  Ewald energy   TEWEN  =       415.52520223
  -Hartree energ DENC   =     -1263.69742442
  -exchange      EXHF   =        42.37887780
  -V(xc)+E(xc)   XCENC  =        55.66234019
  PAW double counting   =      1568.27147105    -1572.57975023
  entropy T*S    EENTRO =        -0.00000000
  eigenvalues    EBANDS =      -282.15954174
  atomic energy  EATOM  =      1007.88731181
  ---------------------------------------------------
  free energy    TOTEN  =       -27.93129469 eV

  energy without entropy =      -27.93129469  energy(sigma->0) =      -27.93129469
  exchange ACFDT corr.  =        -0.00000000  see jH, gK, PRB 81, 115126


--------------------------------------------------------------------------------------------------------


  average scaling for gradient   1.0847


 average (electrostatic) potential at core
  the test charge radii are     0.6991  0.7215
  (the norm of the test charge is              1.0000)
       1 -60.6199       2 -77.5373       3 -77.6670
 
 
 
 E-fermi :  -9.8052     XC(G=0):  -0.4424     alpha+bet : -0.1823

 Fermi energy:        -9.8052117993

 k-point     1 :       0.0000    0.0000    0.0000
  band No.  band energies     occupation 
      1     -31.7572      2.00000
      2     -30.6348      2.00000
      3     -15.4962      2.00000
      4     -14.2487      2.00000
      5     -14.1383      2.00000
      6     -14.1322      2.00000
      7     -10.3397      2.00000
      8     -10.3340      2.00000
      9      -0.7456      0.00000
     10       0.3145      0.00000
     11       0.3583      0.00000
     12       0.4202      0.00000
     13       0.6806      0.00000
     14       0.7643      0.00000
     15       0.9508      0.00000
     16       0.9751      0.00000
     17       1.0104      0.00000
     18       2.2043      0.00000
     19       2.4308      0.00000
     20       2.4957      0.00000
     21       2.5577      0.00000
     22       2.5676      0.00000
     23       2.6842      0.00000
     24       2.6959      0.00000
     25       2.8134      0.00000
     26       3.3031      0.00000
     27       3.3562      0.00000
     28       3.4102      0.00000
     29       3.4113      0.00000
     30       3.4515      0.00000
     31       3.4731      0.00000
     32       3.4831      0.00000
     33       3.4837      0.00000
     34       3.5071      0.00000
     35       3.5414      0.00000
     36       3.9396      0.00000
     37       4.0797      0.00000
     38       4.1418      0.00000
     39       4.1863      0.00000
     40       4.2119      0.00000


--------------------------------------------------------------------------------------------------------


 soft charge-density along one line, spin component           1
         0         1         2         3         4         5         6         7         8         9
 total charge-density along one line
 
 pseudopotential strength for first ion, spin component:           1
 10.323  13.731  -0.000   0.000  -0.001   0.000  -0.001   0.002
 13.731  18.263  -0.000   0.000  -0.001   0.001  -0.002   0.003
 -0.000  -0.000  -4.569   0.001  -0.002   8.965   0.000  -0.000
  0.000   0.000   0.001  -4.571   0.005   0.000   8.965   0.000
 -0.001  -0.001  -0.002   0.005  -4.578  -0.000   0.000   8.964
  0.000   0.001   8.965   0.000  -0.000 -19.729  -0.003   0.007
 -0.001  -0.002   0.000   8.965   0.000  -0.003 -19.721  -0.019
  0.002   0.003  -0.000   0.000   8.964   0.007  -0.019 -19.694
 total augmentation occupancy for first ion, spin component:           1
 10.553  -5.287   0.027   0.009  -0.107   0.005   0.001  -0.017
 -5.287   2.872  -0.018  -0.005   0.067  -0.003  -0.001   0.010
  0.027  -0.018   1.225  -0.095   0.189   0.089  -0.016   0.032
  0.009  -0.005  -0.095   1.463  -0.538  -0.016   0.130  -0.092
 -0.107   0.067   0.189  -0.538   2.263   0.032  -0.091   0.266
  0.005  -0.003   0.089  -0.016   0.032   0.007  -0.003   0.006
  0.001  -0.001  -0.016   0.130  -0.091  -0.003   0.014  -0.016
 -0.017   0.010   0.032  -0.092   0.266   0.006  -0.016   0.038


------------------------ aborting loop because EDIFF is reached ----------------------------------------


    FORLOC:  cpu time      0.0068: real time      0.0068
    FORHF :  cpu time      0.3528: real time      0.3537
    FORNL :  cpu time      0.0898: real time      0.0900
    FORCOR:  cpu time      0.3818: real time      0.3832
    OFIELD:  cpu time      0.0009: real time      0.0009
 WARNING: Using user supplied parameters
     VDW_S8 = 1.703
     VDW_SR = 1.261
     because the xc functional is not supported. Required parameters not
     defined in the INCAR file will be replaced with PBE defaults ones.


 ---------------------------------------------------------------------------------------------

         DFTD3 V3.0 Rev 1        
 IVDW         = 11
 DF unknown   
 parameters
 VDW_S6       =    1.0000
 VDW_S8       =    1.7030
 VDW_SR       =    1.2610
 rs18     =    1.0000
 alpha6   =   14.0000
 alpha8   =   16.0000
 k1-k3    =   16.0000    1.3333   -4.0000
 VDW_RADIUS   =   50.2022 A
 VDW_CNRADIUS =   21.1671 A
 Edisp (eV)   -0.00643

 E6    (eV) :    -0.0010
 E8    (eV) :    -0.0054
 % E8        : 84.40
    FORVDW:  cpu time      0.0077: real time      0.0078

 VOLUME and BASIS-vectors are now :
 -----------------------------------------------------------------------------
  energy-cutoff  :      400.00
  volume of cell :     1371.39
      direct lattice vectors                 reciprocal lattice vectors
    15.258013385  0.006374814  0.024579381     0.065314117  0.034130566  0.130953070
    -7.105142985 13.502791256  0.024499078    -0.000241744  0.073693958  0.130953351
    -7.105097270-11.773071197  6.612175988    -0.000241896 -0.000399920  0.150264152

  length of vectors
    15.258034514 15.258080769 15.258062915     0.150264886  0.150265226  0.150264879


 FORCES acting on ions:
    Electron-Ion                     Ewald-Force                    Non-Local-Force
 -----------------------------------------------------------------------------------------------
   -.711E+01 0.522E+01 -.269E+01   0.814E+01 -.501E+01 0.214E+01   -.173E+00 0.159E+00 -.987E-01
   -.246E+03 -.471E+02 0.120E+03   0.302E+03 0.580E+02 -.150E+03   -.514E+02 -.100E+02 0.267E+02
   0.251E+03 0.434E+02 -.119E+03   -.311E+03 -.530E+02 0.147E+03   0.531E+02 0.846E+01 -.257E+02
 -----------------------------------------------------------------------------------------------
   -.166E+01 0.160E+01 -.102E+01   0.000E+00 0.000E+00 0.000E+00   0.148E+01 -.140E+01 0.892E+00
 
 
 POSITION                                       TOTAL-FORCE (eV/Angst)
 -----------------------------------------------------------------------------------
     -3.59386     10.19391      1.31209         0.839907      0.382553     -0.650334
     -2.55808     10.39235      0.77596        -1.481106     -0.386124      0.855984
     -4.63417     10.02485      1.82070         0.641198      0.003571     -0.205650
 -----------------------------------------------------------------------------------
    total drift:                               -0.000120     -0.000150     -0.000500


--------------------------------------------------------------------------------------------------------



  FREE ENERGIE OF THE ION-ELECTRON SYSTEM (eV)
  ---------------------------------------------------
  free  energy   TOTEN  =       -27.93772922 eV

  energy  without entropy=      -27.93772922  energy(sigma->0) =      -27.93772922
 


--------------------------------------------------------------------------------------------------------


    POTLOK:  cpu time      0.4229: real time      0.4240


--------------------------------------------------------------------------------------------------------


 writing wavefunctions
     LOOP+:  cpu time     84.8627: real time     85.7009
    4ORBIT:  cpu time      0.0000: real time      0.0000

 total amount of memory used by VASP MPI-rank0   766685. kBytes
=======================================================================

   base      :      30000. kBytes
   nonlr-proj:       2413. kBytes
   fftplans  :      10913. kBytes
   grid      :      51440. kBytes
   one-center:          4. kBytes
   HF        :          9. kBytes
   wavefun   :        597. kBytes
   fock_wrk  :     671309. kBytes
 
  
  
 General timing and accounting informations for this job:
 ========================================================
  
                  Total CPU time used (sec):       94.073
                            User time (sec):       77.640
                          System time (sec):       16.432
                         Elapsed time (sec):       96.110
  
                   Maximum memory used (kb):     1037952.
                   Average memory used (kb):          N/A
  
                          Minor page faults:       853347
                          Major page faults:            3
                 Voluntary context switches:         3074
